CONTCAR\(3)                             
   1.00000000000000     
    12.3312997818000003    0.0000000000000000    0.0000000000000000
     0.0001127485000000   12.8291997905000006    0.0000000000000000
     0.0005937186000000    0.0011528207000000   19.9943999824000009
   C    N    Fe   Ni   O 
    52     4     1     1     2
Direct
  0.0555497994539773  0.0539539801117563  0.0492169818034256
  0.1559594229461760  0.1095690100660549  0.0494261698162225
  0.1559107685256612  0.2203523963981895  0.0478931219155735
  0.0560125630828527  0.2759018013292757  0.0466840169988539
  0.2568039425296622  0.0553224483779030  0.0519085234882021
  0.3569807679109230  0.1119303847479816  0.0548318766502137
  0.3567296675730417  0.2238528140459787  0.0538447460200993
  0.2554790238415858  0.2763892173860573  0.0492008983167890
  0.4570228259256491  0.0567043298814433  0.0588042655460237
  0.5569889750284737  0.1144206199443891  0.0609380255137657
  0.5575373771279676  0.2286012147176994  0.0615925171512894
  0.4553906508947245  0.2840734230559693  0.0579001595571076
  0.6560340607141003  0.0542666310679779  0.0603317140808624
  0.7553880053810444  0.1106093104206746  0.0567765230029163
  0.7565925975875806  0.2230125793037316  0.0568265360064108
  0.6598112765365964  0.2842567860858182  0.0622341040930982
  0.8547090253396081  0.0534575363402015  0.0532762614302826
  0.9553017704348474  0.1089400986005176  0.0503596271228482
  0.9561873026109444  0.2204271245130613  0.0492773696378596
  0.8570263601962965  0.2769860474893894  0.0519745487619626
  0.0563875794105599  0.3871682158321052  0.0445932724907962
  0.1551171923600853  0.4434018248400108  0.0446576857209729
  0.1552181157382481  0.5544429294951837  0.0444645432153589
  0.0560537693205583  0.6103796143492815  0.0433412065628449
  0.2541697029826371  0.3870526241263694  0.0476031377612546
  0.3523799324627286  0.4419272524793303  0.0522850670055350
  0.3535501668881018  0.5539089672906805  0.0553437875820075
  0.2545274252171528  0.6099822526027396  0.0487586402791556
  0.7608234544424902  0.4458435010201717  0.0562116236038798
  0.8586663949819519  0.3880542350552357  0.0498142498113143
  0.9574440951899728  0.4432233721232708  0.0449820316554074
  0.9568685942963737  0.5543487917521358  0.0440125603578674
  0.8564045484584110  0.6074227600398834  0.0474150745727415
  0.0556388449847328  0.7211059857267604  0.0447027214987162
  0.1550040059741240  0.7771049280811264  0.0472076220002636
  0.1558926207811727  0.8881052172604743  0.0487536534470019
  0.0553621295560613  0.9429080588486578  0.0485758491451331
  0.2544210524136747  0.7211640474987956  0.0500635329919903
  0.3536823813124504  0.7760289472924015  0.0559140684336227
  0.3559349633586997  0.8879919705724402  0.0557150823211305
  0.2562055997916639  0.9437714580951151  0.0518281859433008
  0.4517170994737097  0.7178073632350004  0.0658544810319585
  0.5546980260811816  0.8858105619947690  0.0645651952926064
  0.4559577523780703  0.9444496919501097  0.0599800903681593
  0.7557186428386259  0.8824091475592025  0.0573285122874991
  0.6559701353643965  0.9407226022403661  0.0615931862020968
  0.8559435221579151  0.7204032042855206  0.0485513354590369
  0.9553020689245780  0.7757972121945843  0.0465526917493308
  0.9554699257420817  0.8872030976938777  0.0490455161468188
  0.8547075211433935  0.9411487601625512  0.0530363954728065
  0.4523017056873990  0.6052959107053443  0.0686619924392875
  0.5495999927470090  0.7760831440693736  0.0700348735949491
  0.4498599764519769  0.3919609613108296  0.0572848692498072
  0.6658025109115554  0.3922379899024692  0.0665644900570518
  0.7602130195741731  0.5536568542871185  0.0527972654106235
  0.7578441159587219  0.7726967956784212  0.0554803134786903
  0.6498444961146559  0.6712306289427037  0.0746587761976727
  0.5557047833743095  0.4930709276812328  0.0844787023922006
  0.6173088932933514  0.5446693809271980  0.1629540435914214
  0.6511471332193094  0.6489509559131211  0.1623956762639202
 
  0.00000000E+00  0.00000000E+00  0.00000000E+00
  0.00000000E+00  0.00000000E+00  0.00000000E+00
  0.00000000E+00  0.00000000E+00  0.00000000E+00
  0.00000000E+00  0.00000000E+00  0.00000000E+00
  0.00000000E+00  0.00000000E+00  0.00000000E+00
  0.00000000E+00  0.00000000E+00  0.00000000E+00
  0.00000000E+00  0.00000000E+00  0.00000000E+00
  0.00000000E+00  0.00000000E+00  0.00000000E+00
  0.00000000E+00  0.00000000E+00  0.00000000E+00
  0.00000000E+00  0.00000000E+00  0.00000000E+00
  0.00000000E+00  0.00000000E+00  0.00000000E+00
  0.00000000E+00  0.00000000E+00  0.00000000E+00
  0.00000000E+00  0.00000000E+00  0.00000000E+00
  0.00000000E+00  0.00000000E+00  0.00000000E+00
  0.00000000E+00  0.00000000E+00  0.00000000E+00
  0.00000000E+00  0.00000000E+00  0.00000000E+00
  0.00000000E+00  0.00000000E+00  0.00000000E+00
  0.00000000E+00  0.00000000E+00  0.00000000E+00
  0.00000000E+00  0.00000000E+00  0.00000000E+00
  0.00000000E+00  0.00000000E+00  0.00000000E+00
  0.00000000E+00  0.00000000E+00  0.00000000E+00
  0.00000000E+00  0.00000000E+00  0.00000000E+00
  0.00000000E+00  0.00000000E+00  0.00000000E+00
  0.00000000E+00  0.00000000E+00  0.00000000E+00
  0.00000000E+00  0.00000000E+00  0.00000000E+00
  0.00000000E+00  0.00000000E+00  0.00000000E+00
  0.00000000E+00  0.00000000E+00  0.00000000E+00
  0.00000000E+00  0.00000000E+00  0.00000000E+00
  0.00000000E+00  0.00000000E+00  0.00000000E+00
  0.00000000E+00  0.00000000E+00  0.00000000E+00
  0.00000000E+00  0.00000000E+00  0.00000000E+00
  0.00000000E+00  0.00000000E+00  0.00000000E+00
  0.00000000E+00  0.00000000E+00  0.00000000E+00
  0.00000000E+00  0.00000000E+00  0.00000000E+00
  0.00000000E+00  0.00000000E+00  0.00000000E+00
  0.00000000E+00  0.00000000E+00  0.00000000E+00
  0.00000000E+00  0.00000000E+00  0.00000000E+00
  0.00000000E+00  0.00000000E+00  0.00000000E+00
  0.00000000E+00  0.00000000E+00  0.00000000E+00
  0.00000000E+00  0.00000000E+00  0.00000000E+00
  0.00000000E+00  0.00000000E+00  0.00000000E+00
  0.00000000E+00  0.00000000E+00  0.00000000E+00
  0.00000000E+00  0.00000000E+00  0.00000000E+00
  0.00000000E+00  0.00000000E+00  0.00000000E+00
  0.00000000E+00  0.00000000E+00  0.00000000E+00
  0.00000000E+00  0.00000000E+00  0.00000000E+00
  0.00000000E+00  0.00000000E+00  0.00000000E+00
  0.00000000E+00  0.00000000E+00  0.00000000E+00
  0.00000000E+00  0.00000000E+00  0.00000000E+00
  0.00000000E+00  0.00000000E+00  0.00000000E+00
  0.00000000E+00  0.00000000E+00  0.00000000E+00
  0.00000000E+00  0.00000000E+00  0.00000000E+00
  0.00000000E+00  0.00000000E+00  0.00000000E+00
  0.00000000E+00  0.00000000E+00  0.00000000E+00
  0.00000000E+00  0.00000000E+00  0.00000000E+00
  0.00000000E+00  0.00000000E+00  0.00000000E+00
  0.00000000E+00  0.00000000E+00  0.00000000E+00
  0.00000000E+00  0.00000000E+00  0.00000000E+00
  0.00000000E+00  0.00000000E+00  0.00000000E+00
  0.00000000E+00  0.00000000E+00  0.00000000E+00
