CONTCAR\(2)                             
   1.00000000000000     
    12.3312997818000003    0.0000000000000000    0.0000000000000000
     0.0001127485000000   12.8291997905000006    0.0000000000000000
     0.0005937186000000    0.0011528207000000   19.9943999824000009
   C    N    Fe   Ni   O    H 
    54     2     1     1     1     1
Direct
  0.0552677625298514  0.0554727164598380  0.0488656514456376
  0.1554434441248402  0.1110375383267392  0.0491474418928562
  0.1557220258467020  0.2217715106230612  0.0481565805194030
  0.0558908492938612  0.2767277968500107  0.0470594860825378
  0.2557446687347700  0.0566068297922324  0.0511567481100446
  0.3560657561385994  0.1123034865092567  0.0548671936824905
  0.3561994765732653  0.2241666164635413  0.0545157223692103
  0.2556089782210434  0.2775458925360247  0.0495841044286272
  0.4553477647814340  0.0564213876034835  0.0591535953778968
  0.5548725624958917  0.1132405369076084  0.0626401954241632
  0.5553791116739492  0.2256123988725661  0.0643071210456960
  0.4549134721447453  0.2828081861408944  0.0597026061296499
  0.6542440958706336  0.0534344622457331  0.0621771159172360
  0.7546350635260255  0.1100136946068198  0.0583057686188036
  0.7557199599735125  0.2220941961981560  0.0589744499020602
  0.6571358670441771  0.2811064837662745  0.0660792348110444
  0.8543343928517616  0.0539441449129240  0.0537871900887058
  0.9547743420130054  0.1100729314118171  0.0506768321211619
  0.9554895309961687  0.2212879556938654  0.0500189666182797
  0.8559758090969484  0.2772189104169104  0.0535244661618739
  0.0570999854494748  0.3878597789250271  0.0446587394916885
  0.1562501264318957  0.4439492982881871  0.0440322853426190
  0.1568261867496146  0.5553753982983282  0.0428689729629613
  0.0577200985811933  0.6106870246982014  0.0418816232351253
  0.2557052307738807  0.3882835913318916  0.0475900635934856
  0.3550104151925769  0.4431562527319589  0.0519890873806850
  0.3565596576336449  0.5569039824138633  0.0525214288004540
  0.2561060571577037  0.6111879599537978  0.0460936844696687
  0.7596528008780310  0.4467691604533496  0.0595178039907703
  0.8579447636965319  0.3885945658244976  0.0516826663265972
  0.9575715349454380  0.4433238819566065  0.0454803545888243
  0.9588075684646696  0.5541301647728473  0.0435693665396862
  0.8598512895249645  0.6095418268669868  0.0468816571244767
  0.0570057232619823  0.7224251700777531  0.0427029262056389
  0.1555637825474964  0.7781630006829894  0.0445962116460389
  0.1551699551459830  0.8895324047209674  0.0467940438037357
  0.0551233133314946  0.9445987440917880  0.0474047353444958
  0.2550097461141816  0.7222231237886001  0.0469637503938401
  0.3530611849554721  0.7785356229699923  0.0533718053098204
  0.3540304269431926  0.8898687635480569  0.0543092341678416
  0.2548515044740587  0.9455463834782992  0.0502227153437557
  0.4510036982366580  0.7227085387482036  0.0627800813077176
  0.5517957591148590  0.8849291444263078  0.0657070876336368
  0.4539575367778164  0.9445246886491030  0.0597917343719367
  0.7542251028119139  0.8835394037334763  0.0576250179880735
  0.6538749436028961  0.9408422698642980  0.0632042560403006
  0.8592799479245524  0.7220996163243544  0.0473503065263588
  0.9574460083104389  0.7781385040447418  0.0449147802957707
  0.9552071413112315  0.8887730331544357  0.0478035883163094
  0.8539986674482122  0.9421663784121361  0.0527145806094094
  0.4547433281416129  0.6106480176935556  0.0633184509200987
  0.6622065240802535  0.3905417888505355  0.0721136828166085
  0.7608221700375919  0.5582007892964839  0.0558645932875957
  0.7587339844030585  0.7720933396578950  0.0554536291150618
  0.4515780670468228  0.3916497172330334  0.0590187160678314
  0.5465821540428976  0.7785925703351355  0.0713747647524870
  0.6525266098221058  0.6662580016128925  0.0788778174123746
  0.5560091111466177  0.4900922054944116  0.0842149737331903
  0.6223211716431485  0.5756206310000317  0.1555183262715748
  0.5604017969126269  0.6036676272572242  0.1801999887240673
 
  0.00000000E+00  0.00000000E+00  0.00000000E+00
  0.00000000E+00  0.00000000E+00  0.00000000E+00
  0.00000000E+00  0.00000000E+00  0.00000000E+00
  0.00000000E+00  0.00000000E+00  0.00000000E+00
  0.00000000E+00  0.00000000E+00  0.00000000E+00
  0.00000000E+00  0.00000000E+00  0.00000000E+00
  0.00000000E+00  0.00000000E+00  0.00000000E+00
  0.00000000E+00  0.00000000E+00  0.00000000E+00
  0.00000000E+00  0.00000000E+00  0.00000000E+00
  0.00000000E+00  0.00000000E+00  0.00000000E+00
  0.00000000E+00  0.00000000E+00  0.00000000E+00
  0.00000000E+00  0.00000000E+00  0.00000000E+00
  0.00000000E+00  0.00000000E+00  0.00000000E+00
  0.00000000E+00  0.00000000E+00  0.00000000E+00
  0.00000000E+00  0.00000000E+00  0.00000000E+00
  0.00000000E+00  0.00000000E+00  0.00000000E+00
  0.00000000E+00  0.00000000E+00  0.00000000E+00
  0.00000000E+00  0.00000000E+00  0.00000000E+00
  0.00000000E+00  0.00000000E+00  0.00000000E+00
  0.00000000E+00  0.00000000E+00  0.00000000E+00
  0.00000000E+00  0.00000000E+00  0.00000000E+00
  0.00000000E+00  0.00000000E+00  0.00000000E+00
  0.00000000E+00  0.00000000E+00  0.00000000E+00
  0.00000000E+00  0.00000000E+00  0.00000000E+00
  0.00000000E+00  0.00000000E+00  0.00000000E+00
  0.00000000E+00  0.00000000E+00  0.00000000E+00
  0.00000000E+00  0.00000000E+00  0.00000000E+00
  0.00000000E+00  0.00000000E+00  0.00000000E+00
  0.00000000E+00  0.00000000E+00  0.00000000E+00
  0.00000000E+00  0.00000000E+00  0.00000000E+00
  0.00000000E+00  0.00000000E+00  0.00000000E+00
  0.00000000E+00  0.00000000E+00  0.00000000E+00
  0.00000000E+00  0.00000000E+00  0.00000000E+00
  0.00000000E+00  0.00000000E+00  0.00000000E+00
  0.00000000E+00  0.00000000E+00  0.00000000E+00
  0.00000000E+00  0.00000000E+00  0.00000000E+00
  0.00000000E+00  0.00000000E+00  0.00000000E+00
  0.00000000E+00  0.00000000E+00  0.00000000E+00
  0.00000000E+00  0.00000000E+00  0.00000000E+00
  0.00000000E+00  0.00000000E+00  0.00000000E+00
  0.00000000E+00  0.00000000E+00  0.00000000E+00
  0.00000000E+00  0.00000000E+00  0.00000000E+00
  0.00000000E+00  0.00000000E+00  0.00000000E+00
  0.00000000E+00  0.00000000E+00  0.00000000E+00
  0.00000000E+00  0.00000000E+00  0.00000000E+00
  0.00000000E+00  0.00000000E+00  0.00000000E+00
  0.00000000E+00  0.00000000E+00  0.00000000E+00
  0.00000000E+00  0.00000000E+00  0.00000000E+00
  0.00000000E+00  0.00000000E+00  0.00000000E+00
  0.00000000E+00  0.00000000E+00  0.00000000E+00
  0.00000000E+00  0.00000000E+00  0.00000000E+00
  0.00000000E+00  0.00000000E+00  0.00000000E+00
  0.00000000E+00  0.00000000E+00  0.00000000E+00
  0.00000000E+00  0.00000000E+00  0.00000000E+00
  0.00000000E+00  0.00000000E+00  0.00000000E+00
  0.00000000E+00  0.00000000E+00  0.00000000E+00
  0.00000000E+00  0.00000000E+00  0.00000000E+00
  0.00000000E+00  0.00000000E+00  0.00000000E+00
  0.00000000E+00  0.00000000E+00  0.00000000E+00
  0.00000000E+00  0.00000000E+00  0.00000000E+00
