CONTCAR\(5)                             
   1.00000000000000     
    12.3312997818000003    0.0000000000000000    0.0000000000000000
     0.0001127485000000   12.8291997905000006    0.0000000000000000
     0.0005937186000000    0.0011528207000000   19.9943999824000009
   C    N    Fe   Ni   O 
    54     2     1     1     1
Direct
  0.0558000448743606  0.0554361382786825  0.0506499541553061
  0.1561925629720592  0.1110916473892549  0.0505787303212721
  0.1568703158323362  0.2220480849100837  0.0494463341568089
  0.0564785958859960  0.2763084949683229  0.0482912602508418
  0.2561286069662611  0.0560874400618575  0.0522747950113210
  0.3566187745547223  0.1112614400794663  0.0557754005383960
  0.3573032960382742  0.2230580011864221  0.0556521745481575
  0.2571885379207109  0.2780472182381044  0.0507260827873563
  0.4560010444371347  0.0547209747729897  0.0595995935783870
  0.5559882434158361  0.1103583167274938  0.0633891375659739
  0.5566019360278849  0.2223750004852997  0.0652088350483097
  0.4570260910224253  0.2801787665451657  0.0610823381824349
  0.6548014219529443  0.0508968885964282  0.0634924496061870
  0.7549364673505101  0.1085248439501737  0.0603230634848634
  0.7559057915764918  0.2208385354599778  0.0607168660456209
  0.6570315218817220  0.2793196909920984  0.0668724828505779
  0.8548968480020079  0.0531505739254137  0.0560448780816952
  0.9551401825249365  0.1096193255191695  0.0525751443946686
  0.9558472738948871  0.2207980644448065  0.0514967572475307
  0.8561217024131418  0.2763689243077420  0.0549479607574001
  0.0573182291020727  0.3871747232162106  0.0458331433940720
  0.1569130602879983  0.4433999551829190  0.0449231299695728
  0.1568913287060399  0.5546936023956032  0.0437770816724122
  0.0580140691144459  0.6100940119973850  0.0433126718507126
  0.2571867755648701  0.3893715823802849  0.0483107097514794
  0.3571651095337733  0.4460620226451576  0.0521172157435482
  0.3558934534433857  0.5595414083570467  0.0510718564118312
  0.2554365021904029  0.6119044442044083  0.0462210451992586
  0.7587979080278671  0.4460691635778671  0.0603083649671621
  0.8575138223287772  0.3878617918020490  0.0528714799998807
  0.9576052145881495  0.4424051694036070  0.0468504300368787
  0.9591534255922178  0.5532960412991136  0.0452666746233754
  0.8610301006292197  0.6089942260434790  0.0495454474434709
  0.0572168141098299  0.7216964065767700  0.0443967119188306
  0.1553220689914903  0.7783352887258345  0.0454934725826182
  0.1553066972358597  0.8894597725094701  0.0480384896225424
  0.0554585667897702  0.9446279202879625  0.0493802270024411
  0.2541110958433305  0.7226778149501706  0.0469083986094350
  0.3523184021268149  0.7782742521348512  0.0521608394397052
  0.3541551987434475  0.8890647321334414  0.0539947663432253
  0.2550769797669256  0.9450502063848062  0.0510138226919813
  0.4497875035593020  0.7211536670854410  0.0588749148372644
  0.5516690985836934  0.8821468322374932  0.0645007560030279
  0.4546867911451127  0.9426828036539701  0.0593057153996162
  0.7552474980508773  0.8820390583981451  0.0608039646732881
  0.6539058839885405  0.9380610873510893  0.0644129376921877
  0.8605792567477454  0.7211504774109642  0.0516998112162983
  0.9581756083823615  0.7775443035151813  0.0478039570338674
  0.9558315637424072  0.8883378496338808  0.0505782649414159
  0.8546408394124817  0.9413680616404545  0.0555407393847432
  0.4559466083540402  0.3916469343060218  0.0609459289429352
  0.6600787458643158  0.3899355968104653  0.0713815085847611
  0.7617724344472644  0.5574924066940903  0.0582266214420013
  0.7603026102048632  0.7711357156736716  0.0604786777731492
  0.4506821085110630  0.6137371887997304  0.0574667691557192
  0.5455952042616002  0.7740103546455113  0.0675572658685851
  0.6542305362032367  0.6630068767922083  0.0825107625599897
  0.5568255513330546  0.4889496935887388  0.0871358117475049
  0.6149880699466975  0.5830684197155258  0.1485253738560945
 
  0.00000000E+00  0.00000000E+00  0.00000000E+00
  0.00000000E+00  0.00000000E+00  0.00000000E+00
  0.00000000E+00  0.00000000E+00  0.00000000E+00
  0.00000000E+00  0.00000000E+00  0.00000000E+00
  0.00000000E+00  0.00000000E+00  0.00000000E+00
  0.00000000E+00  0.00000000E+00  0.00000000E+00
  0.00000000E+00  0.00000000E+00  0.00000000E+00
  0.00000000E+00  0.00000000E+00  0.00000000E+00
  0.00000000E+00  0.00000000E+00  0.00000000E+00
  0.00000000E+00  0.00000000E+00  0.00000000E+00
  0.00000000E+00  0.00000000E+00  0.00000000E+00
  0.00000000E+00  0.00000000E+00  0.00000000E+00
  0.00000000E+00  0.00000000E+00  0.00000000E+00
  0.00000000E+00  0.00000000E+00  0.00000000E+00
  0.00000000E+00  0.00000000E+00  0.00000000E+00
  0.00000000E+00  0.00000000E+00  0.00000000E+00
  0.00000000E+00  0.00000000E+00  0.00000000E+00
  0.00000000E+00  0.00000000E+00  0.00000000E+00
  0.00000000E+00  0.00000000E+00  0.00000000E+00
  0.00000000E+00  0.00000000E+00  0.00000000E+00
  0.00000000E+00  0.00000000E+00  0.00000000E+00
  0.00000000E+00  0.00000000E+00  0.00000000E+00
  0.00000000E+00  0.00000000E+00  0.00000000E+00
  0.00000000E+00  0.00000000E+00  0.00000000E+00
  0.00000000E+00  0.00000000E+00  0.00000000E+00
  0.00000000E+00  0.00000000E+00  0.00000000E+00
  0.00000000E+00  0.00000000E+00  0.00000000E+00
  0.00000000E+00  0.00000000E+00  0.00000000E+00
  0.00000000E+00  0.00000000E+00  0.00000000E+00
  0.00000000E+00  0.00000000E+00  0.00000000E+00
  0.00000000E+00  0.00000000E+00  0.00000000E+00
  0.00000000E+00  0.00000000E+00  0.00000000E+00
  0.00000000E+00  0.00000000E+00  0.00000000E+00
  0.00000000E+00  0.00000000E+00  0.00000000E+00
  0.00000000E+00  0.00000000E+00  0.00000000E+00
  0.00000000E+00  0.00000000E+00  0.00000000E+00
  0.00000000E+00  0.00000000E+00  0.00000000E+00
  0.00000000E+00  0.00000000E+00  0.00000000E+00
  0.00000000E+00  0.00000000E+00  0.00000000E+00
  0.00000000E+00  0.00000000E+00  0.00000000E+00
  0.00000000E+00  0.00000000E+00  0.00000000E+00
  0.00000000E+00  0.00000000E+00  0.00000000E+00
  0.00000000E+00  0.00000000E+00  0.00000000E+00
  0.00000000E+00  0.00000000E+00  0.00000000E+00
  0.00000000E+00  0.00000000E+00  0.00000000E+00
  0.00000000E+00  0.00000000E+00  0.00000000E+00
  0.00000000E+00  0.00000000E+00  0.00000000E+00
  0.00000000E+00  0.00000000E+00  0.00000000E+00
  0.00000000E+00  0.00000000E+00  0.00000000E+00
  0.00000000E+00  0.00000000E+00  0.00000000E+00
  0.00000000E+00  0.00000000E+00  0.00000000E+00
  0.00000000E+00  0.00000000E+00  0.00000000E+00
  0.00000000E+00  0.00000000E+00  0.00000000E+00
  0.00000000E+00  0.00000000E+00  0.00000000E+00
  0.00000000E+00  0.00000000E+00  0.00000000E+00
  0.00000000E+00  0.00000000E+00  0.00000000E+00
  0.00000000E+00  0.00000000E+00  0.00000000E+00
  0.00000000E+00  0.00000000E+00  0.00000000E+00
  0.00000000E+00  0.00000000E+00  0.00000000E+00
