CONTCAR\(5)                             
   1.00000000000000     
    12.3312997818000003    0.0000000000000000    0.0000000000000000
     0.0001127485000000   12.8291997905000006    0.0000000000000000
     0.0005937186000000    0.0011528207000000   19.9943999824000009
   C    N    Fe   Ni   O    H 
    51     5     1     1     1     1
Direct
  0.0557517799958267  0.0546837339662271  0.0492082115146557
  0.1563244417673767  0.1098227682026179  0.0493759695060824
  0.1562825575376643  0.2206758241346073  0.0480606880263319
  0.0558439255297791  0.2758378326745198  0.0469603049730368
  0.2568108893701311  0.0548746552434635  0.0516893122036067
  0.3574019720920016  0.1100736723176367  0.0552181004845316
  0.3569517702657924  0.2222786257618902  0.0544091628215785
  0.2562218168416744  0.2762383619096414  0.0494212729342127
  0.4571873075158726  0.0534118851641372  0.0593740452549432
  0.5564452789750119  0.1110796506432602  0.0626912637787796
  0.5564826502626162  0.2250995010725810  0.0642206614530909
  0.4555744752993169  0.2815539651844643  0.0595190961329812
  0.6552171951026844  0.0504915060659468  0.0621023923844422
  0.7544833194939403  0.1090927083213942  0.0587697911173092
  0.7551698298661603  0.2223227882227208  0.0596442242548039
  0.6571891463111856  0.2831262176701408  0.0660956568919515
  0.8545206421465626  0.0531030487168142  0.0541981270485823
  0.9549004622463464  0.1093363387229972  0.0509983399266052
  0.9552995141907815  0.2209902989237608  0.0502586926457433
  0.8555175410710146  0.2776115620104612  0.0540911330569510
  0.0568664509901575  0.3867875991343231  0.0443754693758315
  0.1562366238836525  0.4428892469619785  0.0434288037281594
  0.1562188650877082  0.5536246074905603  0.0423242663253961
  0.0577183384753090  0.6101836153369607  0.0416523683929899
  0.2558785832388902  0.3876344608018482  0.0472465292081041
  0.3548236264998846  0.4428438610743389  0.0520263314225164
  0.3540854136043535  0.5559135162235803  0.0528934261351764
  0.2547780799379875  0.6096873755881994  0.0461772352758558
  0.7608188301881136  0.4500000851430553  0.0602905232221780
  0.8579087353715188  0.3895255341640327  0.0523015362429619
  0.9579924627928460  0.4429543493219432  0.0457787022902072
  0.9591254640165326  0.5541715567382949  0.0440010574069176
  0.8609437186410345  0.6095684353479083  0.0487706385660973
  0.0573721224428663  0.7210302025863515  0.0428490190423334
  0.1559095832030886  0.7772430004918680  0.0450725519248259
  0.1562821133548076  0.8882551178672503  0.0475200350522924
  0.0560513379261903  0.9437477794335546  0.0480058284312472
  0.2545882103487583  0.7208129706466760  0.0476864443210452
  0.3533439659796497  0.7757109038505395  0.0539836895192739
  0.3553961461779830  0.8869608939854532  0.0548424676509920
  0.2562781231955334  0.9434313471789699  0.0510572316708736
  0.4501815363376091  0.7170318208143773  0.0618904230825266
  0.5531620316239837  0.8790246301742944  0.0641205331771188
  0.4563420196121465  0.9406023760329386  0.0595936380056143
  0.7569073864634333  0.8803677014153561  0.0576449735587448
  0.6549521639424921  0.9354461927045994  0.0625020239903304
  0.8602133479899573  0.7215470942650251  0.0487439466396407
  0.9580650177164260  0.7768551770436002  0.0456074322387569
  0.9566036708472470  0.8878977907755187  0.0485126366672990
  0.8550598520116454  0.9407741113344087  0.0531269104816433
  0.6622252395875313  0.3950058543143334  0.0713208854317018
  0.4516651067667644  0.3899795341448397  0.0592274313913784
  0.4488304938016635  0.6096172667927122  0.0629892730415065
  0.7643068253098273  0.5599145244333591  0.0572324590415978
  0.5482315362114635  0.7690853391408439  0.0681757132788317
  0.7617397832435777  0.7712448780968386  0.0563258228991360
  0.6582751032128203  0.6675374279713762  0.0738718511789750
  0.5522150047036444  0.4912138478910134  0.0829992735091587
  0.6155021131678380  0.5839404560907212  0.1461588085878812
  0.6775685022113108  0.5471225412668754  0.1653153451826412
 
  0.00000000E+00  0.00000000E+00  0.00000000E+00
  0.00000000E+00  0.00000000E+00  0.00000000E+00
  0.00000000E+00  0.00000000E+00  0.00000000E+00
  0.00000000E+00  0.00000000E+00  0.00000000E+00
  0.00000000E+00  0.00000000E+00  0.00000000E+00
  0.00000000E+00  0.00000000E+00  0.00000000E+00
  0.00000000E+00  0.00000000E+00  0.00000000E+00
  0.00000000E+00  0.00000000E+00  0.00000000E+00
  0.00000000E+00  0.00000000E+00  0.00000000E+00
  0.00000000E+00  0.00000000E+00  0.00000000E+00
  0.00000000E+00  0.00000000E+00  0.00000000E+00
  0.00000000E+00  0.00000000E+00  0.00000000E+00
  0.00000000E+00  0.00000000E+00  0.00000000E+00
  0.00000000E+00  0.00000000E+00  0.00000000E+00
  0.00000000E+00  0.00000000E+00  0.00000000E+00
  0.00000000E+00  0.00000000E+00  0.00000000E+00
  0.00000000E+00  0.00000000E+00  0.00000000E+00
  0.00000000E+00  0.00000000E+00  0.00000000E+00
  0.00000000E+00  0.00000000E+00  0.00000000E+00
  0.00000000E+00  0.00000000E+00  0.00000000E+00
  0.00000000E+00  0.00000000E+00  0.00000000E+00
  0.00000000E+00  0.00000000E+00  0.00000000E+00
  0.00000000E+00  0.00000000E+00  0.00000000E+00
  0.00000000E+00  0.00000000E+00  0.00000000E+00
  0.00000000E+00  0.00000000E+00  0.00000000E+00
  0.00000000E+00  0.00000000E+00  0.00000000E+00
  0.00000000E+00  0.00000000E+00  0.00000000E+00
  0.00000000E+00  0.00000000E+00  0.00000000E+00
  0.00000000E+00  0.00000000E+00  0.00000000E+00
  0.00000000E+00  0.00000000E+00  0.00000000E+00
  0.00000000E+00  0.00000000E+00  0.00000000E+00
  0.00000000E+00  0.00000000E+00  0.00000000E+00
  0.00000000E+00  0.00000000E+00  0.00000000E+00
  0.00000000E+00  0.00000000E+00  0.00000000E+00
  0.00000000E+00  0.00000000E+00  0.00000000E+00
  0.00000000E+00  0.00000000E+00  0.00000000E+00
  0.00000000E+00  0.00000000E+00  0.00000000E+00
  0.00000000E+00  0.00000000E+00  0.00000000E+00
  0.00000000E+00  0.00000000E+00  0.00000000E+00
  0.00000000E+00  0.00000000E+00  0.00000000E+00
  0.00000000E+00  0.00000000E+00  0.00000000E+00
  0.00000000E+00  0.00000000E+00  0.00000000E+00
  0.00000000E+00  0.00000000E+00  0.00000000E+00
  0.00000000E+00  0.00000000E+00  0.00000000E+00
  0.00000000E+00  0.00000000E+00  0.00000000E+00
  0.00000000E+00  0.00000000E+00  0.00000000E+00
  0.00000000E+00  0.00000000E+00  0.00000000E+00
  0.00000000E+00  0.00000000E+00  0.00000000E+00
  0.00000000E+00  0.00000000E+00  0.00000000E+00
  0.00000000E+00  0.00000000E+00  0.00000000E+00
  0.00000000E+00  0.00000000E+00  0.00000000E+00
  0.00000000E+00  0.00000000E+00  0.00000000E+00
  0.00000000E+00  0.00000000E+00  0.00000000E+00
  0.00000000E+00  0.00000000E+00  0.00000000E+00
  0.00000000E+00  0.00000000E+00  0.00000000E+00
  0.00000000E+00  0.00000000E+00  0.00000000E+00
  0.00000000E+00  0.00000000E+00  0.00000000E+00
  0.00000000E+00  0.00000000E+00  0.00000000E+00
  0.00000000E+00  0.00000000E+00  0.00000000E+00
  0.00000000E+00  0.00000000E+00  0.00000000E+00
