CONTCAR                                 
   1.00000000000000     
    12.3312997818000003    0.0000000000000000    0.0000000000000000
     0.0001127485000000   12.8291997905000006    0.0000000000000000
     0.0005937186000000    0.0011528207000000   19.9943999824000009
   C    N    Fe   Ni   O 
    52     4     1     1     2
Direct
  0.0554133617713944  0.0548157309300024  0.0491223371626389
  0.1559228579733283  0.1105606042605942  0.0492852173945750
  0.1565023459866919  0.2215502179231093  0.0484991754018110
  0.0563768050322362  0.2762651907870066  0.0476197681708098
  0.2561261114016593  0.0559787955162504  0.0510307985073081
  0.3566226474772613  0.1116031998071453  0.0539554713460443
  0.3567038143009393  0.2234603383785321  0.0537361404202344
  0.2564874272024409  0.2776616751880266  0.0498924565693055
  0.4562913752555988  0.0555501908679443  0.0571445144884134
  0.5557425661217070  0.1126241655429025  0.0599457319068165
  0.5563650635108733  0.2256504655113046  0.0617207490116050
  0.4557810278153733  0.2821120290943334  0.0583281797144333
  0.6543140116890178  0.0527413316450715  0.0595638404631158
  0.7545877184036505  0.1096428222718342  0.0566957577399846
  0.7558642843163152  0.2220517290455308  0.0571777316426359
  0.6576571494490183  0.2821537294686060  0.0632684392387527
  0.8544133698024599  0.0533415465606183  0.0531790024103714
  0.9548435509043238  0.1095967531760345  0.0504142362197922
  0.9557382207179219  0.2210799543531307  0.0498167395954274
  0.8560881946973989  0.2772768462299091  0.0527596498297771
  0.0578983979693517  0.3871478812001657  0.0462017755349009
  0.1573263184489456  0.4437408369034783  0.0459347579714874
  0.1575103546663391  0.5546308962264740  0.0456135891516831
  0.0583311949066834  0.6103753486404572  0.0453505840529646
  0.2571440349612374  0.3891683130814488  0.0484943091949153
  0.3571608828872447  0.4444591332782100  0.0521246239995587
  0.3578866495868475  0.5581222127419637  0.0523845267402874
  0.2567666143758348  0.6107624350481293  0.0480117199885187
  0.7612487942186716  0.4488221755307613  0.0587192889564054
  0.8585416283524598  0.3889953594171962  0.0517400224086056
  0.9588234689661256  0.4426208274140099  0.0473733114863664
  0.9595089302440655  0.5534389988421573  0.0469318787253216
  0.8605796958150086  0.6075818626004071  0.0506489113042664
  0.0571763209176822  0.7213355118118431  0.0458963437436557
  0.1556765096427118  0.7777129157153575  0.0470229187361398
  0.1554302086807494  0.8888840694473683  0.0482129378213127
  0.0550487690984925  0.9437856367025661  0.0485504808401814
  0.2547063832656167  0.7219655465684256  0.0487932972689267
  0.3529269626391376  0.7780972805364843  0.0526004716569952
  0.3545009811070309  0.8890823883402230  0.0530836880312067
  0.2551638010900300  0.9447485374330261  0.0504631551977339
  0.4505539295410266  0.7209148436986533  0.0577908419716582
  0.5522241129791871  0.8831305708185406  0.0600728945176817
  0.4550281345183635  0.9433586577349249  0.0568765020118573
  0.7541788867725453  0.8823475081377636  0.0576521036129897
  0.6536619297694101  0.9392756709099425  0.0601070653468544
  0.8593385981935331  0.7193614349614599  0.0507575984223199
  0.9572625649648479  0.7761563894229750  0.0477754485413515
  0.9551932714162945  0.8874247026020533  0.0495025850640647
  0.8540153397824735  0.9411573443694647  0.0531945545921734
  0.6638170974680850  0.3923506335228725  0.0692394729181429
  0.7586088503402152  0.7704697011700246  0.0579920339288720
  0.4530537451772985  0.3903577388993085  0.0588393752923488
  0.4533232013713611  0.6134827403472355  0.0591021866736349
  0.7634019492036661  0.5576447752671044  0.0566319723325198
  0.5474440117898759  0.7745638482002966  0.0613772433966813
  0.6520224272304632  0.6691376717022240  0.0749819696558646
  0.5557693655202821  0.4834060611567988  0.0904812284298862
  0.6073642414996089  0.5416390885026925  0.1675214891490677
  0.6388796097915986  0.6465452285376256  0.1641348930967526
 
  0.00000000E+00  0.00000000E+00  0.00000000E+00
  0.00000000E+00  0.00000000E+00  0.00000000E+00
  0.00000000E+00  0.00000000E+00  0.00000000E+00
  0.00000000E+00  0.00000000E+00  0.00000000E+00
  0.00000000E+00  0.00000000E+00  0.00000000E+00
  0.00000000E+00  0.00000000E+00  0.00000000E+00
  0.00000000E+00  0.00000000E+00  0.00000000E+00
  0.00000000E+00  0.00000000E+00  0.00000000E+00
  0.00000000E+00  0.00000000E+00  0.00000000E+00
  0.00000000E+00  0.00000000E+00  0.00000000E+00
  0.00000000E+00  0.00000000E+00  0.00000000E+00
  0.00000000E+00  0.00000000E+00  0.00000000E+00
  0.00000000E+00  0.00000000E+00  0.00000000E+00
  0.00000000E+00  0.00000000E+00  0.00000000E+00
  0.00000000E+00  0.00000000E+00  0.00000000E+00
  0.00000000E+00  0.00000000E+00  0.00000000E+00
  0.00000000E+00  0.00000000E+00  0.00000000E+00
  0.00000000E+00  0.00000000E+00  0.00000000E+00
  0.00000000E+00  0.00000000E+00  0.00000000E+00
  0.00000000E+00  0.00000000E+00  0.00000000E+00
  0.00000000E+00  0.00000000E+00  0.00000000E+00
  0.00000000E+00  0.00000000E+00  0.00000000E+00
  0.00000000E+00  0.00000000E+00  0.00000000E+00
  0.00000000E+00  0.00000000E+00  0.00000000E+00
  0.00000000E+00  0.00000000E+00  0.00000000E+00
  0.00000000E+00  0.00000000E+00  0.00000000E+00
  0.00000000E+00  0.00000000E+00  0.00000000E+00
  0.00000000E+00  0.00000000E+00  0.00000000E+00
  0.00000000E+00  0.00000000E+00  0.00000000E+00
  0.00000000E+00  0.00000000E+00  0.00000000E+00
  0.00000000E+00  0.00000000E+00  0.00000000E+00
  0.00000000E+00  0.00000000E+00  0.00000000E+00
  0.00000000E+00  0.00000000E+00  0.00000000E+00
  0.00000000E+00  0.00000000E+00  0.00000000E+00
  0.00000000E+00  0.00000000E+00  0.00000000E+00
  0.00000000E+00  0.00000000E+00  0.00000000E+00
  0.00000000E+00  0.00000000E+00  0.00000000E+00
  0.00000000E+00  0.00000000E+00  0.00000000E+00
  0.00000000E+00  0.00000000E+00  0.00000000E+00
  0.00000000E+00  0.00000000E+00  0.00000000E+00
  0.00000000E+00  0.00000000E+00  0.00000000E+00
  0.00000000E+00  0.00000000E+00  0.00000000E+00
  0.00000000E+00  0.00000000E+00  0.00000000E+00
  0.00000000E+00  0.00000000E+00  0.00000000E+00
  0.00000000E+00  0.00000000E+00  0.00000000E+00
  0.00000000E+00  0.00000000E+00  0.00000000E+00
  0.00000000E+00  0.00000000E+00  0.00000000E+00
  0.00000000E+00  0.00000000E+00  0.00000000E+00
  0.00000000E+00  0.00000000E+00  0.00000000E+00
  0.00000000E+00  0.00000000E+00  0.00000000E+00
  0.00000000E+00  0.00000000E+00  0.00000000E+00
  0.00000000E+00  0.00000000E+00  0.00000000E+00
  0.00000000E+00  0.00000000E+00  0.00000000E+00
  0.00000000E+00  0.00000000E+00  0.00000000E+00
  0.00000000E+00  0.00000000E+00  0.00000000E+00
  0.00000000E+00  0.00000000E+00  0.00000000E+00
  0.00000000E+00  0.00000000E+00  0.00000000E+00
  0.00000000E+00  0.00000000E+00  0.00000000E+00
  0.00000000E+00  0.00000000E+00  0.00000000E+00
  0.00000000E+00  0.00000000E+00  0.00000000E+00
