CONTCAR\(4)                             
   1.00000000000000     
    12.3312997818000003    0.0000000000000000    0.0000000000000000
     0.0001127485000000   12.8291997905000006    0.0000000000000000
     0.0005937186000000    0.0011528207000000   19.9943999824000009
   C    N    Fe   Ni   O 
    53     3     1     1     1
Direct
  0.0568970220588740  0.0554969511362412  0.0515492188867925
  0.1573058782679124  0.1102903413767280  0.0507509864567007
  0.1565357796224358  0.2212931001874875  0.0494914965901759
  0.0559200523324733  0.2767830228644513  0.0491984984712727
  0.2581020651739097  0.0546745797959856  0.0519162629710145
  0.3584599886913305  0.1101823690916225  0.0547190027799158
  0.3577638152246954  0.2225424630018708  0.0538182358528397
  0.2565048344949423  0.2767286353815280  0.0496051505929783
  0.4585830852894707  0.0533804902186394  0.0585640861178752
  0.5579963447388125  0.1111057171716523  0.0623108099468730
  0.5577175341471442  0.2245556930736083  0.0628131463397273
  0.4572967294437197  0.2812866062152207  0.0578822569891364
  0.6570866979957621  0.0518152497846562  0.0636031807937030
  0.7558993900092825  0.1100491072482601  0.0610753719416961
  0.7563105936301923  0.2227324721195664  0.0608605614733592
  0.6578949334145570  0.2822017434978230  0.0646931909757937
  0.8561430087847883  0.0547756607289108  0.0574177442460846
  0.9562287677248965  0.1103700484827108  0.0536712575377717
  0.9560645355320857  0.2216166388315890  0.0526044662099142
  0.8561530823548106  0.2776873526853098  0.0559657545736120
  0.0548574119138059  0.3880606939847018  0.0469934718584908
  0.1539978733797628  0.4432807570275099  0.0449841842859480
  0.1536447119404329  0.5545530310866910  0.0439423248742670
  0.0547826512512598  0.6108491232667490  0.0451007264312834
  0.2539257353606790  0.3877241617354410  0.0469332240066958
  0.3523808774326566  0.4439605917609755  0.0489331298287485
  0.3511336356961430  0.5559093051915620  0.0481125401350305
  0.2523799433738007  0.6109207583239762  0.0449679513143416
  0.7561954400126742  0.4460857053375366  0.0606149203784305
  0.8559600083291101  0.3893657301951642  0.0545228599105944
  0.9550625520279690  0.4446059924177478  0.0489438293898867
  0.9550280982628097  0.5558329590946552  0.0479303113831162
  0.8551905498012183  0.6118903624836588  0.0528726413387383
  0.0565380907689996  0.7220590897379876  0.0459994335078645
  0.1557212416014962  0.7778840899639188  0.0463724658274057
  0.1573343753521673  0.8888862797293633  0.0487850856793816
  0.0574126810204005  0.9446797685880752  0.0507021393551924
  0.2547043487471966  0.7214993075809998  0.0465911413814349
  0.3555223363074023  0.7739964882649030  0.0509249198963960
  0.3580274672737272  0.8859009927482607  0.0530926072402028
  0.2580772404432610  0.9430620251435748  0.0508601641708647
  0.4532083513940079  0.7129353565802340  0.0552371361659959
  0.5574878571415230  0.8791161106767537  0.0631111676546622
  0.4586143876485016  0.9401341896103956  0.0581422508227498
  0.7591984052708370  0.8839861499553388  0.0639080089808083
  0.6573922231557171  0.9382831933028665  0.0650589634991878
  0.8588852498515446  0.7245157567979340  0.0554318224052803
  0.9576248764644804  0.7785189190158310  0.0501466286823153
  0.9578291613449005  0.8894044989937058  0.0528331700860911
  0.8572107114755820  0.9430809012397883  0.0578177481484286
  0.4525166824512396  0.3924185491633691  0.0554952188521058
  0.7552934256752148  0.5589015047698440  0.0601176853507452
  0.5532006415947839  0.7663421947704868  0.0642957721635271
  0.6608152139635433  0.3905429189130479  0.0672284032885236
  0.7634276641982892  0.7761555339890567  0.0669699437509543
  0.4477631838559331  0.6046346171994351  0.0535548442489299
  0.6608929569803249  0.6708511108944604  0.0977984571389458
  0.5550876579884465  0.4939883926838323  0.0740924213327790
  0.6005600043160499  0.5836546588863235  0.1467396014864298
 
  0.00000000E+00  0.00000000E+00  0.00000000E+00
  0.00000000E+00  0.00000000E+00  0.00000000E+00
  0.00000000E+00  0.00000000E+00  0.00000000E+00
  0.00000000E+00  0.00000000E+00  0.00000000E+00
  0.00000000E+00  0.00000000E+00  0.00000000E+00
  0.00000000E+00  0.00000000E+00  0.00000000E+00
  0.00000000E+00  0.00000000E+00  0.00000000E+00
  0.00000000E+00  0.00000000E+00  0.00000000E+00
  0.00000000E+00  0.00000000E+00  0.00000000E+00
  0.00000000E+00  0.00000000E+00  0.00000000E+00
  0.00000000E+00  0.00000000E+00  0.00000000E+00
  0.00000000E+00  0.00000000E+00  0.00000000E+00
  0.00000000E+00  0.00000000E+00  0.00000000E+00
  0.00000000E+00  0.00000000E+00  0.00000000E+00
  0.00000000E+00  0.00000000E+00  0.00000000E+00
  0.00000000E+00  0.00000000E+00  0.00000000E+00
  0.00000000E+00  0.00000000E+00  0.00000000E+00
  0.00000000E+00  0.00000000E+00  0.00000000E+00
  0.00000000E+00  0.00000000E+00  0.00000000E+00
  0.00000000E+00  0.00000000E+00  0.00000000E+00
  0.00000000E+00  0.00000000E+00  0.00000000E+00
  0.00000000E+00  0.00000000E+00  0.00000000E+00
  0.00000000E+00  0.00000000E+00  0.00000000E+00
  0.00000000E+00  0.00000000E+00  0.00000000E+00
  0.00000000E+00  0.00000000E+00  0.00000000E+00
  0.00000000E+00  0.00000000E+00  0.00000000E+00
  0.00000000E+00  0.00000000E+00  0.00000000E+00
  0.00000000E+00  0.00000000E+00  0.00000000E+00
  0.00000000E+00  0.00000000E+00  0.00000000E+00
  0.00000000E+00  0.00000000E+00  0.00000000E+00
  0.00000000E+00  0.00000000E+00  0.00000000E+00
  0.00000000E+00  0.00000000E+00  0.00000000E+00
  0.00000000E+00  0.00000000E+00  0.00000000E+00
  0.00000000E+00  0.00000000E+00  0.00000000E+00
  0.00000000E+00  0.00000000E+00  0.00000000E+00
  0.00000000E+00  0.00000000E+00  0.00000000E+00
  0.00000000E+00  0.00000000E+00  0.00000000E+00
  0.00000000E+00  0.00000000E+00  0.00000000E+00
  0.00000000E+00  0.00000000E+00  0.00000000E+00
  0.00000000E+00  0.00000000E+00  0.00000000E+00
  0.00000000E+00  0.00000000E+00  0.00000000E+00
  0.00000000E+00  0.00000000E+00  0.00000000E+00
  0.00000000E+00  0.00000000E+00  0.00000000E+00
  0.00000000E+00  0.00000000E+00  0.00000000E+00
  0.00000000E+00  0.00000000E+00  0.00000000E+00
  0.00000000E+00  0.00000000E+00  0.00000000E+00
  0.00000000E+00  0.00000000E+00  0.00000000E+00
  0.00000000E+00  0.00000000E+00  0.00000000E+00
  0.00000000E+00  0.00000000E+00  0.00000000E+00
  0.00000000E+00  0.00000000E+00  0.00000000E+00
  0.00000000E+00  0.00000000E+00  0.00000000E+00
  0.00000000E+00  0.00000000E+00  0.00000000E+00
  0.00000000E+00  0.00000000E+00  0.00000000E+00
  0.00000000E+00  0.00000000E+00  0.00000000E+00
  0.00000000E+00  0.00000000E+00  0.00000000E+00
  0.00000000E+00  0.00000000E+00  0.00000000E+00
  0.00000000E+00  0.00000000E+00  0.00000000E+00
  0.00000000E+00  0.00000000E+00  0.00000000E+00
  0.00000000E+00  0.00000000E+00  0.00000000E+00
