POSCAR\(2)                              
   1.00000000000000     
    12.3312997818000003    0.0000000000000000    0.0000000000000000
     0.0001127485000000   12.8291997905000006    0.0000000000000000
     0.0005937186000000    0.0011528207000000   19.9943999824000009
   C    N    Fe   Ni
    54     2     1     1
Direct
  0.0557975825477340  0.0539213577981246  0.0557769959232652
  0.1558766931837158  0.1097107584246327  0.0557848328872604
  0.1564561538166014  0.2205813171795190  0.0557647509543258
  0.0569836020606618  0.2757270781817460  0.0557490715030730
  0.2561557039050201  0.0555598694791347  0.0558046013601625
  0.3564490163413482  0.1118657563335777  0.0557724128598331
  0.3567610524053684  0.2235526940923445  0.0557410235715330
  0.2560011673392061  0.2767279714976518  0.0557552225005029
  0.4559762086997739  0.0565980580262659  0.0557406387118999
  0.5557972982413445  0.1137001903090233  0.0556928750315641
  0.5564195790633732  0.2258850205369380  0.0556590540116530
  0.4557975913704992  0.2824226389235970  0.0556710969905432
  0.6556367827665418  0.0547941111725814  0.0556945239667215
  0.7561245194907796  0.1103527829445293  0.0557060573220952
  0.7571193529391288  0.2220977538707831  0.0557017040700263
  0.6584837989973320  0.2815887212374018  0.0556531863118944
  0.8551448664199206  0.0531552410591391  0.0557143574540495
  0.9556958477563984  0.1089095925336178  0.0557450534451566
  0.9568785246756268  0.2201842872779575  0.0557393745804104
  0.8576154233601212  0.2764802283680677  0.0557158447651454
  0.0585899097496781  0.3870036295426754  0.0557461785478017
  0.1570213431385317  0.4435946823064587  0.0557709429482334
  0.1569032649866328  0.5548994188306435  0.0557852383331587
  0.0573491509511947  0.6102043384454459  0.0557642311928627
  0.2561905971066889  0.3875880098751695  0.0557523549705900
  0.3555138895138416  0.4422986454730128  0.0557102279409781
  0.3574026084645409  0.5555449669969130  0.0557283151869449
  0.2565051193837866  0.6103667481490891  0.0557823780797334
  0.7631408455304929  0.4457769157588709  0.0556487066675527
  0.8607927192585969  0.3876772112333622  0.0556885425856297
  0.9596993660089105  0.4425189453793928  0.0557119160872558
  0.9586604551501267  0.5533049926384653  0.0557086156345492
  0.8582109063198373  0.6068024827781334  0.0556606461568571
  0.0560194534494547  0.7213103598076885  0.0557769330372569
  0.1549170832144350  0.7770479376311548  0.0558088527708384
  0.1553192505324425  0.8883308486317996  0.0558182657041288
  0.0551748096555289  0.9428977664048751  0.0557870074328845
  0.2545533596756833  0.7215689168418296  0.0557974103314700
  0.3528968023933248  0.7779102715823509  0.0557648926567523
  0.3549386636544791  0.8891542531162073  0.0557836970484422
  0.2552823385136960  0.9445052313420913  0.0558199658653982
  0.4520808868200984  0.7214727822895177  0.0556896730978791
  0.5543778393792477  0.8878021897850156  0.0556830988768721
  0.4550912729428954  0.9449876096404006  0.0557417974627862
  0.7539973168032345  0.8829864073219028  0.0556446735206819
  0.6552783264249631  0.9431316673677959  0.0556713233078452
  0.8561790405147248  0.7195843621436004  0.0556642508398690
  0.9557422209098336  0.7757470999719893  0.0557316149853224
  0.9549804016742390  0.8867846003194683  0.0557365179681865
  0.8541290884067200  0.9408639000007032  0.0556871029277494
  0.6637885182991117  0.3912142154964123  0.0556295384440655
  0.5504958297925755  0.7784936285970756  0.0556429334578443
  0.7547162922455778  0.7701663015108882  0.0556236599602283
  0.4575619888538816  0.6093479752898526  0.0556705473306217
  0.4522190701657738  0.3907557649860807  0.0556453459540996
  0.7623485334475996  0.5544842106105244  0.0556273773955550
  0.6389315928412755  0.6631158897176354  0.0556149374069992
  0.5631990124458414  0.4935393519388721  0.0556176126629100
 
  0.00000000E+00  0.00000000E+00  0.00000000E+00
  0.00000000E+00  0.00000000E+00  0.00000000E+00
  0.00000000E+00  0.00000000E+00  0.00000000E+00
  0.00000000E+00  0.00000000E+00  0.00000000E+00
  0.00000000E+00  0.00000000E+00  0.00000000E+00
  0.00000000E+00  0.00000000E+00  0.00000000E+00
  0.00000000E+00  0.00000000E+00  0.00000000E+00
  0.00000000E+00  0.00000000E+00  0.00000000E+00
  0.00000000E+00  0.00000000E+00  0.00000000E+00
  0.00000000E+00  0.00000000E+00  0.00000000E+00
  0.00000000E+00  0.00000000E+00  0.00000000E+00
  0.00000000E+00  0.00000000E+00  0.00000000E+00
  0.00000000E+00  0.00000000E+00  0.00000000E+00
  0.00000000E+00  0.00000000E+00  0.00000000E+00
  0.00000000E+00  0.00000000E+00  0.00000000E+00
  0.00000000E+00  0.00000000E+00  0.00000000E+00
  0.00000000E+00  0.00000000E+00  0.00000000E+00
  0.00000000E+00  0.00000000E+00  0.00000000E+00
  0.00000000E+00  0.00000000E+00  0.00000000E+00
  0.00000000E+00  0.00000000E+00  0.00000000E+00
  0.00000000E+00  0.00000000E+00  0.00000000E+00
  0.00000000E+00  0.00000000E+00  0.00000000E+00
  0.00000000E+00  0.00000000E+00  0.00000000E+00
  0.00000000E+00  0.00000000E+00  0.00000000E+00
  0.00000000E+00  0.00000000E+00  0.00000000E+00
  0.00000000E+00  0.00000000E+00  0.00000000E+00
  0.00000000E+00  0.00000000E+00  0.00000000E+00
  0.00000000E+00  0.00000000E+00  0.00000000E+00
  0.00000000E+00  0.00000000E+00  0.00000000E+00
  0.00000000E+00  0.00000000E+00  0.00000000E+00
  0.00000000E+00  0.00000000E+00  0.00000000E+00
  0.00000000E+00  0.00000000E+00  0.00000000E+00
  0.00000000E+00  0.00000000E+00  0.00000000E+00
  0.00000000E+00  0.00000000E+00  0.00000000E+00
  0.00000000E+00  0.00000000E+00  0.00000000E+00
  0.00000000E+00  0.00000000E+00  0.00000000E+00
  0.00000000E+00  0.00000000E+00  0.00000000E+00
  0.00000000E+00  0.00000000E+00  0.00000000E+00
  0.00000000E+00  0.00000000E+00  0.00000000E+00
  0.00000000E+00  0.00000000E+00  0.00000000E+00
  0.00000000E+00  0.00000000E+00  0.00000000E+00
  0.00000000E+00  0.00000000E+00  0.00000000E+00
  0.00000000E+00  0.00000000E+00  0.00000000E+00
  0.00000000E+00  0.00000000E+00  0.00000000E+00
  0.00000000E+00  0.00000000E+00  0.00000000E+00
  0.00000000E+00  0.00000000E+00  0.00000000E+00
  0.00000000E+00  0.00000000E+00  0.00000000E+00
  0.00000000E+00  0.00000000E+00  0.00000000E+00
  0.00000000E+00  0.00000000E+00  0.00000000E+00
  0.00000000E+00  0.00000000E+00  0.00000000E+00
  0.00000000E+00  0.00000000E+00  0.00000000E+00
  0.00000000E+00  0.00000000E+00  0.00000000E+00
  0.00000000E+00  0.00000000E+00  0.00000000E+00
  0.00000000E+00  0.00000000E+00  0.00000000E+00
  0.00000000E+00  0.00000000E+00  0.00000000E+00
  0.00000000E+00  0.00000000E+00  0.00000000E+00
  0.00000000E+00  0.00000000E+00  0.00000000E+00
  0.00000000E+00  0.00000000E+00  0.00000000E+00
