CONTCAR                                 
   1.00000000000000     
    12.3312997818000003    0.0000000000000000    0.0000000000000000
     0.0001127485000000   12.8291997905000006    0.0000000000000000
     0.0005937186000000    0.0011528207000000   19.9943999824000009
   C    N    Fe   Ni   H 
    53     3     1     1     2
Direct
  0.0564792971220079  0.0545912802362865  0.0507393386374696
  0.1569385520422469  0.1099051416887828  0.0508587530277132
  0.1571821838870541  0.2207892490448793  0.0500909544262357
  0.0568973756750397  0.2756936064285461  0.0494391304340638
  0.2573262877612813  0.0548404265797040  0.0525244879104154
  0.3577695760699285  0.1104167598781738  0.0554322093228995
  0.3580806034920344  0.2225356982419519  0.0549766064895164
  0.2573500537495113  0.2767208333860284  0.0510787198779099
  0.4574134291024786  0.0538225465836017  0.0586956898037372
  0.5576820781033330  0.1104680713372945  0.0613029677143029
  0.5579596107677552  0.2227925981042108  0.0617930533131024
  0.4580165856862807  0.2804058040315696  0.0583567365870974
  0.6570525510864379  0.0511022288519551  0.0615156961393870
  0.7562254915310853  0.1091345147186853  0.0586173764943897
  0.7567356655618639  0.2215923058183406  0.0589033964866301
  0.6583538831448672  0.2811111122947073  0.0632351855314114
  0.8557116838021481  0.0530621317614411  0.0551261310379382
  0.9561233749867232  0.1091122709343036  0.0523454596178948
  0.9566586878888997  0.2204649927260932  0.0517477140680801
  0.8569384384206942  0.2766021750035036  0.0544596419259178
  0.0572699438455779  0.3868866983311351  0.0479387442492686
  0.1562844927458098  0.4428606538270767  0.0471277067778474
  0.1554475049156171  0.5539954605201026  0.0461638085725926
  0.0567294372749417  0.6100675710625776  0.0458848186874512
  0.2562335382017726  0.3878810208265459  0.0493426033614735
  0.3552204150254249  0.4442087739461849  0.0518831252125520
  0.3531998374189921  0.5569043438600394  0.0519016710638581
  0.2538854287245075  0.6109827488325307  0.0480781573606538
  0.7610396155333687  0.4470174887150301  0.0594304121679020
  0.8586912600727820  0.3881770862152806  0.0532769908151648
  0.9581711796468750  0.4427670008524719  0.0490671071942039
  0.9578563641968624  0.5540469128373454  0.0480238158781745
  0.8584403059679937  0.6084126260467190  0.0523967446657000
  0.0564148837703225  0.7210546747589297  0.0464755759973462
  0.1549922024851043  0.7776175240483226  0.0473222796626618
  0.1562373487433059  0.8884734431308329  0.0490991286952192
  0.0562876058238023  0.9436432453363373  0.0497484929422847
  0.2538285973319772  0.7217282610930352  0.0486117473359033
  0.3532679062524039  0.7758721984006163  0.0530760693890020
  0.3560739109334273  0.8872777441801933  0.0546063440567907
  0.2567102197500368  0.9435299527136631  0.0517489069286417
  0.4499745828167576  0.7165841091519083  0.0595667873287519
  0.5550557554795270  0.8817388321618279  0.0641990720320347
  0.4567007465856055  0.9416865973158276  0.0590383258039457
  0.7573380978668006  0.8816082391215129  0.0592038741064594
  0.6566523675050806  0.9381554706204246  0.0628709745708032
  0.8580453112656093  0.7213778331310421  0.0525223193992777
  0.9569602079178229  0.7764260301515055  0.0490313893534591
  0.9567108773299791  0.8876014187072023  0.0507711119738381
  0.8558463528002550  0.9410299843482283  0.0547285594617448
  0.4555339627864899  0.3920174036930975  0.0570484479947759
  0.6610889833950228  0.3923663657214723  0.0663651510483006
  0.5497508776708618  0.7709333237864292  0.0691611841486259
  0.4486610123409106  0.6085542842526714  0.0578380490541514
  0.7627053863686460  0.5561180483118581  0.0598483088300940
  0.7606693382941430  0.7728683305230002  0.0591743779040322
  0.6536413840055043  0.6676443423358769  0.0813012662171920
  0.5591861016202997  0.4950643944980923  0.0694272436463589
  0.6123774310388427  0.6594388308055208  0.1544781640521671
  0.5998338313692730  0.5866070201774505  0.1359618822131503
 
  0.00000000E+00  0.00000000E+00  0.00000000E+00
  0.00000000E+00  0.00000000E+00  0.00000000E+00
  0.00000000E+00  0.00000000E+00  0.00000000E+00
  0.00000000E+00  0.00000000E+00  0.00000000E+00
  0.00000000E+00  0.00000000E+00  0.00000000E+00
  0.00000000E+00  0.00000000E+00  0.00000000E+00
  0.00000000E+00  0.00000000E+00  0.00000000E+00
  0.00000000E+00  0.00000000E+00  0.00000000E+00
  0.00000000E+00  0.00000000E+00  0.00000000E+00
  0.00000000E+00  0.00000000E+00  0.00000000E+00
  0.00000000E+00  0.00000000E+00  0.00000000E+00
  0.00000000E+00  0.00000000E+00  0.00000000E+00
  0.00000000E+00  0.00000000E+00  0.00000000E+00
  0.00000000E+00  0.00000000E+00  0.00000000E+00
  0.00000000E+00  0.00000000E+00  0.00000000E+00
  0.00000000E+00  0.00000000E+00  0.00000000E+00
  0.00000000E+00  0.00000000E+00  0.00000000E+00
  0.00000000E+00  0.00000000E+00  0.00000000E+00
  0.00000000E+00  0.00000000E+00  0.00000000E+00
  0.00000000E+00  0.00000000E+00  0.00000000E+00
  0.00000000E+00  0.00000000E+00  0.00000000E+00
  0.00000000E+00  0.00000000E+00  0.00000000E+00
  0.00000000E+00  0.00000000E+00  0.00000000E+00
  0.00000000E+00  0.00000000E+00  0.00000000E+00
  0.00000000E+00  0.00000000E+00  0.00000000E+00
  0.00000000E+00  0.00000000E+00  0.00000000E+00
  0.00000000E+00  0.00000000E+00  0.00000000E+00
  0.00000000E+00  0.00000000E+00  0.00000000E+00
  0.00000000E+00  0.00000000E+00  0.00000000E+00
  0.00000000E+00  0.00000000E+00  0.00000000E+00
  0.00000000E+00  0.00000000E+00  0.00000000E+00
  0.00000000E+00  0.00000000E+00  0.00000000E+00
  0.00000000E+00  0.00000000E+00  0.00000000E+00
  0.00000000E+00  0.00000000E+00  0.00000000E+00
  0.00000000E+00  0.00000000E+00  0.00000000E+00
  0.00000000E+00  0.00000000E+00  0.00000000E+00
  0.00000000E+00  0.00000000E+00  0.00000000E+00
  0.00000000E+00  0.00000000E+00  0.00000000E+00
  0.00000000E+00  0.00000000E+00  0.00000000E+00
  0.00000000E+00  0.00000000E+00  0.00000000E+00
  0.00000000E+00  0.00000000E+00  0.00000000E+00
  0.00000000E+00  0.00000000E+00  0.00000000E+00
  0.00000000E+00  0.00000000E+00  0.00000000E+00
  0.00000000E+00  0.00000000E+00  0.00000000E+00
  0.00000000E+00  0.00000000E+00  0.00000000E+00
  0.00000000E+00  0.00000000E+00  0.00000000E+00
  0.00000000E+00  0.00000000E+00  0.00000000E+00
  0.00000000E+00  0.00000000E+00  0.00000000E+00
  0.00000000E+00  0.00000000E+00  0.00000000E+00
  0.00000000E+00  0.00000000E+00  0.00000000E+00
  0.00000000E+00  0.00000000E+00  0.00000000E+00
  0.00000000E+00  0.00000000E+00  0.00000000E+00
  0.00000000E+00  0.00000000E+00  0.00000000E+00
  0.00000000E+00  0.00000000E+00  0.00000000E+00
  0.00000000E+00  0.00000000E+00  0.00000000E+00
  0.00000000E+00  0.00000000E+00  0.00000000E+00
  0.00000000E+00  0.00000000E+00  0.00000000E+00
  0.00000000E+00  0.00000000E+00  0.00000000E+00
  0.00000000E+00  0.00000000E+00  0.00000000E+00
  0.00000000E+00  0.00000000E+00  0.00000000E+00
