CONTCAR\(5)                             
   1.00000000000000     
    12.3312997818000003    0.0000000000000000    0.0000000000000000
     0.0001127485000000   12.8291997905000006    0.0000000000000000
     0.0005937186000000    0.0011528207000000   19.9943999824000009
   C    N    Fe   Ni   H 
    54     2     1     1     1
Direct
  0.0555178732189185  0.0540870263147484  0.0559483558188068
  0.1557441627744315  0.1103966227047655  0.0555769048816036
  0.1569209711781062  0.2212559829656126  0.0549359922138701
  0.0568824606704293  0.2756545476975649  0.0539731328868366
  0.2560512344062756  0.0561750294284945  0.0557167530310673
  0.3565266849014372  0.1124196879774185  0.0564160448456232
  0.3576632025091103  0.2241595187915182  0.0567250287623804
  0.2569003513433484  0.2777282958678352  0.0553382723784818
  0.4560871234587983  0.0565600463832333  0.0568660623819190
  0.5567728563421466  0.1124350597809025  0.0580222219498643
  0.5577923856143892  0.2246454184458608  0.0589660121298542
  0.4580632570155230  0.2823977119597275  0.0582366391728962
  0.6551503797412999  0.0522417577277337  0.0579597810389456
  0.7553311198279579  0.1084465231206780  0.0572634117673976
  0.7574313032629920  0.2204313791463751  0.0566356435635319
  0.6596046045139401  0.2802729464536841  0.0586818164167359
  0.8545607782320539  0.0518090719983320  0.0568814729277651
  0.9551680467426290  0.1082018099084999  0.0558519536908573
  0.9569950406781000  0.2193932864785440  0.0546095510517005
  0.8576672243033593  0.2751791410138650  0.0546555428260398
  0.0575651278542851  0.3869100613444856  0.0529718518758690
  0.1562574728769237  0.4434497885419863  0.0531762896742994
  0.1564103724199640  0.5549975585531732  0.0530150502906039
  0.0565703202919515  0.6096358671197585  0.0532818061745711
  0.2560763072188080  0.3887423332022932  0.0543179565732878
  0.3548262919788313  0.4455030720987999  0.0551832227796989
  0.3565590681461995  0.5584292753507125  0.0540054547470200
  0.2554513537068894  0.6119697245795245  0.0532528458851549
  0.7601013013257040  0.4425218688846231  0.0548055848336816
  0.8592409625470219  0.3862443877374949  0.0532187465836610
  0.9581772418246018  0.4420669220482299  0.0524150698600717
  0.9576306796692023  0.5527339168151857  0.0528661107309784
  0.8573110612334583  0.6066975214110347  0.0538579221450182
  0.0558456149924862  0.7210752402254464  0.0544443490682309
  0.1542337021412443  0.7776290716420700  0.0543221538808086
  0.1545216950005616  0.8887493826255912  0.0552102496038647
  0.0544016300293256  0.9431448984491063  0.0562362376297294
  0.2537348904047079  0.7225170641913832  0.0534849918717774
  0.3521437079000660  0.7786917321125200  0.0537160164658814
  0.3537484584797784  0.8898052124928458  0.0546367084741519
  0.2543833582059943  0.9451376569533785  0.0550883992249150
  0.4513473171939804  0.7232547311205607  0.0544333264203333
  0.5518394366242124  0.8857652462899510  0.0566824297980746
  0.4539064785401751  0.9450367493435077  0.0558889803061350
  0.7530443200951993  0.8804006561182843  0.0588491905210859
  0.6541509831772189  0.9398210023977629  0.0581221418815966
  0.8575671441658121  0.7189187715982560  0.0567574134279310
  0.9558873072137171  0.7757049008245205  0.0561399785940575
  0.9545660679687108  0.8866719915627740  0.0570243885745846
  0.8531930793316498  0.9396339006270991  0.0577548764028391
  0.4545870220099915  0.3937344618792286  0.0580770470799008
  0.7562698531870846  0.5548402492522587  0.0535933344859122
  0.7555069993216388  0.7673615955639140  0.0596173860061949
  0.4572363020306679  0.6112359118649787  0.0549911789369614
  0.6643111820373796  0.3868069268775857  0.0595640383486645
  0.5468693398136367  0.7798831037851435  0.0559461984746122
  0.6381898597828837  0.6641943490370388  0.0589631472737495
  0.5658602131531210  0.4935615258277831  0.0638134196603381
  0.6333653523696795  0.5906404594843206  0.1197239036975635
 
  0.00000000E+00  0.00000000E+00  0.00000000E+00
  0.00000000E+00  0.00000000E+00  0.00000000E+00
  0.00000000E+00  0.00000000E+00  0.00000000E+00
  0.00000000E+00  0.00000000E+00  0.00000000E+00
  0.00000000E+00  0.00000000E+00  0.00000000E+00
  0.00000000E+00  0.00000000E+00  0.00000000E+00
  0.00000000E+00  0.00000000E+00  0.00000000E+00
  0.00000000E+00  0.00000000E+00  0.00000000E+00
  0.00000000E+00  0.00000000E+00  0.00000000E+00
  0.00000000E+00  0.00000000E+00  0.00000000E+00
  0.00000000E+00  0.00000000E+00  0.00000000E+00
  0.00000000E+00  0.00000000E+00  0.00000000E+00
  0.00000000E+00  0.00000000E+00  0.00000000E+00
  0.00000000E+00  0.00000000E+00  0.00000000E+00
  0.00000000E+00  0.00000000E+00  0.00000000E+00
  0.00000000E+00  0.00000000E+00  0.00000000E+00
  0.00000000E+00  0.00000000E+00  0.00000000E+00
  0.00000000E+00  0.00000000E+00  0.00000000E+00
  0.00000000E+00  0.00000000E+00  0.00000000E+00
  0.00000000E+00  0.00000000E+00  0.00000000E+00
  0.00000000E+00  0.00000000E+00  0.00000000E+00
  0.00000000E+00  0.00000000E+00  0.00000000E+00
  0.00000000E+00  0.00000000E+00  0.00000000E+00
  0.00000000E+00  0.00000000E+00  0.00000000E+00
  0.00000000E+00  0.00000000E+00  0.00000000E+00
  0.00000000E+00  0.00000000E+00  0.00000000E+00
  0.00000000E+00  0.00000000E+00  0.00000000E+00
  0.00000000E+00  0.00000000E+00  0.00000000E+00
  0.00000000E+00  0.00000000E+00  0.00000000E+00
  0.00000000E+00  0.00000000E+00  0.00000000E+00
  0.00000000E+00  0.00000000E+00  0.00000000E+00
  0.00000000E+00  0.00000000E+00  0.00000000E+00
  0.00000000E+00  0.00000000E+00  0.00000000E+00
  0.00000000E+00  0.00000000E+00  0.00000000E+00
  0.00000000E+00  0.00000000E+00  0.00000000E+00
  0.00000000E+00  0.00000000E+00  0.00000000E+00
  0.00000000E+00  0.00000000E+00  0.00000000E+00
  0.00000000E+00  0.00000000E+00  0.00000000E+00
  0.00000000E+00  0.00000000E+00  0.00000000E+00
  0.00000000E+00  0.00000000E+00  0.00000000E+00
  0.00000000E+00  0.00000000E+00  0.00000000E+00
  0.00000000E+00  0.00000000E+00  0.00000000E+00
  0.00000000E+00  0.00000000E+00  0.00000000E+00
  0.00000000E+00  0.00000000E+00  0.00000000E+00
  0.00000000E+00  0.00000000E+00  0.00000000E+00
  0.00000000E+00  0.00000000E+00  0.00000000E+00
  0.00000000E+00  0.00000000E+00  0.00000000E+00
  0.00000000E+00  0.00000000E+00  0.00000000E+00
  0.00000000E+00  0.00000000E+00  0.00000000E+00
  0.00000000E+00  0.00000000E+00  0.00000000E+00
  0.00000000E+00  0.00000000E+00  0.00000000E+00
  0.00000000E+00  0.00000000E+00  0.00000000E+00
  0.00000000E+00  0.00000000E+00  0.00000000E+00
  0.00000000E+00  0.00000000E+00  0.00000000E+00
  0.00000000E+00  0.00000000E+00  0.00000000E+00
  0.00000000E+00  0.00000000E+00  0.00000000E+00
  0.00000000E+00  0.00000000E+00  0.00000000E+00
  0.00000000E+00  0.00000000E+00  0.00000000E+00
  0.00000000E+00  0.00000000E+00  0.00000000E+00
