12456                                   
   1.00000000000000     
    12.3312997818000003    0.0000000000000000    0.0000000000000000
     0.0001127485000000   12.8291997905000006    0.0000000000000000
     0.0005937186000000    0.0011528207000000   19.9943999824000009
   C    N    Fe   Ni   H 
    51     5     1     1     2
Direct
  0.0559134256126421  0.0533169367816152  0.0508527661976340
  0.1564677590629661  0.1084980681991169  0.0509021620385652
  0.1560575500343358  0.2193336843718257  0.0495592499064626
  0.0560089078566044  0.2748837088032338  0.0485988196913643
  0.2572964605511586  0.0538427275292700  0.0528975332744906
  0.3575708887504484  0.1100385131286270  0.0560048633515426
  0.3567499827231935  0.2220623431505746  0.0549638518174987
  0.2556992004473709  0.2752015292102417  0.0504523389929161
  0.4578822333338566  0.0543520291744489  0.0601855698701817
  0.5573545273845987  0.1130067777348190  0.0629848179410574
  0.5576302023690209  0.2280235986264220  0.0632624106834459
  0.4550092226407796  0.2828247011629152  0.0590820682322535
  0.6560342775981757  0.0522354751667760  0.0631381109498782
  0.7550516467029531  0.1100031655158077  0.0598950646711100
  0.7557604240191645  0.2231210911008171  0.0599671613524673
  0.6587987078473110  0.2852182572876111  0.0643707280049027
  0.8547808999500479  0.0530528150986392  0.0559690738777441
  0.9554373197395327  0.1082612905722136  0.0527901598136901
  0.9559495795892045  0.2197471291257330  0.0518852662560929
  0.8567505137740268  0.2764916253278465  0.0550405664429612
  0.0564883627928863  0.3859595224069836  0.0458135011520240
  0.1553116363715822  0.4420283822478175  0.0446234445928527
  0.1553376205234328  0.5528878473312194  0.0433684827349336
  0.0570064157365816  0.6095499793017518  0.0427133694772652
  0.2542122050211700  0.3862397577814078  0.0481937511139860
  0.3527694017232975  0.4409886211129846  0.0524113979219395
  0.3523554292954748  0.5534638769437049  0.0532675546694719
  0.2539852907367581  0.6088585390775795  0.0469060085850104
  0.7619748194539407  0.4464087215647649  0.0596775647915614
  0.8590420446202552  0.3876727686616691  0.0530336549604740
  0.9579971649270039  0.4423087621704727  0.0470695369336727
  0.9580843270504988  0.5535767752261843  0.0452632219026071
  0.8594394712281094  0.6076452757981116  0.0503282499177105
  0.0566385294997056  0.7202029603950872  0.0440629639619999
  0.1556775977769691  0.7763618164295293  0.0459240795585616
  0.1565929717824590  0.8872416669472154  0.0485645237349144
  0.0561345778672751  0.9424150692597421  0.0494329239627073
  0.2545134434742859  0.7200536340653357  0.0479680495633527
  0.3541768093905500  0.7739202195251846  0.0538664878253276
  0.3567873904508754  0.8859209519934795  0.0554610115356951
  0.2571213626948111  0.9422086578623902  0.0520443445223911
  0.4507258788236255  0.7138574706320874  0.0622422496109716
  0.5551540025903078  0.8808588457970217  0.0664361952014152
  0.4573022865181720  0.9413328188896357  0.0609064207194143
  0.7569228989748026  0.8810068927425708  0.0595647906461183
  0.6560236629230976  0.9378841969794677  0.0643591962932391
  0.8581241777850017  0.7201314303556057  0.0506357644202672
  0.9568377222770184  0.7755020719449347  0.0473264750564600
  0.9563079394678344  0.8868162671416914  0.0501610684799356
  0.8552568618830299  0.9406708983344877  0.0549974911754843
  0.5506581987153979  0.7686333483670001  0.0706394850714905
  0.4496343986463358  0.3900805814683607  0.0584210342600501
  0.6650415256003329  0.3953362190944615  0.0678705947578123
  0.7632416380421533  0.5542626887565831  0.0587619331755200
  0.7604480134829926  0.7720408388301612  0.0576281332225273
  0.4478985856542999  0.6046808632711755  0.0626818422015730
  0.6540357768716379  0.6644665754925750  0.0752514722548977
  0.5544808893251246  0.4984937745605834  0.0732620803176862
  0.6395039402915466  0.6898945519751623  0.1464131489425398
  0.6058810227219917  0.5823102671952787  0.1272539094078513
 
  0.00000000E+00  0.00000000E+00  0.00000000E+00
  0.00000000E+00  0.00000000E+00  0.00000000E+00
  0.00000000E+00  0.00000000E+00  0.00000000E+00
  0.00000000E+00  0.00000000E+00  0.00000000E+00
  0.00000000E+00  0.00000000E+00  0.00000000E+00
  0.00000000E+00  0.00000000E+00  0.00000000E+00
  0.00000000E+00  0.00000000E+00  0.00000000E+00
  0.00000000E+00  0.00000000E+00  0.00000000E+00
  0.00000000E+00  0.00000000E+00  0.00000000E+00
  0.00000000E+00  0.00000000E+00  0.00000000E+00
  0.00000000E+00  0.00000000E+00  0.00000000E+00
  0.00000000E+00  0.00000000E+00  0.00000000E+00
  0.00000000E+00  0.00000000E+00  0.00000000E+00
  0.00000000E+00  0.00000000E+00  0.00000000E+00
  0.00000000E+00  0.00000000E+00  0.00000000E+00
  0.00000000E+00  0.00000000E+00  0.00000000E+00
  0.00000000E+00  0.00000000E+00  0.00000000E+00
  0.00000000E+00  0.00000000E+00  0.00000000E+00
  0.00000000E+00  0.00000000E+00  0.00000000E+00
  0.00000000E+00  0.00000000E+00  0.00000000E+00
  0.00000000E+00  0.00000000E+00  0.00000000E+00
  0.00000000E+00  0.00000000E+00  0.00000000E+00
  0.00000000E+00  0.00000000E+00  0.00000000E+00
  0.00000000E+00  0.00000000E+00  0.00000000E+00
  0.00000000E+00  0.00000000E+00  0.00000000E+00
  0.00000000E+00  0.00000000E+00  0.00000000E+00
  0.00000000E+00  0.00000000E+00  0.00000000E+00
  0.00000000E+00  0.00000000E+00  0.00000000E+00
  0.00000000E+00  0.00000000E+00  0.00000000E+00
  0.00000000E+00  0.00000000E+00  0.00000000E+00
  0.00000000E+00  0.00000000E+00  0.00000000E+00
  0.00000000E+00  0.00000000E+00  0.00000000E+00
  0.00000000E+00  0.00000000E+00  0.00000000E+00
  0.00000000E+00  0.00000000E+00  0.00000000E+00
  0.00000000E+00  0.00000000E+00  0.00000000E+00
  0.00000000E+00  0.00000000E+00  0.00000000E+00
  0.00000000E+00  0.00000000E+00  0.00000000E+00
  0.00000000E+00  0.00000000E+00  0.00000000E+00
  0.00000000E+00  0.00000000E+00  0.00000000E+00
  0.00000000E+00  0.00000000E+00  0.00000000E+00
  0.00000000E+00  0.00000000E+00  0.00000000E+00
  0.00000000E+00  0.00000000E+00  0.00000000E+00
  0.00000000E+00  0.00000000E+00  0.00000000E+00
  0.00000000E+00  0.00000000E+00  0.00000000E+00
  0.00000000E+00  0.00000000E+00  0.00000000E+00
  0.00000000E+00  0.00000000E+00  0.00000000E+00
  0.00000000E+00  0.00000000E+00  0.00000000E+00
  0.00000000E+00  0.00000000E+00  0.00000000E+00
  0.00000000E+00  0.00000000E+00  0.00000000E+00
  0.00000000E+00  0.00000000E+00  0.00000000E+00
  0.00000000E+00  0.00000000E+00  0.00000000E+00
  0.00000000E+00  0.00000000E+00  0.00000000E+00
  0.00000000E+00  0.00000000E+00  0.00000000E+00
  0.00000000E+00  0.00000000E+00  0.00000000E+00
  0.00000000E+00  0.00000000E+00  0.00000000E+00
  0.00000000E+00  0.00000000E+00  0.00000000E+00
  0.00000000E+00  0.00000000E+00  0.00000000E+00
  0.00000000E+00  0.00000000E+00  0.00000000E+00
  0.00000000E+00  0.00000000E+00  0.00000000E+00
  0.00000000E+00  0.00000000E+00  0.00000000E+00
