12356                                   
   1.00000000000000     
    12.3312997818000003    0.0000000000000000    0.0000000000000000
     0.0001127485000000   12.8291997905000006    0.0000000000000000
     0.0005937186000000    0.0011528207000000   19.9943999824000009
   C    N    Fe   Ni   O    H 
    51     5     1     1     1     1
Direct
  0.0559126433095512  0.0541052956449749  0.0512272276807257
  0.1565643454849734  0.1099013162652624  0.0518361273546371
  0.1566294554224093  0.2207614390093724  0.0504491050952079
  0.0564301062918344  0.2757746996912852  0.0491733647235180
  0.2570976750566150  0.0556178462414010  0.0544114998983674
  0.3573753884295853  0.1118068465782563  0.0576065674584575
  0.3569817314726406  0.2236836546310678  0.0563709875462565
  0.2562337664078914  0.2770882356028743  0.0516383067656916
  0.4575173282076986  0.0560272552144829  0.0615576808649392
  0.5567058705988946  0.1142421246063091  0.0634332628152499
  0.5576086057612499  0.2290326859743322  0.0638460508774365
  0.4555104715090200  0.2843817405317879  0.0603357923666458
  0.6543887621217414  0.0532509381243922  0.0626097726455770
  0.7545601502155407  0.1100651618061639  0.0591443607243612
  0.7560151929950694  0.2227115277906143  0.0594934827060089
  0.6592321602065366  0.2848710460167707  0.0642324281779514
  0.8547554635725206  0.0535746790611393  0.0551140470382630
  0.9553520813215477  0.1090087986212554  0.0525246517682910
  0.9562337565722245  0.2203670286923428  0.0518495569072225
  0.8569810789462068  0.2765298045771509  0.0547519250251569
  0.0571894460600551  0.3864583337422996  0.0469259657309066
  0.1561685949552987  0.4433341975262911  0.0463030529727057
  0.1563215978635056  0.5541330025533951  0.0458217912872186
  0.0576244226116348  0.6101641509629506  0.0450054013205977
  0.2553235102067083  0.3883907938865035  0.0493892172777397
  0.3541553815085579  0.4440586152411177  0.0537060853197227
  0.3543880511953343  0.5564835303837135  0.0551029510633450
  0.2553499374953651  0.6103135720370575  0.0495447586062549
  0.7614872206678158  0.4460927511227160  0.0584454069113314
  0.8591647112946397  0.3876524696885251  0.0527707341467393
  0.9584873294512583  0.4420912352322203  0.0477593597513292
  0.9589250102832766  0.5530252204551065  0.0463236205761077
  0.8598425355335245  0.6062651075026113  0.0493675557428888
  0.0571739694758144  0.7210097486339204  0.0459879760950839
  0.1562400964490711  0.7773710800034134  0.0484354129105681
  0.1562419444125773  0.8884275740424731  0.0504058103565359
  0.0557211555683822  0.9432877297974094  0.0501151229561844
  0.2550640147385504  0.7215811558808390  0.0510134644486687
  0.3541372293715740  0.7764935259236244  0.0568116049011943
  0.3557026619418365  0.8880605705692586  0.0579007408863012
  0.2564067145178785  0.9439967123094424  0.0540581285198855
  0.4518364258523198  0.7181563533386508  0.0636079657974619
  0.5532559208533256  0.8823794627628470  0.0659299536152824
  0.4562907340738082  0.9430845244684597  0.0623932522516443
  0.7549306760748309  0.8827816712372669  0.0581107525483198
  0.6536209741568287  0.9391592015920499  0.0632800180569966
  0.8586371708637250  0.7188297092028494  0.0494534126297608
  0.9574324353832394  0.7757030412879115  0.0474684525262174
  0.9554938515834469  0.8871056794507657  0.0499761403618620
  0.8546003596999769  0.9415064774398150  0.0539224565543032
  0.7592123882574299  0.7720833768662071  0.0566723863947703
  0.4505108980653295  0.3915949256127163  0.0601920918227865
  0.4512927219472166  0.6096527399210830  0.0638213942504680
  0.6653970909114677  0.3940596578722039  0.0671993387403541
  0.7627749936233152  0.5538797861105966  0.0551976326500368
  0.5484105965657494  0.7718323872563320  0.0696804016845040
  0.6584669023666802  0.6686130845718786  0.0823051833852354
  0.5545095253492971  0.4948109949699298  0.0809935468690881
  0.6193426928727856  0.5804256531737708  0.1549735884675647
  0.5579820629928073  0.6064381806885475  0.1808716581720532
 
  0.00000000E+00  0.00000000E+00  0.00000000E+00
  0.00000000E+00  0.00000000E+00  0.00000000E+00
  0.00000000E+00  0.00000000E+00  0.00000000E+00
  0.00000000E+00  0.00000000E+00  0.00000000E+00
  0.00000000E+00  0.00000000E+00  0.00000000E+00
  0.00000000E+00  0.00000000E+00  0.00000000E+00
  0.00000000E+00  0.00000000E+00  0.00000000E+00
  0.00000000E+00  0.00000000E+00  0.00000000E+00
  0.00000000E+00  0.00000000E+00  0.00000000E+00
  0.00000000E+00  0.00000000E+00  0.00000000E+00
  0.00000000E+00  0.00000000E+00  0.00000000E+00
  0.00000000E+00  0.00000000E+00  0.00000000E+00
  0.00000000E+00  0.00000000E+00  0.00000000E+00
  0.00000000E+00  0.00000000E+00  0.00000000E+00
  0.00000000E+00  0.00000000E+00  0.00000000E+00
  0.00000000E+00  0.00000000E+00  0.00000000E+00
  0.00000000E+00  0.00000000E+00  0.00000000E+00
  0.00000000E+00  0.00000000E+00  0.00000000E+00
  0.00000000E+00  0.00000000E+00  0.00000000E+00
  0.00000000E+00  0.00000000E+00  0.00000000E+00
  0.00000000E+00  0.00000000E+00  0.00000000E+00
  0.00000000E+00  0.00000000E+00  0.00000000E+00
  0.00000000E+00  0.00000000E+00  0.00000000E+00
  0.00000000E+00  0.00000000E+00  0.00000000E+00
  0.00000000E+00  0.00000000E+00  0.00000000E+00
  0.00000000E+00  0.00000000E+00  0.00000000E+00
  0.00000000E+00  0.00000000E+00  0.00000000E+00
  0.00000000E+00  0.00000000E+00  0.00000000E+00
  0.00000000E+00  0.00000000E+00  0.00000000E+00
  0.00000000E+00  0.00000000E+00  0.00000000E+00
  0.00000000E+00  0.00000000E+00  0.00000000E+00
  0.00000000E+00  0.00000000E+00  0.00000000E+00
  0.00000000E+00  0.00000000E+00  0.00000000E+00
  0.00000000E+00  0.00000000E+00  0.00000000E+00
  0.00000000E+00  0.00000000E+00  0.00000000E+00
  0.00000000E+00  0.00000000E+00  0.00000000E+00
  0.00000000E+00  0.00000000E+00  0.00000000E+00
  0.00000000E+00  0.00000000E+00  0.00000000E+00
  0.00000000E+00  0.00000000E+00  0.00000000E+00
  0.00000000E+00  0.00000000E+00  0.00000000E+00
  0.00000000E+00  0.00000000E+00  0.00000000E+00
  0.00000000E+00  0.00000000E+00  0.00000000E+00
  0.00000000E+00  0.00000000E+00  0.00000000E+00
  0.00000000E+00  0.00000000E+00  0.00000000E+00
  0.00000000E+00  0.00000000E+00  0.00000000E+00
  0.00000000E+00  0.00000000E+00  0.00000000E+00
  0.00000000E+00  0.00000000E+00  0.00000000E+00
  0.00000000E+00  0.00000000E+00  0.00000000E+00
  0.00000000E+00  0.00000000E+00  0.00000000E+00
  0.00000000E+00  0.00000000E+00  0.00000000E+00
  0.00000000E+00  0.00000000E+00  0.00000000E+00
  0.00000000E+00  0.00000000E+00  0.00000000E+00
  0.00000000E+00  0.00000000E+00  0.00000000E+00
  0.00000000E+00  0.00000000E+00  0.00000000E+00
  0.00000000E+00  0.00000000E+00  0.00000000E+00
  0.00000000E+00  0.00000000E+00  0.00000000E+00
  0.00000000E+00  0.00000000E+00  0.00000000E+00
  0.00000000E+00  0.00000000E+00  0.00000000E+00
  0.00000000E+00  0.00000000E+00  0.00000000E+00
  0.00000000E+00  0.00000000E+00  0.00000000E+00
