CONTCAR\(3)                             
   1.00000000000000     
    12.3312997818000003    0.0000000000000000    0.0000000000000000
     0.0001127485000000   12.8291997905000006    0.0000000000000000
     0.0005937186000000    0.0011528207000000   19.9943999824000009
   C    N    Fe   Ni   H 
    53     3     1     1     2
Direct
  0.0565342110619727  0.0541898375196858  0.0514273629813104
  0.1570274645776941  0.1103029148702170  0.0514788064801362
  0.1577380766665631  0.2213971943280286  0.0516372145699797
  0.0575303690148241  0.2756646509370659  0.0518278998642481
  0.2572084456290775  0.0557761090559097  0.0519316368209875
  0.3577993322728011  0.1118259130617713  0.0531150094546359
  0.3585719719844038  0.2239849199005570  0.0531253571470359
  0.2578006930698745  0.2780263805133361  0.0521150730135760
  0.4572868954775785  0.0553891145159693  0.0547574245764017
  0.5572808700669261  0.1117747402408806  0.0562731793352473
  0.5582110598338933  0.2243305813259311  0.0561555766569850
  0.4588329096844987  0.2824847513331069  0.0543948653429113
  0.6553375809552122  0.0515380394781833  0.0569832484914603
  0.7556270543723250  0.1081439384067628  0.0553899798864545
  0.7573912846625980  0.2202415998640240  0.0555381803572481
  0.6593132937912474  0.2799991798019250  0.0571591046126758
  0.8555439979998702  0.0524326238383931  0.0535149771518312
  0.9561504923971766  0.1084563034013954  0.0522801939805333
  0.9574015043860199  0.2195098805024022  0.0524040078863588
  0.8579261485080544  0.2748423615102076  0.0537689483509181
  0.0576740645840608  0.3867462825937278  0.0518553276026642
  0.1566326474686524  0.4433002927454375  0.0516272178024067
  0.1560023606619790  0.5545151155671295  0.0513073799044353
  0.0567193884497048  0.6093380202989300  0.0514906913475381
  0.2567110303132806  0.3892857193085989  0.0520413810367180
  0.3560891471658146  0.4465822092972269  0.0525458757100601
  0.3555911630045688  0.5590706144505088  0.0525076229241309
  0.2554026486802380  0.6116376074957538  0.0513013671851343
  0.7601617040029929  0.4420375045344929  0.0575157161021980
  0.8590549105189542  0.3860014135710476  0.0539123291976178
  0.9580957391239567  0.4419201425579326  0.0526116835105170
  0.9570709337269970  0.5526243373175035  0.0526322838899770
  0.8565767203244155  0.6062951142436849  0.0543480393363047
  0.0566626402609563  0.7207748529419560  0.0510233651970784
  0.1553821159598448  0.7774538150734523  0.0504972416867048
  0.1558318496972845  0.8886376262886738  0.0507305079295830
  0.0557506881612478  0.9432950163447376  0.0510468994899753
  0.2544977297578909  0.7222301498268422  0.0506837138788851
  0.3539173697590030  0.7770562112895507  0.0520965466485853
  0.3553218575590765  0.8884785692571384  0.0529333216039828
  0.2559991669985858  0.9443369154223967  0.0515384646024262
  0.4521705957698348  0.7197660698597188  0.0551527728876827
  0.5526141106887686  0.8827535951486040  0.0589628790637175
  0.4556755062883724  0.9429774128156078  0.0552499048790390
  0.7546972004318135  0.8822723848002788  0.0565278108967340
  0.6541715935410124  0.9387735379417221  0.0584221519141051
  0.8583331292784133  0.7191646092129187  0.0538151514478133
  0.9570325271150701  0.7757328091362024  0.0517397952709847
  0.9557303296806918  0.8869007508256906  0.0517605434371546
  0.8548044888061207  0.9406846164195629  0.0534199120139013
  0.4556091106548655  0.3939119087792994  0.0532584586686096
  0.7550801753746789  0.5537971921904663  0.0594644205701347
  0.7586683769082331  0.7712412145241391  0.0578512977385197
  0.6637462710566089  0.3869230286046331  0.0590016002689755
  0.5478588022661617  0.7741498847099209  0.0624435184724437
  0.4538782205379818  0.6111261687592021  0.0538395949519890
  0.6530952149977728  0.6721442619024358  0.0863281212902020
  0.5655730542255731  0.4932278038633506  0.0556322957844082
  0.6037487290520098  0.6454848294778787  0.1645134659712314
  0.6125631927338716  0.5847593621958975  0.1486512819244912
 
  0.00000000E+00  0.00000000E+00  0.00000000E+00
  0.00000000E+00  0.00000000E+00  0.00000000E+00
  0.00000000E+00  0.00000000E+00  0.00000000E+00
  0.00000000E+00  0.00000000E+00  0.00000000E+00
  0.00000000E+00  0.00000000E+00  0.00000000E+00
  0.00000000E+00  0.00000000E+00  0.00000000E+00
  0.00000000E+00  0.00000000E+00  0.00000000E+00
  0.00000000E+00  0.00000000E+00  0.00000000E+00
  0.00000000E+00  0.00000000E+00  0.00000000E+00
  0.00000000E+00  0.00000000E+00  0.00000000E+00
  0.00000000E+00  0.00000000E+00  0.00000000E+00
  0.00000000E+00  0.00000000E+00  0.00000000E+00
  0.00000000E+00  0.00000000E+00  0.00000000E+00
  0.00000000E+00  0.00000000E+00  0.00000000E+00
  0.00000000E+00  0.00000000E+00  0.00000000E+00
  0.00000000E+00  0.00000000E+00  0.00000000E+00
  0.00000000E+00  0.00000000E+00  0.00000000E+00
  0.00000000E+00  0.00000000E+00  0.00000000E+00
  0.00000000E+00  0.00000000E+00  0.00000000E+00
  0.00000000E+00  0.00000000E+00  0.00000000E+00
  0.00000000E+00  0.00000000E+00  0.00000000E+00
  0.00000000E+00  0.00000000E+00  0.00000000E+00
  0.00000000E+00  0.00000000E+00  0.00000000E+00
  0.00000000E+00  0.00000000E+00  0.00000000E+00
  0.00000000E+00  0.00000000E+00  0.00000000E+00
  0.00000000E+00  0.00000000E+00  0.00000000E+00
  0.00000000E+00  0.00000000E+00  0.00000000E+00
  0.00000000E+00  0.00000000E+00  0.00000000E+00
  0.00000000E+00  0.00000000E+00  0.00000000E+00
  0.00000000E+00  0.00000000E+00  0.00000000E+00
  0.00000000E+00  0.00000000E+00  0.00000000E+00
  0.00000000E+00  0.00000000E+00  0.00000000E+00
  0.00000000E+00  0.00000000E+00  0.00000000E+00
  0.00000000E+00  0.00000000E+00  0.00000000E+00
  0.00000000E+00  0.00000000E+00  0.00000000E+00
  0.00000000E+00  0.00000000E+00  0.00000000E+00
  0.00000000E+00  0.00000000E+00  0.00000000E+00
  0.00000000E+00  0.00000000E+00  0.00000000E+00
  0.00000000E+00  0.00000000E+00  0.00000000E+00
  0.00000000E+00  0.00000000E+00  0.00000000E+00
  0.00000000E+00  0.00000000E+00  0.00000000E+00
  0.00000000E+00  0.00000000E+00  0.00000000E+00
  0.00000000E+00  0.00000000E+00  0.00000000E+00
  0.00000000E+00  0.00000000E+00  0.00000000E+00
  0.00000000E+00  0.00000000E+00  0.00000000E+00
  0.00000000E+00  0.00000000E+00  0.00000000E+00
  0.00000000E+00  0.00000000E+00  0.00000000E+00
  0.00000000E+00  0.00000000E+00  0.00000000E+00
  0.00000000E+00  0.00000000E+00  0.00000000E+00
  0.00000000E+00  0.00000000E+00  0.00000000E+00
  0.00000000E+00  0.00000000E+00  0.00000000E+00
  0.00000000E+00  0.00000000E+00  0.00000000E+00
  0.00000000E+00  0.00000000E+00  0.00000000E+00
  0.00000000E+00  0.00000000E+00  0.00000000E+00
  0.00000000E+00  0.00000000E+00  0.00000000E+00
  0.00000000E+00  0.00000000E+00  0.00000000E+00
  0.00000000E+00  0.00000000E+00  0.00000000E+00
  0.00000000E+00  0.00000000E+00  0.00000000E+00
  0.00000000E+00  0.00000000E+00  0.00000000E+00
  0.00000000E+00  0.00000000E+00  0.00000000E+00
