POSCAR\(2)                              
   1.00000000000000     
    12.3312997818000003    0.0000000000000000    0.0000000000000000
     0.0001127485000000   12.8291997905000006    0.0000000000000000
     0.0005937186000000    0.0011528207000000   19.9943999824000009
   C    N    Fe   Ni
    54     2     1     1
Direct
  0.0564654804011498  0.0541830994714052  0.0557770945350796
  0.1564597072926805  0.1104420508792378  0.0557948670818508
  0.1571926115179006  0.2214029334649616  0.0557770362898565
  0.0572887902783137  0.2762450200239886  0.0557596625915179
  0.2567740835563689  0.0559952651337133  0.0558051670692268
  0.3570764224541619  0.1126766656476743  0.0557701579597896
  0.3580033806199792  0.2243271682512237  0.0557331169355177
  0.2570850693328500  0.2777147887571852  0.0557631214784122
  0.4565568825921881  0.0568317966739079  0.0557416213277785
  0.5576788875271335  0.1124821590900372  0.0556912871195849
  0.5582509821821861  0.2242476340247826  0.0556665837674296
  0.4584996195049497  0.2825626954849882  0.0556756153349087
  0.6572024223949340  0.0531276790618219  0.0556665851908352
  0.7568902511222800  0.1091944555127888  0.0556790122116149
  0.7584616915218610  0.2205684286931401  0.0556803625134076
  0.6601936547956991  0.2795076940960496  0.0556581203919117
  0.8558953292613534  0.0527139364686278  0.0556980508178314
  0.9564508931191136  0.1085265578945061  0.0557330811162950
  0.9578972468959688  0.2195878357618651  0.0557258097142012
  0.8587065350736003  0.2750644602450463  0.0556938352401801
  0.0573753057646891  0.3876507213530666  0.0557598214528809
  0.1560654734249253  0.4437327614291277  0.0557721857485901
  0.1556415513542652  0.5551305726223167  0.0557826513937746
  0.0554072298531592  0.6099578745905532  0.0557731364527469
  0.2558837136078823  0.3885508874026789  0.0557622549271455
  0.3546325114720550  0.4446772847707652  0.0557248099214382
  0.3562211478946888  0.5569967054876788  0.0557251788603785
  0.2555153527524999  0.6114790094764667  0.0557754611231183
  0.7608359473131380  0.4408591878976218  0.0556473108317191
  0.8599512803124907  0.3858457424115142  0.0556895230194273
  0.9577616425689232  0.4431675664066350  0.0557313623588838
  0.9555607885912304  0.5542326931041972  0.0557343228912199
  0.8532156707705718  0.6075777840641792  0.0556788400846049
  0.0549609221685568  0.7211016380717299  0.0557819186621111
  0.1539811239061375  0.7773808586062998  0.0558060731274412
  0.1554220652331677  0.8884993357750075  0.0558177468920938
  0.0556017952921381  0.9433186699217269  0.0557910002750436
  0.2536683223415773  0.7223247757216550  0.0557863780446117
  0.3523822891655308  0.7778703365742700  0.0557553667180589
  0.3551098312117703  0.8891644228684870  0.0557782355527245
  0.2555611825558764  0.9447215532320118  0.0558167313653224
  0.4518754508122211  0.7210724182848440  0.0556824663680964
  0.5541930078396209  0.8882526319358801  0.0556755117599750
  0.4550841605087982  0.9456734610887172  0.0557386719532638
  0.7557197248259687  0.8820009344532940  0.0556382923622645
  0.6565059626173688  0.9413059756398233  0.0556462427748327
  0.8549751989103640  0.7213804191577738  0.0556842479825410
  0.9549991358847479  0.7762115463817479  0.0557413925165754
  0.9557507717933665  0.8872510465693231  0.0557457551780370
  0.8550576492708732  0.9406935775277981  0.0556858974994422
  0.4549932881551697  0.3938078156053108  0.0556606643239939
  0.7534721890583814  0.5519832924024743  0.0556321433868739
  0.5483984033788615  0.7801826373007696  0.0556346979830145
  0.4579178426295326  0.6086136619147161  0.0556664463586813
  0.6648452389981320  0.3852663227138695  0.0556346389987812
  0.7574037100184206  0.7725543605047617  0.0556238056715824
  0.6376111268694208  0.6674119910396273  0.0556207743848290
  0.5687819834288000  0.4932951600543258  0.0556278551066007
 
  0.00000000E+00  0.00000000E+00  0.00000000E+00
  0.00000000E+00  0.00000000E+00  0.00000000E+00
  0.00000000E+00  0.00000000E+00  0.00000000E+00
  0.00000000E+00  0.00000000E+00  0.00000000E+00
  0.00000000E+00  0.00000000E+00  0.00000000E+00
  0.00000000E+00  0.00000000E+00  0.00000000E+00
  0.00000000E+00  0.00000000E+00  0.00000000E+00
  0.00000000E+00  0.00000000E+00  0.00000000E+00
  0.00000000E+00  0.00000000E+00  0.00000000E+00
  0.00000000E+00  0.00000000E+00  0.00000000E+00
  0.00000000E+00  0.00000000E+00  0.00000000E+00
  0.00000000E+00  0.00000000E+00  0.00000000E+00
  0.00000000E+00  0.00000000E+00  0.00000000E+00
  0.00000000E+00  0.00000000E+00  0.00000000E+00
  0.00000000E+00  0.00000000E+00  0.00000000E+00
  0.00000000E+00  0.00000000E+00  0.00000000E+00
  0.00000000E+00  0.00000000E+00  0.00000000E+00
  0.00000000E+00  0.00000000E+00  0.00000000E+00
  0.00000000E+00  0.00000000E+00  0.00000000E+00
  0.00000000E+00  0.00000000E+00  0.00000000E+00
  0.00000000E+00  0.00000000E+00  0.00000000E+00
  0.00000000E+00  0.00000000E+00  0.00000000E+00
  0.00000000E+00  0.00000000E+00  0.00000000E+00
  0.00000000E+00  0.00000000E+00  0.00000000E+00
  0.00000000E+00  0.00000000E+00  0.00000000E+00
  0.00000000E+00  0.00000000E+00  0.00000000E+00
  0.00000000E+00  0.00000000E+00  0.00000000E+00
  0.00000000E+00  0.00000000E+00  0.00000000E+00
  0.00000000E+00  0.00000000E+00  0.00000000E+00
  0.00000000E+00  0.00000000E+00  0.00000000E+00
  0.00000000E+00  0.00000000E+00  0.00000000E+00
  0.00000000E+00  0.00000000E+00  0.00000000E+00
  0.00000000E+00  0.00000000E+00  0.00000000E+00
  0.00000000E+00  0.00000000E+00  0.00000000E+00
  0.00000000E+00  0.00000000E+00  0.00000000E+00
  0.00000000E+00  0.00000000E+00  0.00000000E+00
  0.00000000E+00  0.00000000E+00  0.00000000E+00
  0.00000000E+00  0.00000000E+00  0.00000000E+00
  0.00000000E+00  0.00000000E+00  0.00000000E+00
  0.00000000E+00  0.00000000E+00  0.00000000E+00
  0.00000000E+00  0.00000000E+00  0.00000000E+00
  0.00000000E+00  0.00000000E+00  0.00000000E+00
  0.00000000E+00  0.00000000E+00  0.00000000E+00
  0.00000000E+00  0.00000000E+00  0.00000000E+00
  0.00000000E+00  0.00000000E+00  0.00000000E+00
  0.00000000E+00  0.00000000E+00  0.00000000E+00
  0.00000000E+00  0.00000000E+00  0.00000000E+00
  0.00000000E+00  0.00000000E+00  0.00000000E+00
  0.00000000E+00  0.00000000E+00  0.00000000E+00
  0.00000000E+00  0.00000000E+00  0.00000000E+00
  0.00000000E+00  0.00000000E+00  0.00000000E+00
  0.00000000E+00  0.00000000E+00  0.00000000E+00
  0.00000000E+00  0.00000000E+00  0.00000000E+00
  0.00000000E+00  0.00000000E+00  0.00000000E+00
  0.00000000E+00  0.00000000E+00  0.00000000E+00
  0.00000000E+00  0.00000000E+00  0.00000000E+00
  0.00000000E+00  0.00000000E+00  0.00000000E+00
  0.00000000E+00  0.00000000E+00  0.00000000E+00
