CONTCAR                                 
   1.00000000000000     
    12.3312997818000003    0.0000000000000000    0.0000000000000000
     0.0001127485000000   12.8291997905000006    0.0000000000000000
     0.0005937186000000    0.0011528207000000   19.9943999824000009
   C    N    Fe   Ni   H 
    54     2     1     1     1
Direct
  0.0565114246448394  0.0556806683366003  0.0501890492708293
  0.1567480473155075  0.1107309244830839  0.0498275190055142
  0.1568171345224956  0.2216894397479568  0.0486906543395234
  0.0564617532478641  0.2765434457254698  0.0478489099661911
  0.2570075016292607  0.0553985265367720  0.0515380292639971
  0.3574112201659101  0.1107887779076387  0.0551553780809748
  0.3576902532355121  0.2229137736961794  0.0548070774475780
  0.2570142575626453  0.2772917306802600  0.0497969502705402
  0.4567145826618906  0.0539393867056531  0.0594144793506488
  0.5568002480114000  0.1103178882044211  0.0633473086399789
  0.5568150610184779  0.2224277853053315  0.0643882069305440
  0.4572641110200526  0.2805999966849968  0.0597377190335198
  0.6566082233666645  0.0512117780566903  0.0640678750557516
  0.7558943425680841  0.1093891468120333  0.0605537473735960
  0.7563328099028283  0.2217515615263841  0.0606950248875350
  0.6572317085885759  0.2801281008076744  0.0664458977771586
  0.8557656371563636  0.0542163402868653  0.0563264358232772
  0.9560042530780604  0.1100742694180234  0.0522993314519335
  0.9563080003316420  0.2210847584763080  0.0511077921622178
  0.8564689595562108  0.2767199306579309  0.0546968224751523
  0.0566475079067386  0.3877798922784008  0.0458981648771536
  0.1557638882434648  0.4432191615926274  0.0445714670097771
  0.1550843687307944  0.5545993918213252  0.0434915381913374
  0.0562298814360356  0.6104793096294872  0.0442159531176202
  0.2559793966248784  0.3882933081648736  0.0473928722286822
  0.3551337753840821  0.4443817339806780  0.0508051457337589
  0.3529342754298271  0.5573649593094604  0.0503392288750861
  0.2533131795834968  0.6114501884037082  0.0453600721084484
  0.7595364560230589  0.4455420760302721  0.0621686615913774
  0.8577867559753787  0.3881527223252424  0.0533138782047613
  0.9569078856062992  0.4437038661727027  0.0478588437437743
  0.9571592208899101  0.5549215354761867  0.0474609543866687
  0.8578982468005172  0.6108901975488196  0.0538172377831685
  0.0563997719104539  0.7219032995007882  0.0451852940889091
  0.1547685116753116  0.7781229178388818  0.0452945730781096
  0.1560948516528676  0.8893114332438460  0.0475388065822821
  0.0565273758107025  0.9448945339744266  0.0491694463120250
  0.2535801831391252  0.7220309020763059  0.0461133753046122
  0.3529538442503635  0.7759938334155433  0.0513001497840222
  0.3558471496247300  0.8874582000428034  0.0534781254344557
  0.2564297689467721  0.9441448665041059  0.0502977772021926
  0.4495015436563636  0.7168067782900660  0.0593536936103843
  0.5543029252650361  0.8812572542261858  0.0665139312520681
  0.4561586529621419  0.9416528863768442  0.0595789971376753
  0.7580697950544777  0.8833794563757206  0.0625524564405589
  0.6563626303553944  0.9384104652534803  0.0659719218489853
  0.8592011912108372  0.7241498925399464  0.0545328438263575
  0.9575943760166951  0.7784979805344648  0.0491634500820675
  0.9570412878475395  0.8892495279062140  0.0512676045132344
  0.8562545361161040  0.9424756425642171  0.0565325269701103
  0.4555077702846043  0.3927361221082335  0.0583411011742018
  0.6600346407558272  0.3905530083035316  0.0707900714936804
  0.7599297225033503  0.5571952580934580  0.0636569265134008
  0.5480304604291442  0.7705494452514174  0.0715303612686702
  0.4474889945131172  0.6084160934508739  0.0578135936142689
  0.7630664026583133  0.7750982377235327  0.0635331819443344
  0.6579219139706287  0.6679862704195300  0.0902154971665778
  0.5590505493660513  0.4956547586066196  0.0752301817849742
  0.6033466398052911  0.5763443535889046  0.1361058991137406
 
  0.00000000E+00  0.00000000E+00  0.00000000E+00
  0.00000000E+00  0.00000000E+00  0.00000000E+00
  0.00000000E+00  0.00000000E+00  0.00000000E+00
  0.00000000E+00  0.00000000E+00  0.00000000E+00
  0.00000000E+00  0.00000000E+00  0.00000000E+00
  0.00000000E+00  0.00000000E+00  0.00000000E+00
  0.00000000E+00  0.00000000E+00  0.00000000E+00
  0.00000000E+00  0.00000000E+00  0.00000000E+00
  0.00000000E+00  0.00000000E+00  0.00000000E+00
  0.00000000E+00  0.00000000E+00  0.00000000E+00
  0.00000000E+00  0.00000000E+00  0.00000000E+00
  0.00000000E+00  0.00000000E+00  0.00000000E+00
  0.00000000E+00  0.00000000E+00  0.00000000E+00
  0.00000000E+00  0.00000000E+00  0.00000000E+00
  0.00000000E+00  0.00000000E+00  0.00000000E+00
  0.00000000E+00  0.00000000E+00  0.00000000E+00
  0.00000000E+00  0.00000000E+00  0.00000000E+00
  0.00000000E+00  0.00000000E+00  0.00000000E+00
  0.00000000E+00  0.00000000E+00  0.00000000E+00
  0.00000000E+00  0.00000000E+00  0.00000000E+00
  0.00000000E+00  0.00000000E+00  0.00000000E+00
  0.00000000E+00  0.00000000E+00  0.00000000E+00
  0.00000000E+00  0.00000000E+00  0.00000000E+00
  0.00000000E+00  0.00000000E+00  0.00000000E+00
  0.00000000E+00  0.00000000E+00  0.00000000E+00
  0.00000000E+00  0.00000000E+00  0.00000000E+00
  0.00000000E+00  0.00000000E+00  0.00000000E+00
  0.00000000E+00  0.00000000E+00  0.00000000E+00
  0.00000000E+00  0.00000000E+00  0.00000000E+00
  0.00000000E+00  0.00000000E+00  0.00000000E+00
  0.00000000E+00  0.00000000E+00  0.00000000E+00
  0.00000000E+00  0.00000000E+00  0.00000000E+00
  0.00000000E+00  0.00000000E+00  0.00000000E+00
  0.00000000E+00  0.00000000E+00  0.00000000E+00
  0.00000000E+00  0.00000000E+00  0.00000000E+00
  0.00000000E+00  0.00000000E+00  0.00000000E+00
  0.00000000E+00  0.00000000E+00  0.00000000E+00
  0.00000000E+00  0.00000000E+00  0.00000000E+00
  0.00000000E+00  0.00000000E+00  0.00000000E+00
  0.00000000E+00  0.00000000E+00  0.00000000E+00
  0.00000000E+00  0.00000000E+00  0.00000000E+00
  0.00000000E+00  0.00000000E+00  0.00000000E+00
  0.00000000E+00  0.00000000E+00  0.00000000E+00
  0.00000000E+00  0.00000000E+00  0.00000000E+00
  0.00000000E+00  0.00000000E+00  0.00000000E+00
  0.00000000E+00  0.00000000E+00  0.00000000E+00
  0.00000000E+00  0.00000000E+00  0.00000000E+00
  0.00000000E+00  0.00000000E+00  0.00000000E+00
  0.00000000E+00  0.00000000E+00  0.00000000E+00
  0.00000000E+00  0.00000000E+00  0.00000000E+00
  0.00000000E+00  0.00000000E+00  0.00000000E+00
  0.00000000E+00  0.00000000E+00  0.00000000E+00
  0.00000000E+00  0.00000000E+00  0.00000000E+00
  0.00000000E+00  0.00000000E+00  0.00000000E+00
  0.00000000E+00  0.00000000E+00  0.00000000E+00
  0.00000000E+00  0.00000000E+00  0.00000000E+00
  0.00000000E+00  0.00000000E+00  0.00000000E+00
  0.00000000E+00  0.00000000E+00  0.00000000E+00
  0.00000000E+00  0.00000000E+00  0.00000000E+00
