CONTCAR                                 
   1.00000000000000     
    12.3312997818000003    0.0000000000000000    0.0000000000000000
     0.0001127485000000   12.8291997905000006    0.0000000000000000
     0.0005937186000000    0.0011528207000000   19.9943999824000009
   C    Fe   Ni   H 
    56     1     1     1
Direct
  0.0558433206378838  0.0550543678500141  0.0549554296717692
  0.1559237748853205  0.1109774627966462  0.0547839666354023
  0.1565004061219815  0.2217461525952990  0.0545980701712644
  0.0566374592207171  0.2767093369832465  0.0537526685857978
  0.2559643398890196  0.0562699599869682  0.0548974141316659
  0.3561493967205009  0.1122093350707345  0.0555259705385325
  0.3568023551189611  0.2235613733066872  0.0560501265344022
  0.2564133590983288  0.2777688640068814  0.0553049507802197
  0.4556619148287328  0.0561804802435174  0.0555377873143163
  0.5561525987251963  0.1120183053472483  0.0566580654090429
  0.5567394506147690  0.2226840896596482  0.0577835890471426
  0.4570520158299063  0.2809210233616968  0.0571315748358115
  0.6562006105989647  0.0540028130153304  0.0569929587105426
  0.7564594002903957  0.1100006736334063  0.0564123656880844
  0.7572602047118115  0.2211287374862461  0.0560316010996164
  0.6577988511899939  0.2786203632123285  0.0585050072823390
  0.8555833156822845  0.0533805919841346  0.0559466527014059
  0.9557422780201230  0.1096340303586160  0.0548360618329776
  0.9566915889626260  0.2207395228793691  0.0539033216377291
  0.8573317479333822  0.2765997574967586  0.0540003540927622
  0.0573213150129678  0.3879220220066042  0.0534794141659683
  0.1562903024653912  0.4441519338504278  0.0541731109680250
  0.1564148755376449  0.5555760886992519  0.0540879318559474
  0.0567138666689425  0.6108233207814006  0.0543669492382448
  0.2558843775343163  0.3886892532601279  0.0551072152508861
  0.3550222632494707  0.4445509153360416  0.0557491816258191
  0.3561918981590000  0.5574637613653763  0.0550145211932220
  0.2557763969202189  0.6119940649563969  0.0542538253711886
  0.7599188636997024  0.4443986372009296  0.0570638390777848
  0.8590589988747936  0.3877022051262271  0.0532562423570940
  0.9580437035220671  0.4433944791254141  0.0531976543093392
  0.9575981774072304  0.5543432805549933  0.0544937648352174
  0.8577712209481700  0.6094433653472485  0.0569294589825719
  0.0558223498175239  0.7221206258145170  0.0549049295507248
  0.1547150910525985  0.7782526208415484  0.0543232460175152
  0.1552219138441756  0.8893924050154970  0.0546165998094102
  0.0552889522448956  0.9443352434548272  0.0553566491551200
  0.2542233474425003  0.7230082442026368  0.0540143285527590
  0.3527693919810213  0.7790087227485584  0.0539173413699809
  0.3546595808386036  0.8897649043857522  0.0540240754803173
  0.2550661382901282  0.9453554438051238  0.0544166451604170
  0.4524295435921606  0.7225570629073466  0.0541329367381746
  0.5547515301223281  0.8881385700774282  0.0552507031475117
  0.4549246751880107  0.9452193844994705  0.0544454206747183
  0.7543409450023965  0.8834927875454031  0.0591008962805770
  0.6556907014689130  0.9433158342485385  0.0574384093072317
  0.8567916650537395  0.7217566772279845  0.0587228391074687
  0.9559429930424225  0.7774511801613114  0.0564389687087558
  0.9554054960836529  0.8882222770776176  0.0564493343432660
  0.8546758100650695  0.9416700336757940  0.0571817093205230
  0.4550463810284553  0.3916522374802517  0.0570058463091585
  0.4565918644772673  0.6109083876195593  0.0553289610594421
  0.6612673931083577  0.3875729937791115  0.0610525055959020
  0.7584036623698613  0.5562371124782968  0.0592046491906658
  0.5512605152083402  0.7794523621091518  0.0557724181058029
  0.7548929078781984  0.7718239781009796  0.0618014266418218
  0.6384233268161787  0.6628082850281475  0.0727017560532702
  0.5637022265583683  0.4929542553665950  0.0626972540875381
  0.6242970493440124  0.5595077004633348  0.1209991052997714
 
  0.00000000E+00  0.00000000E+00  0.00000000E+00
  0.00000000E+00  0.00000000E+00  0.00000000E+00
  0.00000000E+00  0.00000000E+00  0.00000000E+00
  0.00000000E+00  0.00000000E+00  0.00000000E+00
  0.00000000E+00  0.00000000E+00  0.00000000E+00
  0.00000000E+00  0.00000000E+00  0.00000000E+00
  0.00000000E+00  0.00000000E+00  0.00000000E+00
  0.00000000E+00  0.00000000E+00  0.00000000E+00
  0.00000000E+00  0.00000000E+00  0.00000000E+00
  0.00000000E+00  0.00000000E+00  0.00000000E+00
  0.00000000E+00  0.00000000E+00  0.00000000E+00
  0.00000000E+00  0.00000000E+00  0.00000000E+00
  0.00000000E+00  0.00000000E+00  0.00000000E+00
  0.00000000E+00  0.00000000E+00  0.00000000E+00
  0.00000000E+00  0.00000000E+00  0.00000000E+00
  0.00000000E+00  0.00000000E+00  0.00000000E+00
  0.00000000E+00  0.00000000E+00  0.00000000E+00
  0.00000000E+00  0.00000000E+00  0.00000000E+00
  0.00000000E+00  0.00000000E+00  0.00000000E+00
  0.00000000E+00  0.00000000E+00  0.00000000E+00
  0.00000000E+00  0.00000000E+00  0.00000000E+00
  0.00000000E+00  0.00000000E+00  0.00000000E+00
  0.00000000E+00  0.00000000E+00  0.00000000E+00
  0.00000000E+00  0.00000000E+00  0.00000000E+00
  0.00000000E+00  0.00000000E+00  0.00000000E+00
  0.00000000E+00  0.00000000E+00  0.00000000E+00
  0.00000000E+00  0.00000000E+00  0.00000000E+00
  0.00000000E+00  0.00000000E+00  0.00000000E+00
  0.00000000E+00  0.00000000E+00  0.00000000E+00
  0.00000000E+00  0.00000000E+00  0.00000000E+00
  0.00000000E+00  0.00000000E+00  0.00000000E+00
  0.00000000E+00  0.00000000E+00  0.00000000E+00
  0.00000000E+00  0.00000000E+00  0.00000000E+00
  0.00000000E+00  0.00000000E+00  0.00000000E+00
  0.00000000E+00  0.00000000E+00  0.00000000E+00
  0.00000000E+00  0.00000000E+00  0.00000000E+00
  0.00000000E+00  0.00000000E+00  0.00000000E+00
  0.00000000E+00  0.00000000E+00  0.00000000E+00
  0.00000000E+00  0.00000000E+00  0.00000000E+00
  0.00000000E+00  0.00000000E+00  0.00000000E+00
  0.00000000E+00  0.00000000E+00  0.00000000E+00
  0.00000000E+00  0.00000000E+00  0.00000000E+00
  0.00000000E+00  0.00000000E+00  0.00000000E+00
  0.00000000E+00  0.00000000E+00  0.00000000E+00
  0.00000000E+00  0.00000000E+00  0.00000000E+00
  0.00000000E+00  0.00000000E+00  0.00000000E+00
  0.00000000E+00  0.00000000E+00  0.00000000E+00
  0.00000000E+00  0.00000000E+00  0.00000000E+00
  0.00000000E+00  0.00000000E+00  0.00000000E+00
  0.00000000E+00  0.00000000E+00  0.00000000E+00
  0.00000000E+00  0.00000000E+00  0.00000000E+00
  0.00000000E+00  0.00000000E+00  0.00000000E+00
  0.00000000E+00  0.00000000E+00  0.00000000E+00
  0.00000000E+00  0.00000000E+00  0.00000000E+00
  0.00000000E+00  0.00000000E+00  0.00000000E+00
  0.00000000E+00  0.00000000E+00  0.00000000E+00
  0.00000000E+00  0.00000000E+00  0.00000000E+00
  0.00000000E+00  0.00000000E+00  0.00000000E+00
  0.00000000E+00  0.00000000E+00  0.00000000E+00
