CONTCAR\(3)                             
   1.00000000000000     
    12.3312997818000003    0.0000000000000000    0.0000000000000000
     0.0001127485000000   12.8291997905000006    0.0000000000000000
     0.0005937186000000    0.0011528207000000   19.9943999824000009
   C    N    Fe   Ni   O    H 
    53     3     1     1     2     2
Direct
  0.0556704042902093  0.0525627441435370  0.0466059252491645
  0.1562367265125744  0.1081158164352942  0.0454791381250280
  0.1566433423896124  0.2190516114264582  0.0440867530724687
  0.0564372520952752  0.2740581070987865  0.0452225818442027
  0.2570381393393637  0.0536981548874242  0.0469237270892594
  0.3574795194573331  0.1101007875961090  0.0498925872905109
  0.3579440308015820  0.2222738705906698  0.0478969079711597
  0.2565665572525622  0.2752661835808383  0.0432881963760074
  0.4571207133288339  0.0542970318855169  0.0553253820425482
  0.5569025199873137  0.1120177042410371  0.0602843108037429
  0.5577907316351381  0.2251336719495782  0.0605972787862477
  0.4577151105518658  0.2816928899111224  0.0524456613490653
  0.6550443409895785  0.0517621570921634  0.0622771999597676
  0.7552113076138713  0.1081260446087216  0.0592546487334925
  0.7567774511900182  0.2206109207562603  0.0601315123832409
  0.6598409038448870  0.2815035095185925  0.0648212193626373
  0.8550602612438086  0.0523501819906677  0.0541323535558660
  0.9556100924128615  0.1076419221577250  0.0499197065430852
  0.9566504994514010  0.2186956162115095  0.0498137434177544
  0.8572430429722507  0.2745046207151272  0.0550249558429428
  0.0562626788609917  0.3852597863665731  0.0432957382691893
  0.1546463854842137  0.4417101068667769  0.0398406237569958
  0.1539997202670754  0.5532486346787358  0.0388383888047047
  0.0547846852693602  0.6084567576022615  0.0408365875858573
  0.2544673376694546  0.3862549311993119  0.0405523746462703
  0.3522762441366812  0.4431289297215190  0.0419735847330151
  0.3521950845915863  0.5554063211912236  0.0431371048309067
  0.2531492134841577  0.6100631878036958  0.0398120518460504
  0.7608390382843132  0.4427592599329956  0.0628650864451500
  0.8585473858811471  0.3855557794965055  0.0545629308095573
  0.9572063887909759  0.4407325415545526  0.0473134673281893
  0.9561449304515843  0.5514269979382023  0.0459132256024041
  0.8557943527716634  0.6040237149461412  0.0532118969573995
  0.0553493509967454  0.7199020006732276  0.0412383903261791
  0.1548836502489303  0.7761017454687451  0.0412295620529930
  0.1553374854012073  0.8870057795961047  0.0435546316748887
  0.0549383422011210  0.9414597319467880  0.0453429447899963
  0.2546687674392698  0.7206149928615455  0.0417964825661317
  0.3549430151889180  0.7747949693035381  0.0477770350320904
  0.3555657804374970  0.8864059024431120  0.0499015122160405
  0.2559889803649759  0.9424383631761978  0.0463259018544867
  0.4540256606760323  0.7170772855739919  0.0555852514957486
  0.5530708668559863  0.8813101530500467  0.0635625126354067
  0.4556469956371068  0.9415954885096998  0.0559460932274861
  0.7553084746699008  0.8835313626248756  0.0606382721105398
  0.6544203772799464  0.9389228172726878  0.0642036502085612
  0.8562357612799462  0.7173394480684774  0.0521438994732863
  0.9554069150182897  0.7741030658231252  0.0453536431422998
  0.9547736233578841  0.8854637856097360  0.0474803688363047
  0.8546784219050265  0.9406840350466902  0.0533227877325786
  0.4533601916950316  0.3932923587125899  0.0481926964504117
  0.4527775770325734  0.6049283167001274  0.0530868322499271
  0.7601186461459746  0.7730656908841604  0.0640502273336107
  0.6644244690303078  0.3895937758109381  0.0697352301500606
  0.7604605474906588  0.5510111543267203  0.0630570882409880
  0.5493663509144197  0.7735292303312642  0.0677367564580218
  0.6626059224737724  0.6813905374222690  0.1062061002901939
  0.5543568919351080  0.4931695702746037  0.0742846603928293
  0.5851084090532811  0.5724650230097610  0.1563264471179785
  0.7402512795785381  0.7101262336555395  0.1836665865253470
  0.7137916182548449  0.6573150009856121  0.2150336749443604
  0.5150992091331434  0.5958217897421624  0.1732039190573779
 
  0.00000000E+00  0.00000000E+00  0.00000000E+00
  0.00000000E+00  0.00000000E+00  0.00000000E+00
  0.00000000E+00  0.00000000E+00  0.00000000E+00
  0.00000000E+00  0.00000000E+00  0.00000000E+00
  0.00000000E+00  0.00000000E+00  0.00000000E+00
  0.00000000E+00  0.00000000E+00  0.00000000E+00
  0.00000000E+00  0.00000000E+00  0.00000000E+00
  0.00000000E+00  0.00000000E+00  0.00000000E+00
  0.00000000E+00  0.00000000E+00  0.00000000E+00
  0.00000000E+00  0.00000000E+00  0.00000000E+00
  0.00000000E+00  0.00000000E+00  0.00000000E+00
  0.00000000E+00  0.00000000E+00  0.00000000E+00
  0.00000000E+00  0.00000000E+00  0.00000000E+00
  0.00000000E+00  0.00000000E+00  0.00000000E+00
  0.00000000E+00  0.00000000E+00  0.00000000E+00
  0.00000000E+00  0.00000000E+00  0.00000000E+00
  0.00000000E+00  0.00000000E+00  0.00000000E+00
  0.00000000E+00  0.00000000E+00  0.00000000E+00
  0.00000000E+00  0.00000000E+00  0.00000000E+00
  0.00000000E+00  0.00000000E+00  0.00000000E+00
  0.00000000E+00  0.00000000E+00  0.00000000E+00
  0.00000000E+00  0.00000000E+00  0.00000000E+00
  0.00000000E+00  0.00000000E+00  0.00000000E+00
  0.00000000E+00  0.00000000E+00  0.00000000E+00
  0.00000000E+00  0.00000000E+00  0.00000000E+00
  0.00000000E+00  0.00000000E+00  0.00000000E+00
  0.00000000E+00  0.00000000E+00  0.00000000E+00
  0.00000000E+00  0.00000000E+00  0.00000000E+00
  0.00000000E+00  0.00000000E+00  0.00000000E+00
  0.00000000E+00  0.00000000E+00  0.00000000E+00
  0.00000000E+00  0.00000000E+00  0.00000000E+00
  0.00000000E+00  0.00000000E+00  0.00000000E+00
  0.00000000E+00  0.00000000E+00  0.00000000E+00
  0.00000000E+00  0.00000000E+00  0.00000000E+00
  0.00000000E+00  0.00000000E+00  0.00000000E+00
  0.00000000E+00  0.00000000E+00  0.00000000E+00
  0.00000000E+00  0.00000000E+00  0.00000000E+00
  0.00000000E+00  0.00000000E+00  0.00000000E+00
  0.00000000E+00  0.00000000E+00  0.00000000E+00
  0.00000000E+00  0.00000000E+00  0.00000000E+00
  0.00000000E+00  0.00000000E+00  0.00000000E+00
  0.00000000E+00  0.00000000E+00  0.00000000E+00
  0.00000000E+00  0.00000000E+00  0.00000000E+00
  0.00000000E+00  0.00000000E+00  0.00000000E+00
  0.00000000E+00  0.00000000E+00  0.00000000E+00
  0.00000000E+00  0.00000000E+00  0.00000000E+00
  0.00000000E+00  0.00000000E+00  0.00000000E+00
  0.00000000E+00  0.00000000E+00  0.00000000E+00
  0.00000000E+00  0.00000000E+00  0.00000000E+00
  0.00000000E+00  0.00000000E+00  0.00000000E+00
  0.00000000E+00  0.00000000E+00  0.00000000E+00
  0.00000000E+00  0.00000000E+00  0.00000000E+00
  0.00000000E+00  0.00000000E+00  0.00000000E+00
  0.00000000E+00  0.00000000E+00  0.00000000E+00
  0.00000000E+00  0.00000000E+00  0.00000000E+00
  0.00000000E+00  0.00000000E+00  0.00000000E+00
  0.00000000E+00  0.00000000E+00  0.00000000E+00
  0.00000000E+00  0.00000000E+00  0.00000000E+00
  0.00000000E+00  0.00000000E+00  0.00000000E+00
  0.00000000E+00  0.00000000E+00  0.00000000E+00
  0.00000000E+00  0.00000000E+00  0.00000000E+00
  0.00000000E+00  0.00000000E+00  0.00000000E+00
