CONTCAR                                 
   1.00000000000000     
    12.3312997818000003    0.0000000000000000    0.0000000000000000
     0.0001127485000000   12.8291997905000006    0.0000000000000000
     0.0005937186000000    0.0011528207000000   19.9943999824000009
   C    N    Fe   Ni   H 
    52     4     1     1     2
Direct
  0.0544721691984995  0.0541666913016043  0.0514313263767301
  0.1550293570456960  0.1095960447597427  0.0510637712900921
  0.1553506834272624  0.2204295980824145  0.0496917268587937
  0.0551566358001468  0.2753402284606393  0.0491856855858979
  0.2554636094058233  0.0550850528344669  0.0527056209135070
  0.3559434286091698  0.1107060398777606  0.0556833104776357
  0.3558011787218989  0.2226722538463627  0.0546288152684902
  0.2551568034453864  0.2764041621895638  0.0501540721366839
  0.4557492144490140  0.0546051815745865  0.0595285634103406
  0.5548352390335882  0.1125567085865485  0.0630244709669206
  0.5553671295116070  0.2262846832751738  0.0642019754408636
  0.4543644336979478  0.2823543677510509  0.0586676006640054
  0.6533899685080277  0.0520426887025547  0.0633810960781428
  0.7533937354834588  0.1096241980765610  0.0609066317526359
  0.7543453629181079  0.2226449831673004  0.0617800656439814
  0.6563293532404620  0.2839233406435934  0.0672868895770435
  0.8532515646496299  0.0529650944343002  0.0568291365857073
  0.9537364498067759  0.1089417783487888  0.0535487817567104
  0.9544989326428645  0.2204471613477367  0.0527087616347338
  0.8550028743440569  0.2771198077686118  0.0563425998048961
  0.0568004317969529  0.3861171953674317  0.0468519479880945
  0.1556832192196299  0.4427764356357097  0.0452578433968781
  0.1559921816658258  0.5536191335668956  0.0441705632668185
  0.0574796557957402  0.6097997204634951  0.0445618704823870
  0.2552013607707592  0.3877394346342476  0.0477300811641942
  0.3543595132730620  0.4430432439160342  0.0507810293362217
  0.3542873621103400  0.5561884714319170  0.0512078514148183
  0.2547255655033014  0.6098722611022313  0.0466005739055514
  0.7615532863355184  0.4491159555352274  0.0623863996053754
  0.8580557301015740  0.3887990102307699  0.0544701060691513
  0.9581459175165628  0.4420135340269749  0.0486464473753352
  0.9595412697884480  0.5526708337163917  0.0475807952175283
  0.8615389874094872  0.6076334960158045  0.0529404669918834
  0.0564604863200748  0.7208705121187372  0.0456913176332432
  0.1548965449469118  0.7771335559083665  0.0468685364798171
  0.1547343117072612  0.8882706013254805  0.0491480186086126
  0.0543511059585817  0.9432617236216174  0.0502730429894224
  0.2537712310199739  0.7210525321640522  0.0480607491225957
  0.3524005294572297  0.7764224200796888  0.0529683402393754
  0.3540617599595983  0.8877248963300139  0.0546817729180054
  0.2547091621242899  0.9437522186343202  0.0518484950148829
  0.4496519955473404  0.7184122095466829  0.0589410941021446
  0.5517289259381093  0.8811505770626703  0.0637237587806041
  0.4546678000256287  0.9418698968978266  0.0595115934361869
  0.7536577007228097  0.8810868835333394  0.0604204672234446
  0.6528378791972324  0.9379654789955258  0.0635842657216811
  0.8592812207264051  0.7192255360843856  0.0525642243941488
  0.9567931699974255  0.7760387373795757  0.0488292257197005
  0.9545278470450305  0.8871402202122876  0.0513690027693542
  0.8530181449171622  0.9405402235756640  0.0560929224154146
  0.6619562753114723  0.3958076182390330  0.0725068353648235
  0.7577043266872326  0.7686745710987902  0.0596520153680191
  0.4509938964621043  0.3903798068816164  0.0567568056725433
  0.4501582999537177  0.6104272316703756  0.0590687063576012
  0.7654572589463486  0.5580822966939756  0.0608236248340025
  0.5469085498703358  0.7712485615227631  0.0655252598399012
  0.6509257586495822  0.6638235736321053  0.0734837334751124
  0.5539606196936890  0.4944977523055735  0.0769083101360418
  0.6830843696307626  0.6878777636899432  0.1426138770399501
  0.6157783599570745  0.5653938991230991  0.1270871139053220
 
  0.00000000E+00  0.00000000E+00  0.00000000E+00
  0.00000000E+00  0.00000000E+00  0.00000000E+00
  0.00000000E+00  0.00000000E+00  0.00000000E+00
  0.00000000E+00  0.00000000E+00  0.00000000E+00
  0.00000000E+00  0.00000000E+00  0.00000000E+00
  0.00000000E+00  0.00000000E+00  0.00000000E+00
  0.00000000E+00  0.00000000E+00  0.00000000E+00
  0.00000000E+00  0.00000000E+00  0.00000000E+00
  0.00000000E+00  0.00000000E+00  0.00000000E+00
  0.00000000E+00  0.00000000E+00  0.00000000E+00
  0.00000000E+00  0.00000000E+00  0.00000000E+00
  0.00000000E+00  0.00000000E+00  0.00000000E+00
  0.00000000E+00  0.00000000E+00  0.00000000E+00
  0.00000000E+00  0.00000000E+00  0.00000000E+00
  0.00000000E+00  0.00000000E+00  0.00000000E+00
  0.00000000E+00  0.00000000E+00  0.00000000E+00
  0.00000000E+00  0.00000000E+00  0.00000000E+00
  0.00000000E+00  0.00000000E+00  0.00000000E+00
  0.00000000E+00  0.00000000E+00  0.00000000E+00
  0.00000000E+00  0.00000000E+00  0.00000000E+00
  0.00000000E+00  0.00000000E+00  0.00000000E+00
  0.00000000E+00  0.00000000E+00  0.00000000E+00
  0.00000000E+00  0.00000000E+00  0.00000000E+00
  0.00000000E+00  0.00000000E+00  0.00000000E+00
  0.00000000E+00  0.00000000E+00  0.00000000E+00
  0.00000000E+00  0.00000000E+00  0.00000000E+00
  0.00000000E+00  0.00000000E+00  0.00000000E+00
  0.00000000E+00  0.00000000E+00  0.00000000E+00
  0.00000000E+00  0.00000000E+00  0.00000000E+00
  0.00000000E+00  0.00000000E+00  0.00000000E+00
  0.00000000E+00  0.00000000E+00  0.00000000E+00
  0.00000000E+00  0.00000000E+00  0.00000000E+00
  0.00000000E+00  0.00000000E+00  0.00000000E+00
  0.00000000E+00  0.00000000E+00  0.00000000E+00
  0.00000000E+00  0.00000000E+00  0.00000000E+00
  0.00000000E+00  0.00000000E+00  0.00000000E+00
  0.00000000E+00  0.00000000E+00  0.00000000E+00
  0.00000000E+00  0.00000000E+00  0.00000000E+00
  0.00000000E+00  0.00000000E+00  0.00000000E+00
  0.00000000E+00  0.00000000E+00  0.00000000E+00
  0.00000000E+00  0.00000000E+00  0.00000000E+00
  0.00000000E+00  0.00000000E+00  0.00000000E+00
  0.00000000E+00  0.00000000E+00  0.00000000E+00
  0.00000000E+00  0.00000000E+00  0.00000000E+00
  0.00000000E+00  0.00000000E+00  0.00000000E+00
  0.00000000E+00  0.00000000E+00  0.00000000E+00
  0.00000000E+00  0.00000000E+00  0.00000000E+00
  0.00000000E+00  0.00000000E+00  0.00000000E+00
  0.00000000E+00  0.00000000E+00  0.00000000E+00
  0.00000000E+00  0.00000000E+00  0.00000000E+00
  0.00000000E+00  0.00000000E+00  0.00000000E+00
  0.00000000E+00  0.00000000E+00  0.00000000E+00
  0.00000000E+00  0.00000000E+00  0.00000000E+00
  0.00000000E+00  0.00000000E+00  0.00000000E+00
  0.00000000E+00  0.00000000E+00  0.00000000E+00
  0.00000000E+00  0.00000000E+00  0.00000000E+00
  0.00000000E+00  0.00000000E+00  0.00000000E+00
  0.00000000E+00  0.00000000E+00  0.00000000E+00
  0.00000000E+00  0.00000000E+00  0.00000000E+00
  0.00000000E+00  0.00000000E+00  0.00000000E+00
