CONTCAR\(7)                             
   1.00000000000000     
    12.3312997818000003    0.0000000000000000    0.0000000000000000
     0.0001127485000000   12.8291997905000006    0.0000000000000000
     0.0005937186000000    0.0011528207000000   19.9943999824000009
   C    N    Fe   Ni   O 
    51     5     1     1     2
Direct
  0.0556429179505569  0.0543760432558461  0.0494952023848811
  0.1562548131914229  0.1103411100666062  0.0492625600240805
  0.1567689994540267  0.2212981723471166  0.0487251932536014
  0.0561813427898567  0.2758432890709874  0.0488446380285989
  0.2567081019117635  0.0555884570980677  0.0503822594391451
  0.3573377173160497  0.1112039690676869  0.0525127661790137
  0.3577561910722408  0.2232500928587336  0.0519701009306150
  0.2570133541901068  0.2776025689222538  0.0491567841281109
  0.4573200147705313  0.0547602206628124  0.0554133452823549
  0.5577979118523528  0.1110304263445844  0.0579526414500578
  0.5586545274671497  0.2247641946482981  0.0586723030979096
  0.4579223704931231  0.2814887329434645  0.0551761788317388
  0.6555586040610996  0.0503819270147415  0.0583993433855168
  0.7547738155420859  0.1080985084611910  0.0564885506459470
  0.7561653656736190  0.2210070178139751  0.0569729400411948
  0.6592422548499323  0.2814610211712967  0.0604403253660982
  0.8547458084008630  0.0523273403829712  0.0534956767183949
  0.9551801013098342  0.1085843376868535  0.0511243129274306
  0.9560751239277923  0.2201472961842024  0.0509836942878428
  0.8565957276436631  0.2759936888663066  0.0536203969960909
  0.0562281766900422  0.3869117548657438  0.0478842723283167
  0.1555344326823077  0.4433222809937203  0.0471309770789332
  0.1550527844669085  0.5541820206617423  0.0468222938416950
  0.0560409625874573  0.6099297601667500  0.0467405625197408
  0.2555373112362590  0.3890618657963215  0.0482161410853238
  0.3545835156177207  0.4462699055407381  0.0505580274577667
  0.3537212234715396  0.5584911548833300  0.0523281295345761
  0.2538898450962006  0.6113815231548088  0.0487106324662971
  0.7593472865125790  0.4455978443617556  0.0572436124929291
  0.8577174956097692  0.3874302971399781  0.0526695358604332
  0.9571530144949971  0.4424016917682052  0.0490953674671801
  0.9567521080813841  0.5536785151694721  0.0484447235184347
  0.8570934889042083  0.6069310218213936  0.0514016350530815
  0.0558534597117323  0.7207016270222700  0.0468003967012869
  0.1545047210245202  0.7776727445913509  0.0474149530706030
  0.1554149226626146  0.8885028049810515  0.0483031913441026
  0.0553247827657578  0.9433463143173012  0.0488473538259517
  0.2530895675492058  0.7221130820554663  0.0490091287287536
  0.3522097175469805  0.7769677507997400  0.0520840809420305
  0.3547798742245110  0.8882850413953030  0.0522739328416480
  0.2556822817936097  0.9441739911262795  0.0500115810649960
  0.4491698256439502  0.7188613816463174  0.0572680631014923
  0.5525584563922411  0.8810478694989943  0.0587765878150291
  0.4556717269197848  0.9423455012762019  0.0554984329190706
  0.7562003134655582  0.8800507045707373  0.0571362455006539
  0.6545103131116369  0.9357560146181768  0.0590061227843006
  0.8579453013046535  0.7195306298855362  0.0518170594257236
  0.9564844059822959  0.7755035019852388  0.0485801107400499
  0.9557460412012183  0.8868698581183068  0.0499947657459052
  0.8548496091756282  0.9402341856387701  0.0532483700390515
  0.4537624401317920  0.3922533688188073  0.0549235641049213
  0.4504371979652024  0.6112577489362114  0.0587670694926637
  0.6637036712791694  0.3907853774973721  0.0634707639847198
  0.7591697878038914  0.5541132559726909  0.0553821485307712
  0.5464502026740555  0.7720473087086857  0.0605667257415037
  0.7608136755570667  0.7717842278646426  0.0582795468299199
  0.6529395708171892  0.6723002721169549  0.0772601365965929
  0.5570088533652162  0.4876181242914240  0.0811650875536312
  0.6043319060680624  0.5396961614852341  0.1649646352160079
  0.6462506505430008  0.6409330695889908  0.1622648152552743
 
  0.00000000E+00  0.00000000E+00  0.00000000E+00
  0.00000000E+00  0.00000000E+00  0.00000000E+00
  0.00000000E+00  0.00000000E+00  0.00000000E+00
  0.00000000E+00  0.00000000E+00  0.00000000E+00
  0.00000000E+00  0.00000000E+00  0.00000000E+00
  0.00000000E+00  0.00000000E+00  0.00000000E+00
  0.00000000E+00  0.00000000E+00  0.00000000E+00
  0.00000000E+00  0.00000000E+00  0.00000000E+00
  0.00000000E+00  0.00000000E+00  0.00000000E+00
  0.00000000E+00  0.00000000E+00  0.00000000E+00
  0.00000000E+00  0.00000000E+00  0.00000000E+00
  0.00000000E+00  0.00000000E+00  0.00000000E+00
  0.00000000E+00  0.00000000E+00  0.00000000E+00
  0.00000000E+00  0.00000000E+00  0.00000000E+00
  0.00000000E+00  0.00000000E+00  0.00000000E+00
  0.00000000E+00  0.00000000E+00  0.00000000E+00
  0.00000000E+00  0.00000000E+00  0.00000000E+00
  0.00000000E+00  0.00000000E+00  0.00000000E+00
  0.00000000E+00  0.00000000E+00  0.00000000E+00
  0.00000000E+00  0.00000000E+00  0.00000000E+00
  0.00000000E+00  0.00000000E+00  0.00000000E+00
  0.00000000E+00  0.00000000E+00  0.00000000E+00
  0.00000000E+00  0.00000000E+00  0.00000000E+00
  0.00000000E+00  0.00000000E+00  0.00000000E+00
  0.00000000E+00  0.00000000E+00  0.00000000E+00
  0.00000000E+00  0.00000000E+00  0.00000000E+00
  0.00000000E+00  0.00000000E+00  0.00000000E+00
  0.00000000E+00  0.00000000E+00  0.00000000E+00
  0.00000000E+00  0.00000000E+00  0.00000000E+00
  0.00000000E+00  0.00000000E+00  0.00000000E+00
  0.00000000E+00  0.00000000E+00  0.00000000E+00
  0.00000000E+00  0.00000000E+00  0.00000000E+00
  0.00000000E+00  0.00000000E+00  0.00000000E+00
  0.00000000E+00  0.00000000E+00  0.00000000E+00
  0.00000000E+00  0.00000000E+00  0.00000000E+00
  0.00000000E+00  0.00000000E+00  0.00000000E+00
  0.00000000E+00  0.00000000E+00  0.00000000E+00
  0.00000000E+00  0.00000000E+00  0.00000000E+00
  0.00000000E+00  0.00000000E+00  0.00000000E+00
  0.00000000E+00  0.00000000E+00  0.00000000E+00
  0.00000000E+00  0.00000000E+00  0.00000000E+00
  0.00000000E+00  0.00000000E+00  0.00000000E+00
  0.00000000E+00  0.00000000E+00  0.00000000E+00
  0.00000000E+00  0.00000000E+00  0.00000000E+00
  0.00000000E+00  0.00000000E+00  0.00000000E+00
  0.00000000E+00  0.00000000E+00  0.00000000E+00
  0.00000000E+00  0.00000000E+00  0.00000000E+00
  0.00000000E+00  0.00000000E+00  0.00000000E+00
  0.00000000E+00  0.00000000E+00  0.00000000E+00
  0.00000000E+00  0.00000000E+00  0.00000000E+00
  0.00000000E+00  0.00000000E+00  0.00000000E+00
  0.00000000E+00  0.00000000E+00  0.00000000E+00
  0.00000000E+00  0.00000000E+00  0.00000000E+00
  0.00000000E+00  0.00000000E+00  0.00000000E+00
  0.00000000E+00  0.00000000E+00  0.00000000E+00
  0.00000000E+00  0.00000000E+00  0.00000000E+00
  0.00000000E+00  0.00000000E+00  0.00000000E+00
  0.00000000E+00  0.00000000E+00  0.00000000E+00
  0.00000000E+00  0.00000000E+00  0.00000000E+00
  0.00000000E+00  0.00000000E+00  0.00000000E+00
