CONTCAR\(7)                             
   1.00000000000000     
    12.3312997818000003    0.0000000000000000    0.0000000000000000
     0.0001127485000000   12.8291997905000006    0.0000000000000000
     0.0005937186000000    0.0011528207000000   19.9943999824000009
   C    N    Fe   Ni   H 
    50     6     1     1     2
Direct
  0.0551753621272561  0.0530108492031421  0.0540822703388461
  0.1556172755082525  0.1087140247775886  0.0537902417251307
  0.1555578765017058  0.2195131982699079  0.0534400350732607
  0.0554689068399648  0.2746499417030109  0.0535050894382989
  0.2561930178897037  0.0541829000749625  0.0539899798537194
  0.3566370344986059  0.1099752054804133  0.0546271677335226
  0.3560089753656849  0.2218972931187451  0.0543885627530698
  0.2551872501981478  0.2755222000601032  0.0533328871755837
  0.4570182640344286  0.0540323656371809  0.0555649988300867
  0.5565515600824023  0.1119906180814194  0.0566392378839069
  0.5569136556477174  0.2273157200483458  0.0568060263087792
  0.4543858894287219  0.2825182010881929  0.0556431615455348
  0.6542786360633727  0.0504245523223630  0.0573160410261775
  0.7537086944021025  0.1084798507717176  0.0567449825241909
  0.7548041553613697  0.2215891068069319  0.0566110545633628
  0.6579179367817111  0.2841238388562488  0.0573448150582275
  0.8539708769447751  0.0521116950529503  0.0558205814029192
  0.9546165322874632  0.1076151037421308  0.0548202433783566
  0.9554357064154657  0.2190714241695466  0.0545940928071071
  0.8562045900467418  0.2752761699647195  0.0555672230897667
  0.0562826830234164  0.3856356776155805  0.0527744259723336
  0.1551344502568489  0.4420438355657773  0.0519863440739792
  0.1551009690772124  0.5527146853974746  0.0517101387878143
  0.0565848135044045  0.6090822572009061  0.0520478971644398
  0.2541377205200962  0.3868557553273101  0.0525376784084975
  0.3531577077579087  0.4419838560987548  0.0534759531101765
  0.3533892865143767  0.5547317992580774  0.0531353786489529
  0.2541168822368522  0.6087574790764927  0.0520214811944376
  0.7616485341941408  0.4445950754395439  0.0567584532494078
  0.8590727650266718  0.3865086360511161  0.0553363878016686
  0.9580173075951156  0.4416323107259633  0.0535822712413287
  0.9577711496456091  0.5529805994067231  0.0531682173989759
  0.8586802936931616  0.6068692574401747  0.0549003861355785
  0.0560480041042550  0.7197387494025255  0.0521806969529000
  0.1548073532668361  0.7761347963777405  0.0522272451274576
  0.1554608949215392  0.8870551653657563  0.0530765865335750
  0.0552871164035015  0.9422020445034952  0.0537458947143620
  0.2532268686733493  0.7200941559543498  0.0522584030145727
  0.3519874127665724  0.7751963829460479  0.0534740589185191
  0.3547241128871259  0.8866326835168892  0.0540911543814057
  0.2555067717142074  0.9426691344031352  0.0536341452730017
  0.4495234951868346  0.7171304066331374  0.0548653002269168
  0.5524392130845124  0.8793472402691891  0.0571254930761063
  0.4557640568351670  0.9411174441402812  0.0553793819771663
  0.7563434913367818  0.8793307473077129  0.0578547681586706
  0.6538692592513323  0.9351269132312262  0.0580455747358759
  0.8580372281901354  0.7195815566190347  0.0555336530214810
  0.9568756651807693  0.7748996982095129  0.0535294573106946
  0.9555995030988421  0.8862860779246936  0.0543441974645735
  0.8546092593816964  0.9399776790666488  0.0557942187056268
  0.4495897048665947  0.3897179431277418  0.0558469007929614
  0.4509041414199217  0.6085276702497227  0.0545000297894514
  0.6641581900445600  0.3941177205372272  0.0579807210914450
  0.7617470131005798  0.5525526435973537  0.0568510037890504
  0.5459443875889559  0.7696804567566297  0.0578367101856761
  0.7613021791265029  0.7717451713285870  0.0594181386931796
  0.6500038328766328  0.6581398931716520  0.0677766042380039
  0.5569426794407936  0.4990968825244513  0.0597251830421567
  0.6507473037158892  0.6543839689882086  0.1594021168403338
  0.6121840060646956  0.6053212210135318  0.1484986572473494
 
  0.00000000E+00  0.00000000E+00  0.00000000E+00
  0.00000000E+00  0.00000000E+00  0.00000000E+00
  0.00000000E+00  0.00000000E+00  0.00000000E+00
  0.00000000E+00  0.00000000E+00  0.00000000E+00
  0.00000000E+00  0.00000000E+00  0.00000000E+00
  0.00000000E+00  0.00000000E+00  0.00000000E+00
  0.00000000E+00  0.00000000E+00  0.00000000E+00
  0.00000000E+00  0.00000000E+00  0.00000000E+00
  0.00000000E+00  0.00000000E+00  0.00000000E+00
  0.00000000E+00  0.00000000E+00  0.00000000E+00
  0.00000000E+00  0.00000000E+00  0.00000000E+00
  0.00000000E+00  0.00000000E+00  0.00000000E+00
  0.00000000E+00  0.00000000E+00  0.00000000E+00
  0.00000000E+00  0.00000000E+00  0.00000000E+00
  0.00000000E+00  0.00000000E+00  0.00000000E+00
  0.00000000E+00  0.00000000E+00  0.00000000E+00
  0.00000000E+00  0.00000000E+00  0.00000000E+00
  0.00000000E+00  0.00000000E+00  0.00000000E+00
  0.00000000E+00  0.00000000E+00  0.00000000E+00
  0.00000000E+00  0.00000000E+00  0.00000000E+00
  0.00000000E+00  0.00000000E+00  0.00000000E+00
  0.00000000E+00  0.00000000E+00  0.00000000E+00
  0.00000000E+00  0.00000000E+00  0.00000000E+00
  0.00000000E+00  0.00000000E+00  0.00000000E+00
  0.00000000E+00  0.00000000E+00  0.00000000E+00
  0.00000000E+00  0.00000000E+00  0.00000000E+00
  0.00000000E+00  0.00000000E+00  0.00000000E+00
  0.00000000E+00  0.00000000E+00  0.00000000E+00
  0.00000000E+00  0.00000000E+00  0.00000000E+00
  0.00000000E+00  0.00000000E+00  0.00000000E+00
  0.00000000E+00  0.00000000E+00  0.00000000E+00
  0.00000000E+00  0.00000000E+00  0.00000000E+00
  0.00000000E+00  0.00000000E+00  0.00000000E+00
  0.00000000E+00  0.00000000E+00  0.00000000E+00
  0.00000000E+00  0.00000000E+00  0.00000000E+00
  0.00000000E+00  0.00000000E+00  0.00000000E+00
  0.00000000E+00  0.00000000E+00  0.00000000E+00
  0.00000000E+00  0.00000000E+00  0.00000000E+00
  0.00000000E+00  0.00000000E+00  0.00000000E+00
  0.00000000E+00  0.00000000E+00  0.00000000E+00
  0.00000000E+00  0.00000000E+00  0.00000000E+00
  0.00000000E+00  0.00000000E+00  0.00000000E+00
  0.00000000E+00  0.00000000E+00  0.00000000E+00
  0.00000000E+00  0.00000000E+00  0.00000000E+00
  0.00000000E+00  0.00000000E+00  0.00000000E+00
  0.00000000E+00  0.00000000E+00  0.00000000E+00
  0.00000000E+00  0.00000000E+00  0.00000000E+00
  0.00000000E+00  0.00000000E+00  0.00000000E+00
  0.00000000E+00  0.00000000E+00  0.00000000E+00
  0.00000000E+00  0.00000000E+00  0.00000000E+00
  0.00000000E+00  0.00000000E+00  0.00000000E+00
  0.00000000E+00  0.00000000E+00  0.00000000E+00
  0.00000000E+00  0.00000000E+00  0.00000000E+00
  0.00000000E+00  0.00000000E+00  0.00000000E+00
  0.00000000E+00  0.00000000E+00  0.00000000E+00
  0.00000000E+00  0.00000000E+00  0.00000000E+00
  0.00000000E+00  0.00000000E+00  0.00000000E+00
  0.00000000E+00  0.00000000E+00  0.00000000E+00
  0.00000000E+00  0.00000000E+00  0.00000000E+00
  0.00000000E+00  0.00000000E+00  0.00000000E+00
