CONTCAR\(3)                             
   1.00000000000000     
    12.3312997818000003    0.0000000000000000    0.0000000000000000
     0.0001127485000000   12.8291997905000006    0.0000000000000000
     0.0005937186000000    0.0011528207000000   19.9943999824000009
   C    N    Fe   Ni   O 
    52     4     1     1     2
Direct
  0.0555742034581934  0.0548726450004983  0.0495818917198499
  0.1561004682713601  0.1104422099479369  0.0495352497843804
  0.1565765095563881  0.2214862610422830  0.0492737153581663
  0.0559730937837262  0.2759800051377839  0.0488546057688172
  0.2562974191318277  0.0552867138496694  0.0502327001793321
  0.3569939259809353  0.1102837752943517  0.0521961324739673
  0.3574297678224150  0.2222101013615416  0.0525427252274024
  0.2570258378522580  0.2772680990588657  0.0501751198510282
  0.4567490631462464  0.0535926804427359  0.0541440451100243
  0.5570399828887425  0.1091977503440928  0.0566454573816057
  0.5574578239816615  0.2218308642584385  0.0585726452271383
  0.4575696783054398  0.2792593685049662  0.0561309155332410
  0.6556062259441113  0.0494756544514083  0.0566216029349583
  0.7547280580966812  0.1078039646877134  0.0548596387778165
  0.7555124257604791  0.2207687368564516  0.0554823942104308
  0.6573529349487051  0.2798286689976431  0.0603342726254153
  0.8546525645474220  0.0523578414557200  0.0524993675258604
  0.9548736243149104  0.1091277124598269  0.0506117349594591
  0.9553836836553320  0.2208023564727537  0.0501497508641030
  0.8554023021471465  0.2768358232627829  0.0521145384386584
  0.0565594934118084  0.3870663166945599  0.0481519434226838
  0.1562467304469708  0.4429952899317784  0.0480104042154638
  0.1558855505762324  0.5539575184165624  0.0474541364142066
  0.0570351001552448  0.6098760269580350  0.0473018767876434
  0.2566504858032158  0.3887986856648505  0.0495715080556593
  0.3564813215640363  0.4453976519827841  0.0522677765902477
  0.3549766495110858  0.5583796460293372  0.0533442894788162
  0.2545796723057567  0.6109987543802939  0.0491218990001469
  0.7584088552951693  0.4485480344778038  0.0578000921847987
  0.8566483375522861  0.3890369430995521  0.0516259423528535
  0.9572497076568079  0.4426958197867793  0.0490053183213763
  0.9578904506840269  0.5538183501913366  0.0490415088945030
  0.8591395498895527  0.6084833498602574  0.0530480722043230
  0.0566924205577193  0.7207611103535422  0.0475494335003596
  0.1547983335364452  0.7775813367615209  0.0475966065288992
  0.1554027289582033  0.8885966113082455  0.0483358665465655
  0.0555150970111195  0.9438031909138941  0.0490889164104944
  0.2534188038886511  0.7217432236538900  0.0487520340099252
  0.3520372647869032  0.7770970452950841  0.0508491496060751
  0.3545272478092190  0.8880275075945048  0.0508526950501840
  0.2554063541748797  0.9441023439197586  0.0494513087591155
  0.4490049103641243  0.7194546162687949  0.0563929934398821
  0.5526223070364061  0.8805122831622454  0.0567755696208496
  0.4555114104482956  0.9414239874257160  0.0536890703149443
  0.7565241028560703  0.8797445418782095  0.0559318556739193
  0.6548465203093824  0.9352610656003447  0.0572015586041238
  0.8596493452488055  0.7206538446911717  0.0525776262160963
  0.9574855958841659  0.7762626768129987  0.0494426270021256
  0.9562589681202517  0.8873349118231614  0.0502276236014930
  0.8549651696432692  0.9401181092982281  0.0527280274468377
  0.4560135562856199  0.3906414900426874  0.0571179895420546
  0.6601413332844920  0.3911131669289803  0.0657177674188393
  0.4502760054782278  0.6125450335796313  0.0597394201583606
  0.7613340255788639  0.5586266521836822  0.0589968093533983
  0.5465934655959048  0.7720230617180812  0.0590077378694259
  0.7614508916880293  0.7711229571848293  0.0569678684475303
  0.6537474316433106  0.6699303380454541  0.0740852319066643
  0.5559941621219268  0.4859936028711141  0.0871872959117464
  0.6065900079345784  0.5416546224989774  0.1673036040885790
  0.6383309793089146  0.6449871888238770  0.1595400280971108
 
  0.00000000E+00  0.00000000E+00  0.00000000E+00
  0.00000000E+00  0.00000000E+00  0.00000000E+00
  0.00000000E+00  0.00000000E+00  0.00000000E+00
  0.00000000E+00  0.00000000E+00  0.00000000E+00
  0.00000000E+00  0.00000000E+00  0.00000000E+00
  0.00000000E+00  0.00000000E+00  0.00000000E+00
  0.00000000E+00  0.00000000E+00  0.00000000E+00
  0.00000000E+00  0.00000000E+00  0.00000000E+00
  0.00000000E+00  0.00000000E+00  0.00000000E+00
  0.00000000E+00  0.00000000E+00  0.00000000E+00
  0.00000000E+00  0.00000000E+00  0.00000000E+00
  0.00000000E+00  0.00000000E+00  0.00000000E+00
  0.00000000E+00  0.00000000E+00  0.00000000E+00
  0.00000000E+00  0.00000000E+00  0.00000000E+00
  0.00000000E+00  0.00000000E+00  0.00000000E+00
  0.00000000E+00  0.00000000E+00  0.00000000E+00
  0.00000000E+00  0.00000000E+00  0.00000000E+00
  0.00000000E+00  0.00000000E+00  0.00000000E+00
  0.00000000E+00  0.00000000E+00  0.00000000E+00
  0.00000000E+00  0.00000000E+00  0.00000000E+00
  0.00000000E+00  0.00000000E+00  0.00000000E+00
  0.00000000E+00  0.00000000E+00  0.00000000E+00
  0.00000000E+00  0.00000000E+00  0.00000000E+00
  0.00000000E+00  0.00000000E+00  0.00000000E+00
  0.00000000E+00  0.00000000E+00  0.00000000E+00
  0.00000000E+00  0.00000000E+00  0.00000000E+00
  0.00000000E+00  0.00000000E+00  0.00000000E+00
  0.00000000E+00  0.00000000E+00  0.00000000E+00
  0.00000000E+00  0.00000000E+00  0.00000000E+00
  0.00000000E+00  0.00000000E+00  0.00000000E+00
  0.00000000E+00  0.00000000E+00  0.00000000E+00
  0.00000000E+00  0.00000000E+00  0.00000000E+00
  0.00000000E+00  0.00000000E+00  0.00000000E+00
  0.00000000E+00  0.00000000E+00  0.00000000E+00
  0.00000000E+00  0.00000000E+00  0.00000000E+00
  0.00000000E+00  0.00000000E+00  0.00000000E+00
  0.00000000E+00  0.00000000E+00  0.00000000E+00
  0.00000000E+00  0.00000000E+00  0.00000000E+00
  0.00000000E+00  0.00000000E+00  0.00000000E+00
  0.00000000E+00  0.00000000E+00  0.00000000E+00
  0.00000000E+00  0.00000000E+00  0.00000000E+00
  0.00000000E+00  0.00000000E+00  0.00000000E+00
  0.00000000E+00  0.00000000E+00  0.00000000E+00
  0.00000000E+00  0.00000000E+00  0.00000000E+00
  0.00000000E+00  0.00000000E+00  0.00000000E+00
  0.00000000E+00  0.00000000E+00  0.00000000E+00
  0.00000000E+00  0.00000000E+00  0.00000000E+00
  0.00000000E+00  0.00000000E+00  0.00000000E+00
  0.00000000E+00  0.00000000E+00  0.00000000E+00
  0.00000000E+00  0.00000000E+00  0.00000000E+00
  0.00000000E+00  0.00000000E+00  0.00000000E+00
  0.00000000E+00  0.00000000E+00  0.00000000E+00
  0.00000000E+00  0.00000000E+00  0.00000000E+00
  0.00000000E+00  0.00000000E+00  0.00000000E+00
  0.00000000E+00  0.00000000E+00  0.00000000E+00
  0.00000000E+00  0.00000000E+00  0.00000000E+00
  0.00000000E+00  0.00000000E+00  0.00000000E+00
  0.00000000E+00  0.00000000E+00  0.00000000E+00
  0.00000000E+00  0.00000000E+00  0.00000000E+00
  0.00000000E+00  0.00000000E+00  0.00000000E+00
