CONTCAR\(2)\(3)                         
   1.00000000000000     
    12.3312997818000003    0.0000000000000000    0.0000000000000000
     0.0001127485000000   12.8291997905000006    0.0000000000000000
     0.0005937186000000    0.0011528207000000   19.9943999824000009
   C    N    Fe   Ni   O    H 
    55     1     1     1     2     2
Direct
  0.0566594139924725  0.0524369745362212  0.0460243237137286
  0.1569583543934791  0.1077585078116456  0.0447011774944959
  0.1569337377187131  0.2186893151082854  0.0426730187237198
  0.0566925987757835  0.2741711235314005  0.0433985986853114
  0.2575972789679536  0.0530154921414812  0.0464476907183277
  0.3578109558518738  0.1096558014051319  0.0491274292817679
  0.3580489612326317  0.2215359223691694  0.0467269903449979
  0.2566065698926602  0.2745727368194662  0.0417574405920890
  0.4573975627203121  0.0536753454341977  0.0547554030529989
  0.5570321145187067  0.1114241979294267  0.0593245937512458
  0.5573537622694805  0.2237722392338296  0.0593783862939271
  0.4577808697563103  0.2807776947450618  0.0512039414113530
  0.6562986337677301  0.0524119014751624  0.0615677505188433
  0.7565230588236944  0.1084590526629822  0.0580398514698218
  0.7577784922509638  0.2199411921115890  0.0586810286590719
  0.6595647131903670  0.2797234440432529  0.0640341037873263
  0.8563006088770631  0.0525349134388895  0.0533227988504859
  0.9564697809289765  0.1077362336847034  0.0487103243180270
  0.9571118601727535  0.2185780910128884  0.0479279391894970
  0.8576762129309324  0.2743941992016495  0.0532390987048683
  0.0558369172471923  0.3852988742172479  0.0415703797653843
  0.1544156034546610  0.4412633907575265  0.0382611539318919
  0.1538673402867573  0.5528571207881321  0.0379573125171024
  0.0545176429383009  0.6082709592077032  0.0404680911302910
  0.2541161161730726  0.3853021874863256  0.0387232614502356
  0.3520055218801852  0.4417194009253202  0.0398988299825265
  0.3517890051346252  0.5533701837605735  0.0408750292648520
  0.2531565399826967  0.6092728171036126  0.0388783450931973
  0.7595394395164485  0.4410326107597703  0.0647508575585476
  0.8580936486061319  0.3853331414296314  0.0536367946484336
  0.9563057687702583  0.4410779856743072  0.0459572738703051
  0.9552221509217268  0.5518131965233527  0.0450834337363486
  0.8551476795499054  0.6059405786258329  0.0535291779775263
  0.0558675763760399  0.7196963275762391  0.0416209763610254
  0.1556207161625901  0.7754637886666631  0.0416596677290222
  0.1564440860690123  0.8865194764600314  0.0439481475123752
  0.0562317340297613  0.9416718617972170  0.0454560414894036
  0.2554503133042508  0.7198531212020812  0.0416508768821161
  0.3562898932386713  0.7733384832439734  0.0476548227833878
  0.3571179152088645  0.8851217079223432  0.0499634095980545
  0.2571650165407325  0.9415628442497167  0.0463699525662436
  0.4558125170696781  0.7139261505106178  0.0552388689277866
  0.5554895542169209  0.8828956736658887  0.0646379071634286
  0.4568944584998232  0.9412702880630476  0.0560419118320319
  0.7566322859115153  0.8844659062462015  0.0613240319194294
  0.6559281244147372  0.9409603206133041  0.0646689448999025
  0.8570478713818817  0.7192480515762683  0.0525206311150887
  0.9560867687870852  0.7751146267034583  0.0458391412256755
  0.9559812039382933  0.8861528485925277  0.0477862390638771
  0.8560559638699203  0.9411718425135920  0.0535484646251673
  0.4536739149685581  0.3923529521482952  0.0466081112665159
  0.7575682379167474  0.5525577660395210  0.0675498916476039
  0.5526595856535411  0.7719935108231039  0.0702000157620004
  0.7602142522951435  0.7743132869535222  0.0639669750180232
  0.4526063077316062  0.6017883055950217  0.0506525526214148
  0.6635748378266445  0.3854995175816078  0.0705675597514478
  0.6620188318828593  0.6814623090626512  0.1106532463385845
  0.5572333035228622  0.4922370746033468  0.0703331512790946
  0.5792942470743729  0.5703290797530377  0.1554376114809286
  0.7293074317787513  0.7185257851899144  0.1904210059009519
  0.7106417294733370  0.6655186102038845  0.2236067661018356
  0.5068524403610053  0.5944316574871293  0.1676012496490368
 
  0.00000000E+00  0.00000000E+00  0.00000000E+00
  0.00000000E+00  0.00000000E+00  0.00000000E+00
  0.00000000E+00  0.00000000E+00  0.00000000E+00
  0.00000000E+00  0.00000000E+00  0.00000000E+00
  0.00000000E+00  0.00000000E+00  0.00000000E+00
  0.00000000E+00  0.00000000E+00  0.00000000E+00
  0.00000000E+00  0.00000000E+00  0.00000000E+00
  0.00000000E+00  0.00000000E+00  0.00000000E+00
  0.00000000E+00  0.00000000E+00  0.00000000E+00
  0.00000000E+00  0.00000000E+00  0.00000000E+00
  0.00000000E+00  0.00000000E+00  0.00000000E+00
  0.00000000E+00  0.00000000E+00  0.00000000E+00
  0.00000000E+00  0.00000000E+00  0.00000000E+00
  0.00000000E+00  0.00000000E+00  0.00000000E+00
  0.00000000E+00  0.00000000E+00  0.00000000E+00
  0.00000000E+00  0.00000000E+00  0.00000000E+00
  0.00000000E+00  0.00000000E+00  0.00000000E+00
  0.00000000E+00  0.00000000E+00  0.00000000E+00
  0.00000000E+00  0.00000000E+00  0.00000000E+00
  0.00000000E+00  0.00000000E+00  0.00000000E+00
  0.00000000E+00  0.00000000E+00  0.00000000E+00
  0.00000000E+00  0.00000000E+00  0.00000000E+00
  0.00000000E+00  0.00000000E+00  0.00000000E+00
  0.00000000E+00  0.00000000E+00  0.00000000E+00
  0.00000000E+00  0.00000000E+00  0.00000000E+00
  0.00000000E+00  0.00000000E+00  0.00000000E+00
  0.00000000E+00  0.00000000E+00  0.00000000E+00
  0.00000000E+00  0.00000000E+00  0.00000000E+00
  0.00000000E+00  0.00000000E+00  0.00000000E+00
  0.00000000E+00  0.00000000E+00  0.00000000E+00
  0.00000000E+00  0.00000000E+00  0.00000000E+00
  0.00000000E+00  0.00000000E+00  0.00000000E+00
  0.00000000E+00  0.00000000E+00  0.00000000E+00
  0.00000000E+00  0.00000000E+00  0.00000000E+00
  0.00000000E+00  0.00000000E+00  0.00000000E+00
  0.00000000E+00  0.00000000E+00  0.00000000E+00
  0.00000000E+00  0.00000000E+00  0.00000000E+00
  0.00000000E+00  0.00000000E+00  0.00000000E+00
  0.00000000E+00  0.00000000E+00  0.00000000E+00
  0.00000000E+00  0.00000000E+00  0.00000000E+00
  0.00000000E+00  0.00000000E+00  0.00000000E+00
  0.00000000E+00  0.00000000E+00  0.00000000E+00
  0.00000000E+00  0.00000000E+00  0.00000000E+00
  0.00000000E+00  0.00000000E+00  0.00000000E+00
  0.00000000E+00  0.00000000E+00  0.00000000E+00
  0.00000000E+00  0.00000000E+00  0.00000000E+00
  0.00000000E+00  0.00000000E+00  0.00000000E+00
  0.00000000E+00  0.00000000E+00  0.00000000E+00
  0.00000000E+00  0.00000000E+00  0.00000000E+00
  0.00000000E+00  0.00000000E+00  0.00000000E+00
  0.00000000E+00  0.00000000E+00  0.00000000E+00
  0.00000000E+00  0.00000000E+00  0.00000000E+00
  0.00000000E+00  0.00000000E+00  0.00000000E+00
  0.00000000E+00  0.00000000E+00  0.00000000E+00
  0.00000000E+00  0.00000000E+00  0.00000000E+00
  0.00000000E+00  0.00000000E+00  0.00000000E+00
  0.00000000E+00  0.00000000E+00  0.00000000E+00
  0.00000000E+00  0.00000000E+00  0.00000000E+00
  0.00000000E+00  0.00000000E+00  0.00000000E+00
  0.00000000E+00  0.00000000E+00  0.00000000E+00
  0.00000000E+00  0.00000000E+00  0.00000000E+00
  0.00000000E+00  0.00000000E+00  0.00000000E+00
