CONTCAR                                 
   1.00000000000000     
    12.3312997818000003    0.0000000000000000    0.0000000000000000
     0.0001127485000000   12.8291997905000006    0.0000000000000000
     0.0005937186000000    0.0011528207000000   19.9943999824000009
   C    N    Fe   Ni
    55     1     1     1
Direct
  0.0559094377098600  0.0545760717058345  0.0557874159526218
  0.1559053693579172  0.1109062658424647  0.0558070711476285
  0.1570892287512158  0.2218092861666584  0.0557899253856802
  0.0571015414810927  0.2762663535352328  0.0557666193173709
  0.2558053682019703  0.0563446322560337  0.0558103166523232
  0.3561328727111563  0.1121778172727813  0.0557796137693826
  0.3575305713089593  0.2237870732288256  0.0557548342908275
  0.2572827978295444  0.2781052838928129  0.0557728805812961
  0.4553052510404946  0.0557845090953913  0.0557517752334235
  0.5559096522388051  0.1106768551303021  0.0557108930699686
  0.5567993948209647  0.2214929211662157  0.0556986155119364
  0.4580619024997599  0.2808583999971572  0.0557035485749081
  0.6552823333756765  0.0520813958622624  0.0556645434889611
  0.7559979040091263  0.1079361610968651  0.0556723141447238
  0.7574875487902655  0.2191716519553381  0.0556754543382805
  0.6580943559857719  0.2760897056755172  0.0556649945532761
  0.8555174438501426  0.0521587468798703  0.0556905756195502
  0.9557464274862995  0.1088350084379969  0.0557398372229379
  0.9570255053615648  0.2200192133982556  0.0557353366758856
  0.8573856213168559  0.2752835271391029  0.0556928148807310
  0.0581319188510478  0.3874742552977669  0.0557493790946372
  0.1573918989070093  0.4437579384941678  0.0557664508486112
  0.1573744849038980  0.5551308394987311  0.0557776062238552
  0.0571057629352540  0.6097349633398611  0.0557698508853305
  0.2576303140145925  0.3892082599079308  0.0557594972031017
  0.3576075535760537  0.4453903752143682  0.0557144121469340
  0.3592270529256876  0.5590025083977110  0.0557027196865765
  0.2571045260927978  0.6118338449095658  0.0557677424842123
  0.7591207643620805  0.4427916262978778  0.0556596271759759
  0.8591090665163845  0.3865251059550010  0.0556832872017979
  0.9582584864524276  0.4422797518060853  0.0557096567433634
  0.9573046261538845  0.5531604921436403  0.0557121385996244
  0.8568360391521381  0.6075740662612048  0.0556705783282404
  0.0563325168470599  0.7211278098182374  0.0557878381204807
  0.1547306038626619  0.7776498461624212  0.0558178277209378
  0.1547640356008998  0.8888116553813080  0.0558241243865077
  0.0549256265376405  0.9436168506587314  0.0557950131252905
  0.2543065362553551  0.7225174993441634  0.0557934779982142
  0.3521354363793038  0.7793919403457615  0.0557550099759237
  0.3534236239634914  0.8900469822133783  0.0557771775114107
  0.2542940399123790  0.9453634763454392  0.0558205918882310
  0.4513266029721105  0.7245287020092941  0.0556692006617259
  0.5520042134357718  0.8867309625559741  0.0556556935204536
  0.4535851840000144  0.9449416872436013  0.0557347489093271
  0.7540432360303998  0.8824558495418068  0.0556267968395659
  0.6543387324026751  0.9405675160514675  0.0556325722824897
  0.8580096551481957  0.7198604095105120  0.0556667767937675
  0.9565170588282234  0.7761991087534883  0.0557399046139338
  0.9552697194930837  0.8871158820748283  0.0557451998233513
  0.8544061608075638  0.9405672131500233  0.0556754911595824
  0.4573321986907534  0.3923282947400051  0.0556727851920446
  0.4597137356351081  0.6137107323220078  0.0556453944998187
  0.6616143574517325  0.3846135192358515  0.0556385439107464
  0.7548700506438042  0.5552836660349220  0.0556566883672009
  0.7570340665803738  0.7711510974706951  0.0556169513011367
  0.5470075758662828  0.7812885036442903  0.0556205305842569
  0.6424338760869408  0.6687073878779891  0.0556149028283515
  0.5693780675974695  0.4917984592549701  0.0556244339512265
 
  0.00000000E+00  0.00000000E+00  0.00000000E+00
  0.00000000E+00  0.00000000E+00  0.00000000E+00
  0.00000000E+00  0.00000000E+00  0.00000000E+00
  0.00000000E+00  0.00000000E+00  0.00000000E+00
  0.00000000E+00  0.00000000E+00  0.00000000E+00
  0.00000000E+00  0.00000000E+00  0.00000000E+00
  0.00000000E+00  0.00000000E+00  0.00000000E+00
  0.00000000E+00  0.00000000E+00  0.00000000E+00
  0.00000000E+00  0.00000000E+00  0.00000000E+00
  0.00000000E+00  0.00000000E+00  0.00000000E+00
  0.00000000E+00  0.00000000E+00  0.00000000E+00
  0.00000000E+00  0.00000000E+00  0.00000000E+00
  0.00000000E+00  0.00000000E+00  0.00000000E+00
  0.00000000E+00  0.00000000E+00  0.00000000E+00
  0.00000000E+00  0.00000000E+00  0.00000000E+00
  0.00000000E+00  0.00000000E+00  0.00000000E+00
  0.00000000E+00  0.00000000E+00  0.00000000E+00
  0.00000000E+00  0.00000000E+00  0.00000000E+00
  0.00000000E+00  0.00000000E+00  0.00000000E+00
  0.00000000E+00  0.00000000E+00  0.00000000E+00
  0.00000000E+00  0.00000000E+00  0.00000000E+00
  0.00000000E+00  0.00000000E+00  0.00000000E+00
  0.00000000E+00  0.00000000E+00  0.00000000E+00
  0.00000000E+00  0.00000000E+00  0.00000000E+00
  0.00000000E+00  0.00000000E+00  0.00000000E+00
  0.00000000E+00  0.00000000E+00  0.00000000E+00
  0.00000000E+00  0.00000000E+00  0.00000000E+00
  0.00000000E+00  0.00000000E+00  0.00000000E+00
  0.00000000E+00  0.00000000E+00  0.00000000E+00
  0.00000000E+00  0.00000000E+00  0.00000000E+00
  0.00000000E+00  0.00000000E+00  0.00000000E+00
  0.00000000E+00  0.00000000E+00  0.00000000E+00
  0.00000000E+00  0.00000000E+00  0.00000000E+00
  0.00000000E+00  0.00000000E+00  0.00000000E+00
  0.00000000E+00  0.00000000E+00  0.00000000E+00
  0.00000000E+00  0.00000000E+00  0.00000000E+00
  0.00000000E+00  0.00000000E+00  0.00000000E+00
  0.00000000E+00  0.00000000E+00  0.00000000E+00
  0.00000000E+00  0.00000000E+00  0.00000000E+00
  0.00000000E+00  0.00000000E+00  0.00000000E+00
  0.00000000E+00  0.00000000E+00  0.00000000E+00
  0.00000000E+00  0.00000000E+00  0.00000000E+00
  0.00000000E+00  0.00000000E+00  0.00000000E+00
  0.00000000E+00  0.00000000E+00  0.00000000E+00
  0.00000000E+00  0.00000000E+00  0.00000000E+00
  0.00000000E+00  0.00000000E+00  0.00000000E+00
  0.00000000E+00  0.00000000E+00  0.00000000E+00
  0.00000000E+00  0.00000000E+00  0.00000000E+00
  0.00000000E+00  0.00000000E+00  0.00000000E+00
  0.00000000E+00  0.00000000E+00  0.00000000E+00
  0.00000000E+00  0.00000000E+00  0.00000000E+00
  0.00000000E+00  0.00000000E+00  0.00000000E+00
  0.00000000E+00  0.00000000E+00  0.00000000E+00
  0.00000000E+00  0.00000000E+00  0.00000000E+00
  0.00000000E+00  0.00000000E+00  0.00000000E+00
  0.00000000E+00  0.00000000E+00  0.00000000E+00
  0.00000000E+00  0.00000000E+00  0.00000000E+00
  0.00000000E+00  0.00000000E+00  0.00000000E+00
