4                                       
   1.00000000000000     
    12.3312997818000003    0.0000000000000000    0.0000000000000000
     0.0001127485000000   12.8291997905000006    0.0000000000000000
     0.0005937186000000    0.0011528207000000   19.9943999824000009
   C    N    Fe   Ni   O    H 
    55     1     1     1     1     1
Direct
  0.0564046345024675  0.0548963185102649  0.0503485266875950
  0.1566018136122968  0.1101069808151797  0.0507584758564527
  0.1565844160089315  0.2209977867399782  0.0498796076109497
  0.0563889215139467  0.2762448541578305  0.0484940959228239
  0.2569201477928462  0.0550459836081106  0.0527613398126909
  0.3572394711065748  0.1106936602383207  0.0561535645503699
  0.3574971074145478  0.2223900079625920  0.0562056160306238
  0.2567221753249488  0.2763005627753558  0.0516048197653056
  0.4567231415109050  0.0542649638767969  0.0599027425620675
  0.5571052453575520  0.1100316519221741  0.0627898627778287
  0.5571115585833111  0.2217785792040941  0.0643653145274653
  0.4573576911900671  0.2798586017403725  0.0614312519605610
  0.6572243173799248  0.0518769752809663  0.0621164074828532
  0.7563586933611183  0.1092194873242897  0.0585151512212480
  0.7565777453939945  0.2212959398820882  0.0588021279973077
  0.6574233813873253  0.2788284897984743  0.0648880780405491
  0.8558755189506638  0.0534899580353622  0.0546668330564864
  0.9559922727542230  0.1095117511433893  0.0516372675386286
  0.9561838412808079  0.2208730797084550  0.0507467679026670
  0.8564364906873027  0.2767944680553800  0.0535358330964548
  0.0565400517671324  0.3875096884282827  0.0466975387759813
  0.1559445968599734  0.4428557678714017  0.0466529930679729
  0.1559233994229077  0.5543436801479548  0.0458604916958986
  0.0567093412794334  0.6099608642499901  0.0450760529019425
  0.2558257738760439  0.3870959454933138  0.0498371842201008
  0.3546729197569423  0.4427394222934017  0.0541344593768842
  0.3545767124149798  0.5551449089726178  0.0534053873947630
  0.2551629459994595  0.6104357859737528  0.0482933447920200
  0.7579140154231947  0.4460153166957638  0.0581436486543840
  0.8571065164948479  0.3883647855265138  0.0516360420513582
  0.9566873288445165  0.4434724388882124  0.0470740906420496
  0.9572221318870542  0.5546040189504771  0.0460556718302094
  0.8571735874250370  0.6101401928910446  0.0494204585184923
  0.0566994841846048  0.7213652273391086  0.0459646718012375
  0.1556213630835056  0.7772708137355757  0.0470714399822430
  0.1563571094065019  0.8884879863102738  0.0488823219498519
  0.0565872939508252  0.9440488759679863  0.0494605664394511
  0.2549653230440996  0.7214582268622414  0.0485598640788621
  0.3539917148915416  0.7763092017004474  0.0535867045117312
  0.3559997729540840  0.8875440744526983  0.0551117327486842
  0.2565461757823261  0.9437933185976617  0.0518236959762639
  0.4521491471711819  0.7186066846406383  0.0622400549283149
  0.5554221059601433  0.8844045464944116  0.0659606710932532
  0.4562441190210493  0.9426282992621619  0.0603283912915025
  0.7576948318846732  0.8827654125903475  0.0595446303256561
  0.6570838415378755  0.9394405933155855  0.0636459669446643
  0.8583136022044733  0.7232290460311477  0.0513540716138519
  0.9574845691532450  0.7776978897286022  0.0484771961334197
  0.9570287364222161  0.8884188338406712  0.0505173010818701
  0.8561612357579231  0.9416341344780790  0.0545856228019588
  0.4552164501865171  0.3913262942060074  0.0622607579960585
  0.4538316479623961  0.6069815710108397  0.0630843687869332
  0.6597724879019122  0.3891597050233970  0.0696578371021343
  0.7581296745737139  0.5577104434153277  0.0567938367698233
  0.5499263848622969  0.7747822857007162  0.0725141643355551
  0.7613023329618260  0.7739686964016189  0.0592264277215485
  0.6550066487325109  0.6704197908832519  0.0872063162946482
  0.5586286306510326  0.4916880785656141  0.0855918891978516
  0.6170968960169008  0.5861958331066800  0.1603638125274274
  0.5537704691753552  0.6151213191767024  0.1831646362422157
 
  0.00000000E+00  0.00000000E+00  0.00000000E+00
  0.00000000E+00  0.00000000E+00  0.00000000E+00
  0.00000000E+00  0.00000000E+00  0.00000000E+00
  0.00000000E+00  0.00000000E+00  0.00000000E+00
  0.00000000E+00  0.00000000E+00  0.00000000E+00
  0.00000000E+00  0.00000000E+00  0.00000000E+00
  0.00000000E+00  0.00000000E+00  0.00000000E+00
  0.00000000E+00  0.00000000E+00  0.00000000E+00
  0.00000000E+00  0.00000000E+00  0.00000000E+00
  0.00000000E+00  0.00000000E+00  0.00000000E+00
  0.00000000E+00  0.00000000E+00  0.00000000E+00
  0.00000000E+00  0.00000000E+00  0.00000000E+00
  0.00000000E+00  0.00000000E+00  0.00000000E+00
  0.00000000E+00  0.00000000E+00  0.00000000E+00
  0.00000000E+00  0.00000000E+00  0.00000000E+00
  0.00000000E+00  0.00000000E+00  0.00000000E+00
  0.00000000E+00  0.00000000E+00  0.00000000E+00
  0.00000000E+00  0.00000000E+00  0.00000000E+00
  0.00000000E+00  0.00000000E+00  0.00000000E+00
  0.00000000E+00  0.00000000E+00  0.00000000E+00
  0.00000000E+00  0.00000000E+00  0.00000000E+00
  0.00000000E+00  0.00000000E+00  0.00000000E+00
  0.00000000E+00  0.00000000E+00  0.00000000E+00
  0.00000000E+00  0.00000000E+00  0.00000000E+00
  0.00000000E+00  0.00000000E+00  0.00000000E+00
  0.00000000E+00  0.00000000E+00  0.00000000E+00
  0.00000000E+00  0.00000000E+00  0.00000000E+00
  0.00000000E+00  0.00000000E+00  0.00000000E+00
  0.00000000E+00  0.00000000E+00  0.00000000E+00
  0.00000000E+00  0.00000000E+00  0.00000000E+00
  0.00000000E+00  0.00000000E+00  0.00000000E+00
  0.00000000E+00  0.00000000E+00  0.00000000E+00
  0.00000000E+00  0.00000000E+00  0.00000000E+00
  0.00000000E+00  0.00000000E+00  0.00000000E+00
  0.00000000E+00  0.00000000E+00  0.00000000E+00
  0.00000000E+00  0.00000000E+00  0.00000000E+00
  0.00000000E+00  0.00000000E+00  0.00000000E+00
  0.00000000E+00  0.00000000E+00  0.00000000E+00
  0.00000000E+00  0.00000000E+00  0.00000000E+00
  0.00000000E+00  0.00000000E+00  0.00000000E+00
  0.00000000E+00  0.00000000E+00  0.00000000E+00
  0.00000000E+00  0.00000000E+00  0.00000000E+00
  0.00000000E+00  0.00000000E+00  0.00000000E+00
  0.00000000E+00  0.00000000E+00  0.00000000E+00
  0.00000000E+00  0.00000000E+00  0.00000000E+00
  0.00000000E+00  0.00000000E+00  0.00000000E+00
  0.00000000E+00  0.00000000E+00  0.00000000E+00
  0.00000000E+00  0.00000000E+00  0.00000000E+00
  0.00000000E+00  0.00000000E+00  0.00000000E+00
  0.00000000E+00  0.00000000E+00  0.00000000E+00
  0.00000000E+00  0.00000000E+00  0.00000000E+00
  0.00000000E+00  0.00000000E+00  0.00000000E+00
  0.00000000E+00  0.00000000E+00  0.00000000E+00
  0.00000000E+00  0.00000000E+00  0.00000000E+00
  0.00000000E+00  0.00000000E+00  0.00000000E+00
  0.00000000E+00  0.00000000E+00  0.00000000E+00
  0.00000000E+00  0.00000000E+00  0.00000000E+00
  0.00000000E+00  0.00000000E+00  0.00000000E+00
  0.00000000E+00  0.00000000E+00  0.00000000E+00
  0.00000000E+00  0.00000000E+00  0.00000000E+00
