an6                                     
   1.00000000000000     
    12.3312997818000003    0.0000000000000000    0.0000000000000000
     0.0001127485000000   12.8291997905000006    0.0000000000000000
     0.0005937186000000    0.0011528207000000   19.9943999824000009
   C    N    Fe   Ni
    52     4     1     1
Direct
  0.0559722616523807  0.0544990391285963  0.0557731025037335
  0.1562372526994049  0.1104915845112910  0.0557812595336937
  0.1565959419371086  0.2211464586870419  0.0557671040616438
  0.0564507126921520  0.2761456268641782  0.0557501584483289
  0.2568613503611270  0.0559575588574824  0.0557924936092760
  0.3572785286394544  0.1117816778052079  0.0557634897089234
  0.3575346878248489  0.2235965056023284  0.0557395572641229
  0.2564922016449352  0.2771911370703865  0.0557614984569363
  0.4574674996537567  0.0558260591255162  0.0557348686286780
  0.5580894009245159  0.1124625793907057  0.0556893814989150
  0.5588080225355203  0.2258390936562087  0.0556704800072244
  0.4574325618766394  0.2824972380389452  0.0556817554951784
  0.6562278142628133  0.0516852265741437  0.0556706423866461
  0.7554100556638759  0.1090357816514440  0.0556948944226091
  0.7567732133122058  0.2217144089730226  0.0557022225505783
  0.6598672356957771  0.2822750286837299  0.0556620303396835
  0.8553844968009358  0.0530417666612141  0.0557110879663668
  0.9557877456249491  0.1089395797695097  0.0557421094039189
  0.9568368186947853  0.2203019902622085  0.0557386801077745
  0.8574647738996017  0.2761592234845736  0.0557223124521765
  0.0566877064751498  0.3875179031688943  0.0557567287710156
  0.1552842140438203  0.4437521003661956  0.0557683569614839
  0.1552264054849319  0.5548882171409157  0.0557728671640515
  0.0562513654477617  0.6105854300964759  0.0557680680381461
  0.2545843124293767  0.3882481751313046  0.0557596252225308
  0.3525539797778253  0.4445632026865098  0.0557211844291880
  0.3536741542446580  0.5571697120595002  0.0557247840967018
  0.2541710686647695  0.6116120670452937  0.0557658759090723
  0.7612272087192745  0.4442167854411261  0.0556649039839736
  0.8595357556114738  0.3872821119176139  0.0557099076371820
  0.9579968791788698  0.4431354846752064  0.0557311288566803
  0.9571055911348825  0.5544720752365417  0.0557319564013333
  0.8573433066286029  0.6080301021536414  0.0556731338952951
  0.0563490395161621  0.7214019244916151  0.0557819590902116
  0.1549515795183988  0.7780811147005416  0.0558021086065239
  0.1557352249433741  0.8888146258062292  0.0558115318658584
  0.0556831007097765  0.9435805949673102  0.0557856315309758
  0.2537152023275441  0.7224311912327209  0.0557777748540419
  0.3523743519682028  0.7779482935598209  0.0557478153137069
  0.3549287966255406  0.8890682566312162  0.0557693481600274
  0.2557102078698467  0.9448243255721953  0.0558065201239229
  0.4505737212194571  0.7209437879397388  0.0556771493446378
  0.5534146782115293  0.8829955943816792  0.0556581557858351
  0.4557596180565682  0.9439026146199120  0.0557297509606679
  0.7570778629239814  0.8811082534151098  0.0556429179740665
  0.6556196694049877  0.9375539246723471  0.0556431151227075
  0.8579595915955534  0.7208524534268264  0.0556727440153231
  0.9570604988395265  0.7761219267461588  0.0557419028578263
  0.9563058690622284  0.8874393129169708  0.0557438828185737
  0.8555692983667584  0.9412942100721374  0.0556981672215800
  0.4524953459698760  0.3931142324548241  0.0556660064378603
  0.4547497410472247  0.6092760743696833  0.0556723060087463
  0.6652294932909596  0.3915975880832693  0.0556549263853621
  0.7596069522889295  0.5531827982580696  0.0556320033394863
  0.5471636437900678  0.7759581449943824  0.0556195344877256
  0.7611859849039999  0.7732390215295393  0.0556063219668512
  0.6460661150872117  0.6609242964059198  0.0556143636489282
  0.5614299312241232  0.4968244548348092  0.0556364238654567
 
  0.00000000E+00  0.00000000E+00  0.00000000E+00
  0.00000000E+00  0.00000000E+00  0.00000000E+00
  0.00000000E+00  0.00000000E+00  0.00000000E+00
  0.00000000E+00  0.00000000E+00  0.00000000E+00
  0.00000000E+00  0.00000000E+00  0.00000000E+00
  0.00000000E+00  0.00000000E+00  0.00000000E+00
  0.00000000E+00  0.00000000E+00  0.00000000E+00
  0.00000000E+00  0.00000000E+00  0.00000000E+00
  0.00000000E+00  0.00000000E+00  0.00000000E+00
  0.00000000E+00  0.00000000E+00  0.00000000E+00
  0.00000000E+00  0.00000000E+00  0.00000000E+00
  0.00000000E+00  0.00000000E+00  0.00000000E+00
  0.00000000E+00  0.00000000E+00  0.00000000E+00
  0.00000000E+00  0.00000000E+00  0.00000000E+00
  0.00000000E+00  0.00000000E+00  0.00000000E+00
  0.00000000E+00  0.00000000E+00  0.00000000E+00
  0.00000000E+00  0.00000000E+00  0.00000000E+00
  0.00000000E+00  0.00000000E+00  0.00000000E+00
  0.00000000E+00  0.00000000E+00  0.00000000E+00
  0.00000000E+00  0.00000000E+00  0.00000000E+00
  0.00000000E+00  0.00000000E+00  0.00000000E+00
  0.00000000E+00  0.00000000E+00  0.00000000E+00
  0.00000000E+00  0.00000000E+00  0.00000000E+00
  0.00000000E+00  0.00000000E+00  0.00000000E+00
  0.00000000E+00  0.00000000E+00  0.00000000E+00
  0.00000000E+00  0.00000000E+00  0.00000000E+00
  0.00000000E+00  0.00000000E+00  0.00000000E+00
  0.00000000E+00  0.00000000E+00  0.00000000E+00
  0.00000000E+00  0.00000000E+00  0.00000000E+00
  0.00000000E+00  0.00000000E+00  0.00000000E+00
  0.00000000E+00  0.00000000E+00  0.00000000E+00
  0.00000000E+00  0.00000000E+00  0.00000000E+00
  0.00000000E+00  0.00000000E+00  0.00000000E+00
  0.00000000E+00  0.00000000E+00  0.00000000E+00
  0.00000000E+00  0.00000000E+00  0.00000000E+00
  0.00000000E+00  0.00000000E+00  0.00000000E+00
  0.00000000E+00  0.00000000E+00  0.00000000E+00
  0.00000000E+00  0.00000000E+00  0.00000000E+00
  0.00000000E+00  0.00000000E+00  0.00000000E+00
  0.00000000E+00  0.00000000E+00  0.00000000E+00
  0.00000000E+00  0.00000000E+00  0.00000000E+00
  0.00000000E+00  0.00000000E+00  0.00000000E+00
  0.00000000E+00  0.00000000E+00  0.00000000E+00
  0.00000000E+00  0.00000000E+00  0.00000000E+00
  0.00000000E+00  0.00000000E+00  0.00000000E+00
  0.00000000E+00  0.00000000E+00  0.00000000E+00
  0.00000000E+00  0.00000000E+00  0.00000000E+00
  0.00000000E+00  0.00000000E+00  0.00000000E+00
  0.00000000E+00  0.00000000E+00  0.00000000E+00
  0.00000000E+00  0.00000000E+00  0.00000000E+00
  0.00000000E+00  0.00000000E+00  0.00000000E+00
  0.00000000E+00  0.00000000E+00  0.00000000E+00
  0.00000000E+00  0.00000000E+00  0.00000000E+00
  0.00000000E+00  0.00000000E+00  0.00000000E+00
  0.00000000E+00  0.00000000E+00  0.00000000E+00
  0.00000000E+00  0.00000000E+00  0.00000000E+00
  0.00000000E+00  0.00000000E+00  0.00000000E+00
  0.00000000E+00  0.00000000E+00  0.00000000E+00
