CONTCAR\(3)                             
   1.00000000000000     
    12.3312997818000003    0.0000000000000000    0.0000000000000000
     0.0001127485000000   12.8291997905000006    0.0000000000000000
     0.0005937186000000    0.0011528207000000   19.9943999824000009
   C    N    Fe   Ni   O 
    54     2     1     1     2
Direct
  0.0554392320638208  0.0535695196615908  0.0495061994648084
  0.1558605587189590  0.1095159833976264  0.0497804294829171
  0.1566366682310399  0.2204211353106546  0.0488245245300901
  0.0567626188841489  0.2752561106095641  0.0478884393149545
  0.2563817047767163  0.0555287568658758  0.0517469800169032
  0.3566406668325706  0.1123515529195093  0.0541613796686525
  0.3574893031260432  0.2240778208165717  0.0535752268100691
  0.2563595864933365  0.2769647075926091  0.0499922851860534
  0.4563400544874875  0.0569188612195283  0.0575140305066694
  0.5569516449613670  0.1137309241626112  0.0593756478933877
  0.5582295115660538  0.2262381118613948  0.0602040243846748
  0.4576215002838461  0.2830147770406209  0.0573873214209967
  0.6557576096059297  0.0542465893676653  0.0586402857062385
  0.7557706042402127  0.1097469894080269  0.0554050345741273
  0.7573181487986936  0.2217138450352658  0.0553386818616161
  0.6602462039994148  0.2820679233671481  0.0603058002437233
  0.8548758540467291  0.0528124259047971  0.0525544875579741
  0.9554568570543496  0.1083211829782080  0.0503124750585342
  0.9568911188159113  0.2194853500441252  0.0495925737803071
  0.8577946406042585  0.2754146978397038  0.0515165626739582
  0.0569228318208593  0.3864279940046568  0.0466924034817223
  0.1553230958485738  0.4432515367280853  0.0470893559310411
  0.1549539660596682  0.5548146585567099  0.0471520553640230
  0.0556113537807466  0.6098003646990044  0.0464495858173771
  0.2546761074702454  0.3878526894281384  0.0490759014744091
  0.3526693722477356  0.4445298607120019  0.0528033923874423
  0.3531889754497548  0.5564476273793387  0.0548512579074861
  0.2540392992881470  0.6114770515981851  0.0501354408112207
  0.7610257050099904  0.4430776864301235  0.0541197954459720
  0.8591635593675624  0.3862213196317872  0.0497747059929460
  0.9578733363870099  0.4417309487017088  0.0468564374784122
  0.9569472613184403  0.5524565722581745  0.0466982072791630
  0.8561889406021711  0.6044012621637826  0.0482559020150889
  0.0547339975522906  0.7209689145921353  0.0470623394724249
  0.1539598294772842  0.7773562088553526  0.0487067829546141
  0.1547981796713019  0.8884097086624944  0.0495047849601144
  0.0544331662871839  0.9425651857577084  0.0491540220459008
  0.2536122897149594  0.7222939893097025  0.0509273614023660
  0.3529790797278373  0.7771950982573209  0.0553480486667107
  0.3549051653182085  0.8887849346983726  0.0551332909326023
  0.2552483994500941  0.9442635296082355  0.0518201559409278
  0.4517333483918814  0.7194921598446401  0.0631615827062346
  0.5538172341511186  0.8873014549192955  0.0625121233058941
  0.4547918383942826  0.9450988661209412  0.0586083542067565
  0.7536127989881884  0.8832620198311940  0.0562303050928390
  0.6549190199518087  0.9424153426105509  0.0598961794591941
  0.8542907004412850  0.7178383469213168  0.0494330266601841
  0.9541746435736427  0.7748064415821920  0.0479571764733951
  0.9541180817317161  0.8862217429986756  0.0494939821939695
  0.8537704644686599  0.9407381303431471  0.0524411771090374
  0.4530558672566909  0.3939989444768567  0.0576366436328653
  0.5494625197881958  0.7780707038512926  0.0668976018274615
  0.7542872547900269  0.7711156652627625  0.0554182712146478
  0.4534679758448983  0.6066227766017764  0.0653569062275410
  0.6652791401883911  0.3898252727323319  0.0637144283156964
  0.7604515067127978  0.5503572301938726  0.0504838436999132
  0.6443219686472953  0.6676186348672006  0.0703207905035782
  0.5593319865979539  0.4911674015902679  0.0823738506061669
  0.6236259555704647  0.5501158395446751  0.1618938357617779
  0.6539397460697574  0.6534287212708935  0.1589362951042123
 
  0.00000000E+00  0.00000000E+00  0.00000000E+00
  0.00000000E+00  0.00000000E+00  0.00000000E+00
  0.00000000E+00  0.00000000E+00  0.00000000E+00
  0.00000000E+00  0.00000000E+00  0.00000000E+00
  0.00000000E+00  0.00000000E+00  0.00000000E+00
  0.00000000E+00  0.00000000E+00  0.00000000E+00
  0.00000000E+00  0.00000000E+00  0.00000000E+00
  0.00000000E+00  0.00000000E+00  0.00000000E+00
  0.00000000E+00  0.00000000E+00  0.00000000E+00
  0.00000000E+00  0.00000000E+00  0.00000000E+00
  0.00000000E+00  0.00000000E+00  0.00000000E+00
  0.00000000E+00  0.00000000E+00  0.00000000E+00
  0.00000000E+00  0.00000000E+00  0.00000000E+00
  0.00000000E+00  0.00000000E+00  0.00000000E+00
  0.00000000E+00  0.00000000E+00  0.00000000E+00
  0.00000000E+00  0.00000000E+00  0.00000000E+00
  0.00000000E+00  0.00000000E+00  0.00000000E+00
  0.00000000E+00  0.00000000E+00  0.00000000E+00
  0.00000000E+00  0.00000000E+00  0.00000000E+00
  0.00000000E+00  0.00000000E+00  0.00000000E+00
  0.00000000E+00  0.00000000E+00  0.00000000E+00
  0.00000000E+00  0.00000000E+00  0.00000000E+00
  0.00000000E+00  0.00000000E+00  0.00000000E+00
  0.00000000E+00  0.00000000E+00  0.00000000E+00
  0.00000000E+00  0.00000000E+00  0.00000000E+00
  0.00000000E+00  0.00000000E+00  0.00000000E+00
  0.00000000E+00  0.00000000E+00  0.00000000E+00
  0.00000000E+00  0.00000000E+00  0.00000000E+00
  0.00000000E+00  0.00000000E+00  0.00000000E+00
  0.00000000E+00  0.00000000E+00  0.00000000E+00
  0.00000000E+00  0.00000000E+00  0.00000000E+00
  0.00000000E+00  0.00000000E+00  0.00000000E+00
  0.00000000E+00  0.00000000E+00  0.00000000E+00
  0.00000000E+00  0.00000000E+00  0.00000000E+00
  0.00000000E+00  0.00000000E+00  0.00000000E+00
  0.00000000E+00  0.00000000E+00  0.00000000E+00
  0.00000000E+00  0.00000000E+00  0.00000000E+00
  0.00000000E+00  0.00000000E+00  0.00000000E+00
  0.00000000E+00  0.00000000E+00  0.00000000E+00
  0.00000000E+00  0.00000000E+00  0.00000000E+00
  0.00000000E+00  0.00000000E+00  0.00000000E+00
  0.00000000E+00  0.00000000E+00  0.00000000E+00
  0.00000000E+00  0.00000000E+00  0.00000000E+00
  0.00000000E+00  0.00000000E+00  0.00000000E+00
  0.00000000E+00  0.00000000E+00  0.00000000E+00
  0.00000000E+00  0.00000000E+00  0.00000000E+00
  0.00000000E+00  0.00000000E+00  0.00000000E+00
  0.00000000E+00  0.00000000E+00  0.00000000E+00
  0.00000000E+00  0.00000000E+00  0.00000000E+00
  0.00000000E+00  0.00000000E+00  0.00000000E+00
  0.00000000E+00  0.00000000E+00  0.00000000E+00
  0.00000000E+00  0.00000000E+00  0.00000000E+00
  0.00000000E+00  0.00000000E+00  0.00000000E+00
  0.00000000E+00  0.00000000E+00  0.00000000E+00
  0.00000000E+00  0.00000000E+00  0.00000000E+00
  0.00000000E+00  0.00000000E+00  0.00000000E+00
  0.00000000E+00  0.00000000E+00  0.00000000E+00
  0.00000000E+00  0.00000000E+00  0.00000000E+00
  0.00000000E+00  0.00000000E+00  0.00000000E+00
  0.00000000E+00  0.00000000E+00  0.00000000E+00
