CONTCAR\(4)                             
   1.00000000000000     
    12.3312997818000003    0.0000000000000000    0.0000000000000000
     0.0001127485000000   12.8291997905000006    0.0000000000000000
     0.0005937186000000    0.0011528207000000   19.9943999824000009
   C    N    Fe   Ni   O    H 
    54     2     1     1     2     2
Direct
  0.0577206397989020  0.0557360176126580  0.0499291540836529
  0.1577432139958715  0.1112841693208791  0.0500206135592475
  0.1581716375459483  0.2223333962619889  0.0501892648561338
  0.0579999228639450  0.2772582498948770  0.0502314515120140
  0.2577290372751303  0.0558142111610780  0.0508901767152154
  0.3583295243847933  0.1107553723898271  0.0534806878748702
  0.3587192468630928  0.2221324622817218  0.0542538960071231
  0.2586965242385068  0.2776481452615317  0.0515788805063986
  0.4578901678437565  0.0545884148234229  0.0559326418410908
  0.5584934173756440  0.1093801275635742  0.0588521447672805
  0.5585427226212831  0.2206529700927194  0.0612293866884150
  0.4588465616323835  0.2779540364065753  0.0591766450414548
  0.6581118821168558  0.0505288734239230  0.0585638400530653
  0.7572908254233298  0.1088452351138998  0.0567701001671552
  0.7577524955849706  0.2212159916653569  0.0578894869869043
  0.6583160758699917  0.2786801726315352  0.0628144499380996
  0.8570666753873150  0.0536741857838367  0.0537200548115176
  0.9571805038596704  0.1102893197470902  0.0515700548282238
  0.9575398358156691  0.2216790153205957  0.0517817226278638
  0.8574122558546113  0.2773884355500812  0.0548337639908167
  0.0586791199495415  0.3885731815574661  0.0497714566139829
  0.1586934718910525  0.4437959742825981  0.0494738617210019
  0.1598005760396692  0.5552574295377217  0.0488671155993307
  0.0597014828406990  0.6103881394463267  0.0480718556178258
  0.2590894726536442  0.3887398025580552  0.0513568052667663
  0.3595782430740653  0.4441521196496027  0.0552653168988471
  0.3624131363558780  0.5574811222691298  0.0560013593317026
  0.2600503216991786  0.6112341706543541  0.0509081200010023
  0.7580850283223314  0.4470353698986510  0.0619916497644003
  0.8579515515511036  0.3893615570677910  0.0552043517677195
  0.9583324938461276  0.4442500928716205  0.0511812043207508
  0.9593994736949986  0.5551455386105129  0.0500455576711029
  0.8592031255788728  0.6108654516330153  0.0541532311752881
  0.0589698060000926  0.7216745859472072  0.0478898577425908
  0.1574250989048134  0.7776116438058601  0.0483196928143193
  0.1573945724024901  0.8890015784067544  0.0487565476999326
  0.0578788284105700  0.9447093955854140  0.0491344708532861
  0.2570036763703064  0.7219331249745141  0.0502821729842030
  0.3547738996224323  0.7785615072900649  0.0531652509533523
  0.3563540708555859  0.8891723535054874  0.0526445732127759
  0.2569202220614963  0.9449580676933347  0.0502547621248638
  0.4538291218508471  0.7237606792474989  0.0590231406151524
  0.5548750094293188  0.8838445331868285  0.0589374313458491
  0.4566978482699555  0.9433118192607307  0.0556496135885031
  0.7590961957948872  0.8817274178312442  0.0565925128476594
  0.6578693855997970  0.9379316072597068  0.0588427302952256
  0.8605994519132094  0.7235761405568866  0.0524711127430592
  0.9597197652225848  0.7779883679356597  0.0492270973573776
  0.9585080444954422  0.8886495645196241  0.0501355077684437
  0.8574552029062384  0.9416790634491039  0.0533087263610177
  0.4572286192942411  0.3886001638422673  0.0618191861494456
  0.4614491722527000  0.6128786510960792  0.0632120569294652
  0.6599594841388794  0.3885279280202472  0.0687652359660313
  0.7595935873176960  0.5589457728837596  0.0632517326505267
  0.5489426514998337  0.7785604936927426  0.0610585788963219
  0.7640032575644695  0.7737760807054004  0.0562980912744295
  0.6486861929336627  0.6658410125186867  0.0842390624864725
  0.5558398951292453  0.4778468992116004  0.1027896616851394
  0.5661331785392407  0.5131936099810813  0.1885723639670418
  0.6553118368894676  0.7016311628342513  0.1753429922957080
  0.7248581670664140  0.6883839979788888  0.1968943857452991
  0.5865228834152334  0.5865440514350686  0.1983011500402218
 
  0.00000000E+00  0.00000000E+00  0.00000000E+00
  0.00000000E+00  0.00000000E+00  0.00000000E+00
  0.00000000E+00  0.00000000E+00  0.00000000E+00
  0.00000000E+00  0.00000000E+00  0.00000000E+00
  0.00000000E+00  0.00000000E+00  0.00000000E+00
  0.00000000E+00  0.00000000E+00  0.00000000E+00
  0.00000000E+00  0.00000000E+00  0.00000000E+00
  0.00000000E+00  0.00000000E+00  0.00000000E+00
  0.00000000E+00  0.00000000E+00  0.00000000E+00
  0.00000000E+00  0.00000000E+00  0.00000000E+00
  0.00000000E+00  0.00000000E+00  0.00000000E+00
  0.00000000E+00  0.00000000E+00  0.00000000E+00
  0.00000000E+00  0.00000000E+00  0.00000000E+00
  0.00000000E+00  0.00000000E+00  0.00000000E+00
  0.00000000E+00  0.00000000E+00  0.00000000E+00
  0.00000000E+00  0.00000000E+00  0.00000000E+00
  0.00000000E+00  0.00000000E+00  0.00000000E+00
  0.00000000E+00  0.00000000E+00  0.00000000E+00
  0.00000000E+00  0.00000000E+00  0.00000000E+00
  0.00000000E+00  0.00000000E+00  0.00000000E+00
  0.00000000E+00  0.00000000E+00  0.00000000E+00
  0.00000000E+00  0.00000000E+00  0.00000000E+00
  0.00000000E+00  0.00000000E+00  0.00000000E+00
  0.00000000E+00  0.00000000E+00  0.00000000E+00
  0.00000000E+00  0.00000000E+00  0.00000000E+00
  0.00000000E+00  0.00000000E+00  0.00000000E+00
  0.00000000E+00  0.00000000E+00  0.00000000E+00
  0.00000000E+00  0.00000000E+00  0.00000000E+00
  0.00000000E+00  0.00000000E+00  0.00000000E+00
  0.00000000E+00  0.00000000E+00  0.00000000E+00
  0.00000000E+00  0.00000000E+00  0.00000000E+00
  0.00000000E+00  0.00000000E+00  0.00000000E+00
  0.00000000E+00  0.00000000E+00  0.00000000E+00
  0.00000000E+00  0.00000000E+00  0.00000000E+00
  0.00000000E+00  0.00000000E+00  0.00000000E+00
  0.00000000E+00  0.00000000E+00  0.00000000E+00
  0.00000000E+00  0.00000000E+00  0.00000000E+00
  0.00000000E+00  0.00000000E+00  0.00000000E+00
  0.00000000E+00  0.00000000E+00  0.00000000E+00
  0.00000000E+00  0.00000000E+00  0.00000000E+00
  0.00000000E+00  0.00000000E+00  0.00000000E+00
  0.00000000E+00  0.00000000E+00  0.00000000E+00
  0.00000000E+00  0.00000000E+00  0.00000000E+00
  0.00000000E+00  0.00000000E+00  0.00000000E+00
  0.00000000E+00  0.00000000E+00  0.00000000E+00
  0.00000000E+00  0.00000000E+00  0.00000000E+00
  0.00000000E+00  0.00000000E+00  0.00000000E+00
  0.00000000E+00  0.00000000E+00  0.00000000E+00
  0.00000000E+00  0.00000000E+00  0.00000000E+00
  0.00000000E+00  0.00000000E+00  0.00000000E+00
  0.00000000E+00  0.00000000E+00  0.00000000E+00
  0.00000000E+00  0.00000000E+00  0.00000000E+00
  0.00000000E+00  0.00000000E+00  0.00000000E+00
  0.00000000E+00  0.00000000E+00  0.00000000E+00
  0.00000000E+00  0.00000000E+00  0.00000000E+00
  0.00000000E+00  0.00000000E+00  0.00000000E+00
  0.00000000E+00  0.00000000E+00  0.00000000E+00
  0.00000000E+00  0.00000000E+00  0.00000000E+00
  0.00000000E+00  0.00000000E+00  0.00000000E+00
  0.00000000E+00  0.00000000E+00  0.00000000E+00
  0.00000000E+00  0.00000000E+00  0.00000000E+00
  0.00000000E+00  0.00000000E+00  0.00000000E+00
