CONTCAR                                 
   1.00000000000000     
    12.3312997818000003    0.0000000000000000    0.0000000000000000
     0.0001127485000000   12.8291997905000006    0.0000000000000000
     0.0005937186000000    0.0011528207000000   19.9943999824000009
   C    N    Fe   Ni   H 
    52     4     1     1     2
Direct
  0.0553370874533851  0.0531963460734852  0.0519663971334280
  0.1558924074374372  0.1085861954647383  0.0519632476458990
  0.1558756731605609  0.2194436967735837  0.0504234410592120
  0.0560022573643839  0.2747835709067366  0.0495386921368680
  0.2565465645987937  0.0542701327825732  0.0539039051911868
  0.3566549780404736  0.1108558653945317  0.0562781440565867
  0.3561408132743585  0.2225860963067984  0.0550469840603824
  0.2552474008559229  0.2757129946946978  0.0510410478410108
  0.4569407261040159  0.0557804177017145  0.0598412715120696
  0.5562175544377602  0.1144218866932284  0.0618655144181836
  0.5569174239141174  0.2288859312641825  0.0621066552601185
  0.4544655791915801  0.2833132043762217  0.0582401737276241
  0.6547608369629569  0.0541759142757807  0.0617704879782317
  0.7545829041346567  0.1106702968947992  0.0588725343742724
  0.7556276745116142  0.2233354953027933  0.0589674170267716
  0.6585211131909127  0.2854966569858123  0.0631341947730200
  0.8542533837636445  0.0532950485490499  0.0557357641327080
  0.9549696765479507  0.1083151220149692  0.0531882521891376
  0.9558894577890047  0.2196214233180988  0.0522144206305474
  0.8568013457594365  0.2762419764025530  0.0546617499255908
  0.0568577934494465  0.3856400228460728  0.0473664582163208
  0.1552809341950700  0.4423871478362924  0.0467730927373384
  0.1556371493777430  0.5533002110978205  0.0463864771544572
  0.0572311063738676  0.6095401925578691  0.0461544385007875
  0.2541913719728685  0.3867733139111587  0.0492653553403599
  0.3526828034767336  0.4417470671044899  0.0528783544898422
  0.3528611338249354  0.5542140233144159  0.0549205602446509
  0.2543200704653015  0.6094117830652538  0.0497606484875918
  0.7622395891830807  0.4457644014865647  0.0575137817926129
  0.8592710254402105  0.3871005718534321  0.0524607294990987
  0.9584245705265442  0.4416503546208225  0.0480960512985886
  0.9589959938385167  0.5523755691581896  0.0473320048983253
  0.8600256214992141  0.6058245425282103  0.0502802629489161
  0.0562281080383669  0.7204085496677837  0.0475252543910442
  0.1552458308875503  0.7765545469998727  0.0493207705441923
  0.1557145774739175  0.8875291181578041  0.0510892917916767
  0.0550871929730245  0.9423111699423208  0.0512723569156622
  0.2543633666119370  0.7205748211731448  0.0511803009954285
  0.3540452753338814  0.7747814671828849  0.0560427024769513
  0.3560048486349646  0.8868549280977617  0.0568086911971063
  0.2562097245278784  0.9427029354595521  0.0537354212655920
  0.4513771332278997  0.7151031349753113  0.0629988569158158
  0.5542612299950833  0.8838273383920123  0.0646547939968128
  0.4562186977004582  0.9429576672655169  0.0607668359229966
  0.7542660785022813  0.8828153601641844  0.0587424454920479
  0.6543821134420907  0.9409952633530129  0.0625430601770448
  0.8572528334541536  0.7181676918190544  0.0514513263808363
  0.9559406819590124  0.7750492171237022  0.0495451440881648
  0.9548918901136052  0.8864887022745318  0.0517060613158590
  0.8538704712197366  0.9409599584576835  0.0551950288170672
  0.5514857062653018  0.7716892432838757  0.0679506118309189
  0.7560619676225976  0.7705767105864859  0.0571245497006733
  0.4494084061823713  0.3903441163710434  0.0572438270485182
  0.4489225055442218  0.6055468683078703  0.0640494456571836
  0.6649501294728644  0.3949751604484567  0.0665678244943868
  0.7640050852489790  0.5527455768807041  0.0545937942762265
  0.6501031899188846  0.6654747304208283  0.0705238628242927
  0.5543568688432616  0.4966439379279224  0.0750768787785130
  0.6619069130400074  0.6876792760623440  0.1426991273955295
  0.6129551466491916  0.5739549856473875  0.1245932266277177
 
  0.00000000E+00  0.00000000E+00  0.00000000E+00
  0.00000000E+00  0.00000000E+00  0.00000000E+00
  0.00000000E+00  0.00000000E+00  0.00000000E+00
  0.00000000E+00  0.00000000E+00  0.00000000E+00
  0.00000000E+00  0.00000000E+00  0.00000000E+00
  0.00000000E+00  0.00000000E+00  0.00000000E+00
  0.00000000E+00  0.00000000E+00  0.00000000E+00
  0.00000000E+00  0.00000000E+00  0.00000000E+00
  0.00000000E+00  0.00000000E+00  0.00000000E+00
  0.00000000E+00  0.00000000E+00  0.00000000E+00
  0.00000000E+00  0.00000000E+00  0.00000000E+00
  0.00000000E+00  0.00000000E+00  0.00000000E+00
  0.00000000E+00  0.00000000E+00  0.00000000E+00
  0.00000000E+00  0.00000000E+00  0.00000000E+00
  0.00000000E+00  0.00000000E+00  0.00000000E+00
  0.00000000E+00  0.00000000E+00  0.00000000E+00
  0.00000000E+00  0.00000000E+00  0.00000000E+00
  0.00000000E+00  0.00000000E+00  0.00000000E+00
  0.00000000E+00  0.00000000E+00  0.00000000E+00
  0.00000000E+00  0.00000000E+00  0.00000000E+00
  0.00000000E+00  0.00000000E+00  0.00000000E+00
  0.00000000E+00  0.00000000E+00  0.00000000E+00
  0.00000000E+00  0.00000000E+00  0.00000000E+00
  0.00000000E+00  0.00000000E+00  0.00000000E+00
  0.00000000E+00  0.00000000E+00  0.00000000E+00
  0.00000000E+00  0.00000000E+00  0.00000000E+00
  0.00000000E+00  0.00000000E+00  0.00000000E+00
  0.00000000E+00  0.00000000E+00  0.00000000E+00
  0.00000000E+00  0.00000000E+00  0.00000000E+00
  0.00000000E+00  0.00000000E+00  0.00000000E+00
  0.00000000E+00  0.00000000E+00  0.00000000E+00
  0.00000000E+00  0.00000000E+00  0.00000000E+00
  0.00000000E+00  0.00000000E+00  0.00000000E+00
  0.00000000E+00  0.00000000E+00  0.00000000E+00
  0.00000000E+00  0.00000000E+00  0.00000000E+00
  0.00000000E+00  0.00000000E+00  0.00000000E+00
  0.00000000E+00  0.00000000E+00  0.00000000E+00
  0.00000000E+00  0.00000000E+00  0.00000000E+00
  0.00000000E+00  0.00000000E+00  0.00000000E+00
  0.00000000E+00  0.00000000E+00  0.00000000E+00
  0.00000000E+00  0.00000000E+00  0.00000000E+00
  0.00000000E+00  0.00000000E+00  0.00000000E+00
  0.00000000E+00  0.00000000E+00  0.00000000E+00
  0.00000000E+00  0.00000000E+00  0.00000000E+00
  0.00000000E+00  0.00000000E+00  0.00000000E+00
  0.00000000E+00  0.00000000E+00  0.00000000E+00
  0.00000000E+00  0.00000000E+00  0.00000000E+00
  0.00000000E+00  0.00000000E+00  0.00000000E+00
  0.00000000E+00  0.00000000E+00  0.00000000E+00
  0.00000000E+00  0.00000000E+00  0.00000000E+00
  0.00000000E+00  0.00000000E+00  0.00000000E+00
  0.00000000E+00  0.00000000E+00  0.00000000E+00
  0.00000000E+00  0.00000000E+00  0.00000000E+00
  0.00000000E+00  0.00000000E+00  0.00000000E+00
  0.00000000E+00  0.00000000E+00  0.00000000E+00
  0.00000000E+00  0.00000000E+00  0.00000000E+00
  0.00000000E+00  0.00000000E+00  0.00000000E+00
  0.00000000E+00  0.00000000E+00  0.00000000E+00
  0.00000000E+00  0.00000000E+00  0.00000000E+00
  0.00000000E+00  0.00000000E+00  0.00000000E+00
