CONTCAR\(10)                            
   1.00000000000000     
    12.3312997818000003    0.0000000000000000    0.0000000000000000
     0.0001127485000000   12.8291997905000006    0.0000000000000000
     0.0005937186000000    0.0011528207000000   19.9943999824000009
   C    N    Fe   Ni   H 
    52     4     1     1     2
Direct
  0.0547019072717097  0.0545752318034936  0.0518164977227028
  0.1552035964145495  0.1100702045715216  0.0512868359473765
  0.1552902920451908  0.2209308696344088  0.0498491707642231
  0.0551312146247020  0.2757752060643769  0.0495639265898519
  0.2556231100487069  0.0555559558597776  0.0526941546014637
  0.3559590086919722  0.1114449534511053  0.0552833612186904
  0.3555618511765617  0.2232424679101296  0.0540416952519784
  0.2549571463996237  0.2768885806234523  0.0499103118328758
  0.4559801013032752  0.0557711515580269  0.0591455589233415
  0.5551237535537943  0.1135311141622496  0.0624121660032761
  0.5555268683408554  0.2280062961665719  0.0628530908692186
  0.4541131373140307  0.2833894537185592  0.0574634811595378
  0.6531731483591591  0.0526350550908550  0.0633245674302122
  0.7533117390491567  0.1098945034055354  0.0610426661536519
  0.7547471303477019  0.2227228873258165  0.0615140947782991
  0.6570136863193894  0.2845474261531368  0.0657544798361234
  0.8533467828466779  0.0534149552686577  0.0573179255407240
  0.9539333791848764  0.1091149697173414  0.0540552413415694
  0.9549198532792254  0.2203853249204884  0.0532207008852273
  0.8556180372981301  0.2766852865424675  0.0567146095099753
  0.0559165562835656  0.3866308507906146  0.0471753717673948
  0.1549485868617449  0.4431157958629181  0.0453070678625990
  0.1558763642032850  0.5540319196349738  0.0442613690908437
  0.0573926122454410  0.6100720657765313  0.0446701802876039
  0.2542796608134426  0.3881522908749556  0.0475205603929977
  0.3532948720647303  0.4433580924879380  0.0503518195892933
  0.3540021098975776  0.5561265640014419  0.0515570953315360
  0.2547648382062227  0.6101937235799353  0.0469477904265975
  0.7598612600444995  0.4458548986495862  0.0623173637186573
  0.8575329113350221  0.3879598510176696  0.0549862519751824
  0.9572285689032211  0.4425068367347340  0.0490569783304421
  0.9590743739588232  0.5532705418763445  0.0478778992381730
  0.8612193319104099  0.6084827179846480  0.0534524408004645
  0.0567183901271082  0.7213161595023965  0.0458074209760308
  0.1551532174934996  0.7774562392016120  0.0469443651059154
  0.1550083929180045  0.8887071152736141  0.0492979328641985
  0.0546524022928443  0.9438543129987038  0.0505974134212356
  0.2539223997355481  0.7213915661408925  0.0483551963327170
  0.3525520604758167  0.7765378639344929  0.0534021154217457
  0.3543077034016464  0.8881115497658362  0.0547925344758437
  0.2549318750838305  0.9441146632103006  0.0519456335668125
  0.4501257203153788  0.7188351510477382  0.0597577729790674
  0.5512971051524769  0.8822737751669042  0.0640103658255254
  0.4547101345361286  0.9428649699100536  0.0594437911906047
  0.7538219328423470  0.8816270219127937  0.0613784296804318
  0.6526737323346026  0.9385001758248257  0.0640933802376929
  0.8604094875871986  0.7203895888274620  0.0537421045883880
  0.9573718709112072  0.7770184849131654  0.0493400638743057
  0.9548197033713474  0.8880041649227941  0.0518750028180160
  0.8532384962033185  0.9410959568197883  0.0567520614505404
  0.7611841487309210  0.5575678874436647  0.0614461132578203
  0.7588224058974075  0.7694710964397039  0.0609554782180275
  0.4497090554047916  0.3908470718574963  0.0552905756859330
  0.4508093280981681  0.6096244290343024  0.0597278577715474
  0.6627609321353850  0.3924441828742118  0.0704074405338339
  0.5460879358815437  0.7725650690836579  0.0666075537151532
  0.6506419752938817  0.6627996261857713  0.0738485136725665
  0.5542447932804800  0.4962998536952460  0.0746287073712797
  0.6128847225544584  0.5699893003068497  0.1259628805927698
  0.6993324033433994  0.6771944824854719  0.1404325601998619
 
  0.00000000E+00  0.00000000E+00  0.00000000E+00
  0.00000000E+00  0.00000000E+00  0.00000000E+00
  0.00000000E+00  0.00000000E+00  0.00000000E+00
  0.00000000E+00  0.00000000E+00  0.00000000E+00
  0.00000000E+00  0.00000000E+00  0.00000000E+00
  0.00000000E+00  0.00000000E+00  0.00000000E+00
  0.00000000E+00  0.00000000E+00  0.00000000E+00
  0.00000000E+00  0.00000000E+00  0.00000000E+00
  0.00000000E+00  0.00000000E+00  0.00000000E+00
  0.00000000E+00  0.00000000E+00  0.00000000E+00
  0.00000000E+00  0.00000000E+00  0.00000000E+00
  0.00000000E+00  0.00000000E+00  0.00000000E+00
  0.00000000E+00  0.00000000E+00  0.00000000E+00
  0.00000000E+00  0.00000000E+00  0.00000000E+00
  0.00000000E+00  0.00000000E+00  0.00000000E+00
  0.00000000E+00  0.00000000E+00  0.00000000E+00
  0.00000000E+00  0.00000000E+00  0.00000000E+00
  0.00000000E+00  0.00000000E+00  0.00000000E+00
  0.00000000E+00  0.00000000E+00  0.00000000E+00
  0.00000000E+00  0.00000000E+00  0.00000000E+00
  0.00000000E+00  0.00000000E+00  0.00000000E+00
  0.00000000E+00  0.00000000E+00  0.00000000E+00
  0.00000000E+00  0.00000000E+00  0.00000000E+00
  0.00000000E+00  0.00000000E+00  0.00000000E+00
  0.00000000E+00  0.00000000E+00  0.00000000E+00
  0.00000000E+00  0.00000000E+00  0.00000000E+00
  0.00000000E+00  0.00000000E+00  0.00000000E+00
  0.00000000E+00  0.00000000E+00  0.00000000E+00
  0.00000000E+00  0.00000000E+00  0.00000000E+00
  0.00000000E+00  0.00000000E+00  0.00000000E+00
  0.00000000E+00  0.00000000E+00  0.00000000E+00
  0.00000000E+00  0.00000000E+00  0.00000000E+00
  0.00000000E+00  0.00000000E+00  0.00000000E+00
  0.00000000E+00  0.00000000E+00  0.00000000E+00
  0.00000000E+00  0.00000000E+00  0.00000000E+00
  0.00000000E+00  0.00000000E+00  0.00000000E+00
  0.00000000E+00  0.00000000E+00  0.00000000E+00
  0.00000000E+00  0.00000000E+00  0.00000000E+00
  0.00000000E+00  0.00000000E+00  0.00000000E+00
  0.00000000E+00  0.00000000E+00  0.00000000E+00
  0.00000000E+00  0.00000000E+00  0.00000000E+00
  0.00000000E+00  0.00000000E+00  0.00000000E+00
  0.00000000E+00  0.00000000E+00  0.00000000E+00
  0.00000000E+00  0.00000000E+00  0.00000000E+00
  0.00000000E+00  0.00000000E+00  0.00000000E+00
  0.00000000E+00  0.00000000E+00  0.00000000E+00
  0.00000000E+00  0.00000000E+00  0.00000000E+00
  0.00000000E+00  0.00000000E+00  0.00000000E+00
  0.00000000E+00  0.00000000E+00  0.00000000E+00
  0.00000000E+00  0.00000000E+00  0.00000000E+00
  0.00000000E+00  0.00000000E+00  0.00000000E+00
  0.00000000E+00  0.00000000E+00  0.00000000E+00
  0.00000000E+00  0.00000000E+00  0.00000000E+00
  0.00000000E+00  0.00000000E+00  0.00000000E+00
  0.00000000E+00  0.00000000E+00  0.00000000E+00
  0.00000000E+00  0.00000000E+00  0.00000000E+00
  0.00000000E+00  0.00000000E+00  0.00000000E+00
  0.00000000E+00  0.00000000E+00  0.00000000E+00
  0.00000000E+00  0.00000000E+00  0.00000000E+00
  0.00000000E+00  0.00000000E+00  0.00000000E+00
