1h\(2)                                  
   1.00000000000000     
    12.3312997818000003    0.0000000000000000    0.0000000000000000
     0.0001127485000000   12.8291997905000006    0.0000000000000000
     0.0005937186000000    0.0011528207000000   19.9943999824000009
   C    N    Fe   Ni
    53     3     1     1
Direct
  0.0559888249587194  0.0549309038454930  0.0548222051743920
  0.1563253317338799  0.1108696657925914  0.0550152394091916
  0.1571707332167932  0.2217502838532592  0.0549972069197345
  0.0570379761908845  0.2763237747946422  0.0547083940970103
  0.2565313227870130  0.0560842783313784  0.0556064143056223
  0.3570246592423715  0.1119217741109896  0.0565607510712359
  0.3580213183721062  0.2238385516448902  0.0565574334840351
  0.2574387691288662  0.2781369440100432  0.0555804415572786
  0.4564497227786073  0.0554135048923535  0.0573798634423844
  0.5572815047155470  0.1111929844084710  0.0577960158002344
  0.5580446244253379  0.2229557225993327  0.0577710585543140
  0.4584967313094859  0.2813848314169723  0.0573614800164838
  0.6567342111161638  0.0517552952042649  0.0576230129826563
  0.7561572257743487  0.1092223059818744  0.0569176513648371
  0.7571213015268640  0.2213133771621939  0.0568337954396430
  0.6585807780794217  0.2803765221600665  0.0575491410147701
  0.8552772114704503  0.0526166698695995  0.0560350318759624
  0.9557262150837903  0.1091251771678998  0.0552577541820719
  0.9568252737538290  0.2206091671383928  0.0551508751761743
  0.8573144825470105  0.2766735690072094  0.0557994529390662
  0.0580027150466793  0.3875017694680603  0.0543849987983020
  0.1569825160034960  0.4438839116880093  0.0544663654559604
  0.1562625944676305  0.5547283427844243  0.0541958702198741
  0.0567795993433081  0.6103390475469533  0.0539074218480988
  0.2571336680792833  0.3893431887687838  0.0553257420902443
  0.3566990266453961  0.4457872344613642  0.0562141309241585
  0.3555182843547935  0.5584690637861744  0.0561027707681516
  0.2549202916912411  0.6118200535827181  0.0548876729126341
  0.7615332639017051  0.4465789211797818  0.0564647110682940
  0.8595449828713767  0.3880774683106338  0.0554925928171697
  0.9589109690304417  0.4430711978935907  0.0545521496904605
  0.9580091317917099  0.5541200412406830  0.0543150122414051
  0.8575277509983470  0.6080524459135627  0.0552237187923677
  0.0555760300233807  0.7211694924722498  0.0540142608876045
  0.1539084760430367  0.7780914954096798  0.0542839543846881
  0.1552272968356349  0.8890075660508823  0.0545953775205483
  0.0552979360867780  0.9438897849112087  0.0546088715517009
  0.2528231355629505  0.7226100690487894  0.0549126319541665
  0.3513782934881409  0.7778313774885206  0.0561064565470349
  0.3546758981298884  0.8890438184400611  0.0563177248061323
  0.2553986161141064  0.9448297856072939  0.0554086205435442
  0.4489013136829693  0.7201355169441233  0.0574286928000294
  0.5536673205121575  0.8848188026979831  0.0580689360443575
  0.4552477164311180  0.9439872601091772  0.0573997609374352
  0.7555863380907132  0.8807004167268685  0.0567995639415555
  0.6558748628244719  0.9391512262799813  0.0577058389681130
  0.8568637539479022  0.7205476374006730  0.0553441635013342
  0.9558772554027883  0.7761260434397189  0.0545846887559118
  0.9558214875491012  0.8873456452190350  0.0549130506513710
  0.8546523454365281  0.9403201679783993  0.0559037656097682
  0.4566217620263370  0.3927077696907212  0.0573263583085692
  0.6616602160053709  0.3909509745164190  0.0575627323811446
  0.5482542153812621  0.7750811859646107  0.0584664651094664
  0.4515353536994700  0.6118143190808794  0.0574366595609747
  0.7610087668295442  0.5555104562021236  0.0564063894792702
  0.7582297974512885  0.7708055492980636  0.0565660220876900
  0.6436139037426072  0.6673177330345148  0.0579684606665637
  0.5641349402655584  0.4952481539713390  0.0581141715668155
 
  0.00000000E+00  0.00000000E+00  0.00000000E+00
  0.00000000E+00  0.00000000E+00  0.00000000E+00
  0.00000000E+00  0.00000000E+00  0.00000000E+00
  0.00000000E+00  0.00000000E+00  0.00000000E+00
  0.00000000E+00  0.00000000E+00  0.00000000E+00
  0.00000000E+00  0.00000000E+00  0.00000000E+00
  0.00000000E+00  0.00000000E+00  0.00000000E+00
  0.00000000E+00  0.00000000E+00  0.00000000E+00
  0.00000000E+00  0.00000000E+00  0.00000000E+00
  0.00000000E+00  0.00000000E+00  0.00000000E+00
  0.00000000E+00  0.00000000E+00  0.00000000E+00
  0.00000000E+00  0.00000000E+00  0.00000000E+00
  0.00000000E+00  0.00000000E+00  0.00000000E+00
  0.00000000E+00  0.00000000E+00  0.00000000E+00
  0.00000000E+00  0.00000000E+00  0.00000000E+00
  0.00000000E+00  0.00000000E+00  0.00000000E+00
  0.00000000E+00  0.00000000E+00  0.00000000E+00
  0.00000000E+00  0.00000000E+00  0.00000000E+00
  0.00000000E+00  0.00000000E+00  0.00000000E+00
  0.00000000E+00  0.00000000E+00  0.00000000E+00
  0.00000000E+00  0.00000000E+00  0.00000000E+00
  0.00000000E+00  0.00000000E+00  0.00000000E+00
  0.00000000E+00  0.00000000E+00  0.00000000E+00
  0.00000000E+00  0.00000000E+00  0.00000000E+00
  0.00000000E+00  0.00000000E+00  0.00000000E+00
  0.00000000E+00  0.00000000E+00  0.00000000E+00
  0.00000000E+00  0.00000000E+00  0.00000000E+00
  0.00000000E+00  0.00000000E+00  0.00000000E+00
  0.00000000E+00  0.00000000E+00  0.00000000E+00
  0.00000000E+00  0.00000000E+00  0.00000000E+00
  0.00000000E+00  0.00000000E+00  0.00000000E+00
  0.00000000E+00  0.00000000E+00  0.00000000E+00
  0.00000000E+00  0.00000000E+00  0.00000000E+00
  0.00000000E+00  0.00000000E+00  0.00000000E+00
  0.00000000E+00  0.00000000E+00  0.00000000E+00
  0.00000000E+00  0.00000000E+00  0.00000000E+00
  0.00000000E+00  0.00000000E+00  0.00000000E+00
  0.00000000E+00  0.00000000E+00  0.00000000E+00
  0.00000000E+00  0.00000000E+00  0.00000000E+00
  0.00000000E+00  0.00000000E+00  0.00000000E+00
  0.00000000E+00  0.00000000E+00  0.00000000E+00
  0.00000000E+00  0.00000000E+00  0.00000000E+00
  0.00000000E+00  0.00000000E+00  0.00000000E+00
  0.00000000E+00  0.00000000E+00  0.00000000E+00
  0.00000000E+00  0.00000000E+00  0.00000000E+00
  0.00000000E+00  0.00000000E+00  0.00000000E+00
  0.00000000E+00  0.00000000E+00  0.00000000E+00
  0.00000000E+00  0.00000000E+00  0.00000000E+00
  0.00000000E+00  0.00000000E+00  0.00000000E+00
  0.00000000E+00  0.00000000E+00  0.00000000E+00
  0.00000000E+00  0.00000000E+00  0.00000000E+00
  0.00000000E+00  0.00000000E+00  0.00000000E+00
  0.00000000E+00  0.00000000E+00  0.00000000E+00
  0.00000000E+00  0.00000000E+00  0.00000000E+00
  0.00000000E+00  0.00000000E+00  0.00000000E+00
  0.00000000E+00  0.00000000E+00  0.00000000E+00
  0.00000000E+00  0.00000000E+00  0.00000000E+00
  0.00000000E+00  0.00000000E+00  0.00000000E+00
