CONTCAR\(2)                             
   1.00000000000000     
    12.3312997818000003    0.0000000000000000    0.0000000000000000
     0.0001127485000000   12.8291997905000006    0.0000000000000000
     0.0005937186000000    0.0011528207000000   19.9943999824000009
   C    N    Fe   Ni   H 
    53     3     1     1     2
Direct
  0.0551864037012560  0.0535079487216208  0.0546262112497017
  0.1552371232023953  0.1098615320224959  0.0543968345422207
  0.1562901608306256  0.2208472503987652  0.0542488199353978
  0.0562439731845785  0.2753134254050167  0.0537504225044497
  0.2556027294936218  0.0553981094603563  0.0543083737382905
  0.3562782415820706  0.1113832701413077  0.0551728048815817
  0.3574249385095164  0.2233432392338583  0.0555126344717116
  0.2565417157531887  0.2771247071730560  0.0545633095414845
  0.4557716099652483  0.0551037576237985  0.0556787778251007
  0.5567725371486451  0.1105500223166890  0.0572163553184980
  0.5575151245413889  0.2227652760496314  0.0574627155731725
  0.4579842641508409  0.2812736670381198  0.0564973012253575
  0.6554477603343273  0.0501194678437802  0.0578861269829426
  0.7550653509134992  0.1069442604388956  0.0571451151254177
  0.7570459195585802  0.2192055684667824  0.0567031586715777
  0.6590337249802042  0.2784694866043652  0.0578465981934288
  0.8543318536821142  0.0509435457858259  0.0562824352387191
  0.9548319192400790  0.1075245900232000  0.0552224586641701
  0.9564297085823785  0.2188191737368524  0.0544908762164331
  0.8569591376327710  0.2743735459816422  0.0549297149175556
  0.0565802338485197  0.3868284107528021  0.0529474028735031
  0.1555535305950840  0.4428316314566216  0.0529130819935734
  0.1553191602939890  0.5542370886731881  0.0522171544669789
  0.0552833750976555  0.6088501324705435  0.0519475607331364
  0.2557026248916494  0.3880550697447089  0.0539660691102796
  0.3547653010061340  0.4445842967238821  0.0546813191058263
  0.3564134601545680  0.5575734280517501  0.0540096302109149
  0.2548895240406252  0.6109947177809566  0.0524251235898288
  0.7589887970299969  0.4414149101935900  0.0561852757878255
  0.8580619004060340  0.3858123784225391  0.0539650660235450
  0.9568579364279606  0.4422296437453755  0.0526948725422865
  0.9554464664840344  0.5529991348332662  0.0524265421177285
  0.8540995747595567  0.6071005832775092  0.0540078771217662
  0.0546495971131633  0.7200613210790960  0.0522661110273717
  0.1532680625538237  0.7766249666576621  0.0522527919955613
  0.1541110062352801  0.8878002723755922  0.0531164617404294
  0.0543059670547097  0.9424471693694336  0.0541612494092942
  0.2528480525846017  0.7214583339942170  0.0519994081298128
  0.3513587647902504  0.7777253946076932  0.0526100437761592
  0.3532985774641204  0.8887774346714619  0.0533401263695309
  0.2539622549345341  0.9442849510818953  0.0534260521232892
  0.4500506283377127  0.7222410208822860  0.0542643409279770
  0.5514630211084274  0.8838386756216837  0.0570495121843248
  0.4536324566544133  0.9436144821498293  0.0548121534704755
  0.7545350920507273  0.8789750150824192  0.0582047211742525
  0.6545736283712796  0.9369583148793584  0.0585384218488954
  0.8556887722590487  0.7197414919581946  0.0548892914213720
  0.9547453383318497  0.7752050522894111  0.0536214741883146
  0.9547195266324950  0.8860449230658255  0.0547321549054661
  0.8535583529695345  0.9387417846750754  0.0563983531845847
  0.4545468814256749  0.3928113706799472  0.0562869868041490
  0.4571182750845331  0.6107793724109913  0.0553816019671924
  0.7528724136279659  0.5542249861671622  0.0564201909883379
  0.6634042014036258  0.3848189566706143  0.0586435222656904
  0.5459489725945329  0.7782526026872590  0.0577025746096649
  0.7575499593813338  0.7691586898633404  0.0580770709125502
  0.6390726674303896  0.6666805032690414  0.0680560049270462
  0.5667721134429855  0.4919277436838752  0.0595001026349441
  0.6394418745206756  0.6784156227682148  0.1451745140425683
  0.6394875456192123  0.6060361897656489  0.1356967404763310
 
  0.00000000E+00  0.00000000E+00  0.00000000E+00
  0.00000000E+00  0.00000000E+00  0.00000000E+00
  0.00000000E+00  0.00000000E+00  0.00000000E+00
  0.00000000E+00  0.00000000E+00  0.00000000E+00
  0.00000000E+00  0.00000000E+00  0.00000000E+00
  0.00000000E+00  0.00000000E+00  0.00000000E+00
  0.00000000E+00  0.00000000E+00  0.00000000E+00
  0.00000000E+00  0.00000000E+00  0.00000000E+00
  0.00000000E+00  0.00000000E+00  0.00000000E+00
  0.00000000E+00  0.00000000E+00  0.00000000E+00
  0.00000000E+00  0.00000000E+00  0.00000000E+00
  0.00000000E+00  0.00000000E+00  0.00000000E+00
  0.00000000E+00  0.00000000E+00  0.00000000E+00
  0.00000000E+00  0.00000000E+00  0.00000000E+00
  0.00000000E+00  0.00000000E+00  0.00000000E+00
  0.00000000E+00  0.00000000E+00  0.00000000E+00
  0.00000000E+00  0.00000000E+00  0.00000000E+00
  0.00000000E+00  0.00000000E+00  0.00000000E+00
  0.00000000E+00  0.00000000E+00  0.00000000E+00
  0.00000000E+00  0.00000000E+00  0.00000000E+00
  0.00000000E+00  0.00000000E+00  0.00000000E+00
  0.00000000E+00  0.00000000E+00  0.00000000E+00
  0.00000000E+00  0.00000000E+00  0.00000000E+00
  0.00000000E+00  0.00000000E+00  0.00000000E+00
  0.00000000E+00  0.00000000E+00  0.00000000E+00
  0.00000000E+00  0.00000000E+00  0.00000000E+00
  0.00000000E+00  0.00000000E+00  0.00000000E+00
  0.00000000E+00  0.00000000E+00  0.00000000E+00
  0.00000000E+00  0.00000000E+00  0.00000000E+00
  0.00000000E+00  0.00000000E+00  0.00000000E+00
  0.00000000E+00  0.00000000E+00  0.00000000E+00
  0.00000000E+00  0.00000000E+00  0.00000000E+00
  0.00000000E+00  0.00000000E+00  0.00000000E+00
  0.00000000E+00  0.00000000E+00  0.00000000E+00
  0.00000000E+00  0.00000000E+00  0.00000000E+00
  0.00000000E+00  0.00000000E+00  0.00000000E+00
  0.00000000E+00  0.00000000E+00  0.00000000E+00
  0.00000000E+00  0.00000000E+00  0.00000000E+00
  0.00000000E+00  0.00000000E+00  0.00000000E+00
  0.00000000E+00  0.00000000E+00  0.00000000E+00
  0.00000000E+00  0.00000000E+00  0.00000000E+00
  0.00000000E+00  0.00000000E+00  0.00000000E+00
  0.00000000E+00  0.00000000E+00  0.00000000E+00
  0.00000000E+00  0.00000000E+00  0.00000000E+00
  0.00000000E+00  0.00000000E+00  0.00000000E+00
  0.00000000E+00  0.00000000E+00  0.00000000E+00
  0.00000000E+00  0.00000000E+00  0.00000000E+00
  0.00000000E+00  0.00000000E+00  0.00000000E+00
  0.00000000E+00  0.00000000E+00  0.00000000E+00
  0.00000000E+00  0.00000000E+00  0.00000000E+00
  0.00000000E+00  0.00000000E+00  0.00000000E+00
  0.00000000E+00  0.00000000E+00  0.00000000E+00
  0.00000000E+00  0.00000000E+00  0.00000000E+00
  0.00000000E+00  0.00000000E+00  0.00000000E+00
  0.00000000E+00  0.00000000E+00  0.00000000E+00
  0.00000000E+00  0.00000000E+00  0.00000000E+00
  0.00000000E+00  0.00000000E+00  0.00000000E+00
  0.00000000E+00  0.00000000E+00  0.00000000E+00
  0.00000000E+00  0.00000000E+00  0.00000000E+00
  0.00000000E+00  0.00000000E+00  0.00000000E+00
