CONTCAR\(5)                             
   1.00000000000000     
    12.3312997818000003    0.0000000000000000    0.0000000000000000
     0.0001127485000000   12.8291997905000006    0.0000000000000000
     0.0005937186000000    0.0011528207000000   19.9943999824000009
   C    N    Fe   Ni   H 
    51     5     1     1     2
Direct
  0.0550621038252155  0.0533836101485809  0.0509895931281607
  0.1556234360103685  0.1086029554551942  0.0504372662654316
  0.1555138649209920  0.2194016242504629  0.0494849230803302
  0.0551698113141997  0.2745533097860617  0.0496600952237524
  0.2561445590432475  0.0536926126028951  0.0514774102170295
  0.3567522193619166  0.1090154273214186  0.0542878444993811
  0.3562643528854666  0.2212243537252201  0.0533889573599958
  0.2554374305454130  0.2750460018660502  0.0494587111009368
  0.4565831658238018  0.0524156307425276  0.0582457955405741
  0.5557757165270235  0.1102911435132652  0.0618866906235314
  0.5558484544830846  0.2243240806551786  0.0627742869515087
  0.4548639855595416  0.2809026236392471  0.0572831197900429
  0.6544500084631586  0.0494330791006708  0.0626529175848252
  0.7537339081858068  0.1079639198667178  0.0606343450286808
  0.7543538506102162  0.2212503604289247  0.0616394951515692
  0.6562537893023417  0.2824298202951933  0.0661197250751062
  0.8539163294458006  0.0518542044901355  0.0566198220331910
  0.9543061507837926  0.1080230900492869  0.0536666649591785
  0.9547297960337504  0.2196409139625803  0.0533065496875953
  0.8550212884731162  0.2762420942949333  0.0569283985694717
  0.0562244272452126  0.3855315900184930  0.0472117917035550
  0.1553300557734974  0.4416970776875080  0.0447357601413821
  0.1552495027299102  0.5523534909000460  0.0431090574924849
  0.0569010337942506  0.6089295393459491  0.0436906933396887
  0.2550038921382106  0.3863869022874376  0.0469302073509140
  0.3541160169156455  0.4414678893907239  0.0494808433652422
  0.3533654760521566  0.5544083633956106  0.0494057934525536
  0.2542342133186213  0.6083902829480313  0.0448561973219001
  0.7608308089812874  0.4481436360868865  0.0628155218484520
  0.8577558221523771  0.3880541573546662  0.0553644616490129
  0.9575359162779865  0.4416932212984420  0.0492159846224419
  0.9583306439083310  0.5529135479324088  0.0473236966962507
  0.8601491491476014  0.6082560620496692  0.0526484150489947
  0.0565144998143795  0.7198059127757185  0.0445082718503783
  0.1551274738146887  0.7760170543796554  0.0452046962658404
  0.1555570167782345  0.8870316770976741  0.0476825043126785
  0.0554266128328117  0.9425174481365054  0.0493067344353629
  0.2538461454450908  0.7196417614708140  0.0461273817953623
  0.3526267780834584  0.7746129530502031  0.0512343385640289
  0.3548586372757961  0.8858920806371325  0.0531347101460243
  0.2556414134991312  0.9422892621555888  0.0503475019491656
  0.4495077951645780  0.7159560356027806  0.0578047686065526
  0.5525623479754103  0.8779348975596146  0.0633760961936881
  0.4556986886880106  0.9395910642538636  0.0583851078668370
  0.7563262959884386  0.8788669003420410  0.0593776280370766
  0.6541304225191242  0.9342221921341086  0.0631072176768413
  0.8591656598066444  0.7203370467183612  0.0516856317719610
  0.9573721896766906  0.7755588353799852  0.0479407886856043
  0.9558688013845748  0.8865927611933246  0.0504610829572628
  0.8545351754511676  0.9396495944744927  0.0552953760560527
  0.6612583420195026  0.3946172524073109  0.0709954174171836
  0.4510927485603117  0.3889993984226696  0.0553397264049406
  0.4492337683704516  0.6083220927550914  0.0574254889292206
  0.7640169226036548  0.5577793836646179  0.0615214312038602
  0.5468292288981401  0.7680269131191532  0.0659548029990852
  0.7613402348447570  0.7704976885117435  0.0579638673211517
  0.6537447167107489  0.6618265987296654  0.0733227123924282
  0.5539313059127472  0.4944718987482847  0.0729281271699024
  0.6081766040350960  0.5751145819655665  0.1251867781311191
  0.6619790218130024  0.6758201524236164  0.1461007529572029
 
  0.00000000E+00  0.00000000E+00  0.00000000E+00
  0.00000000E+00  0.00000000E+00  0.00000000E+00
  0.00000000E+00  0.00000000E+00  0.00000000E+00
  0.00000000E+00  0.00000000E+00  0.00000000E+00
  0.00000000E+00  0.00000000E+00  0.00000000E+00
  0.00000000E+00  0.00000000E+00  0.00000000E+00
  0.00000000E+00  0.00000000E+00  0.00000000E+00
  0.00000000E+00  0.00000000E+00  0.00000000E+00
  0.00000000E+00  0.00000000E+00  0.00000000E+00
  0.00000000E+00  0.00000000E+00  0.00000000E+00
  0.00000000E+00  0.00000000E+00  0.00000000E+00
  0.00000000E+00  0.00000000E+00  0.00000000E+00
  0.00000000E+00  0.00000000E+00  0.00000000E+00
  0.00000000E+00  0.00000000E+00  0.00000000E+00
  0.00000000E+00  0.00000000E+00  0.00000000E+00
  0.00000000E+00  0.00000000E+00  0.00000000E+00
  0.00000000E+00  0.00000000E+00  0.00000000E+00
  0.00000000E+00  0.00000000E+00  0.00000000E+00
  0.00000000E+00  0.00000000E+00  0.00000000E+00
  0.00000000E+00  0.00000000E+00  0.00000000E+00
  0.00000000E+00  0.00000000E+00  0.00000000E+00
  0.00000000E+00  0.00000000E+00  0.00000000E+00
  0.00000000E+00  0.00000000E+00  0.00000000E+00
  0.00000000E+00  0.00000000E+00  0.00000000E+00
  0.00000000E+00  0.00000000E+00  0.00000000E+00
  0.00000000E+00  0.00000000E+00  0.00000000E+00
  0.00000000E+00  0.00000000E+00  0.00000000E+00
  0.00000000E+00  0.00000000E+00  0.00000000E+00
  0.00000000E+00  0.00000000E+00  0.00000000E+00
  0.00000000E+00  0.00000000E+00  0.00000000E+00
  0.00000000E+00  0.00000000E+00  0.00000000E+00
  0.00000000E+00  0.00000000E+00  0.00000000E+00
  0.00000000E+00  0.00000000E+00  0.00000000E+00
  0.00000000E+00  0.00000000E+00  0.00000000E+00
  0.00000000E+00  0.00000000E+00  0.00000000E+00
  0.00000000E+00  0.00000000E+00  0.00000000E+00
  0.00000000E+00  0.00000000E+00  0.00000000E+00
  0.00000000E+00  0.00000000E+00  0.00000000E+00
  0.00000000E+00  0.00000000E+00  0.00000000E+00
  0.00000000E+00  0.00000000E+00  0.00000000E+00
  0.00000000E+00  0.00000000E+00  0.00000000E+00
  0.00000000E+00  0.00000000E+00  0.00000000E+00
  0.00000000E+00  0.00000000E+00  0.00000000E+00
  0.00000000E+00  0.00000000E+00  0.00000000E+00
  0.00000000E+00  0.00000000E+00  0.00000000E+00
  0.00000000E+00  0.00000000E+00  0.00000000E+00
  0.00000000E+00  0.00000000E+00  0.00000000E+00
  0.00000000E+00  0.00000000E+00  0.00000000E+00
  0.00000000E+00  0.00000000E+00  0.00000000E+00
  0.00000000E+00  0.00000000E+00  0.00000000E+00
  0.00000000E+00  0.00000000E+00  0.00000000E+00
  0.00000000E+00  0.00000000E+00  0.00000000E+00
  0.00000000E+00  0.00000000E+00  0.00000000E+00
  0.00000000E+00  0.00000000E+00  0.00000000E+00
  0.00000000E+00  0.00000000E+00  0.00000000E+00
  0.00000000E+00  0.00000000E+00  0.00000000E+00
  0.00000000E+00  0.00000000E+00  0.00000000E+00
  0.00000000E+00  0.00000000E+00  0.00000000E+00
  0.00000000E+00  0.00000000E+00  0.00000000E+00
  0.00000000E+00  0.00000000E+00  0.00000000E+00
