CONTCAR\(2)                             
   1.00000000000000     
    12.3312997818000003    0.0000000000000000    0.0000000000000000
     0.0001127485000000   12.8291997905000006    0.0000000000000000
     0.0005937186000000    0.0011528207000000   19.9943999824000009
   C    N    Fe   Ni   O    H 
    52     4     1     1     1     1
Direct
  0.0554915130828709  0.0543899758333689  0.0491899092485214
  0.1558656893062690  0.1097358643028999  0.0492830902761137
  0.1559277506022674  0.2204063237840538  0.0477526264349844
  0.0558252061378768  0.2757625670804713  0.0467170850853137
  0.2565039162842800  0.0550791196245656  0.0515082521352797
  0.3570226959710537  0.1105321341881931  0.0550821695208927
  0.3568495404038262  0.2226108907352917  0.0541391654611418
  0.2559632569936759  0.2759294247540616  0.0487104875398414
  0.4567074459102136  0.0543577100816301  0.0595214797580706
  0.5563137518917045  0.1118159156155596  0.0630718552158772
  0.5565949078390358  0.2251693966778721  0.0647906840590273
  0.4554887071292610  0.2819054208142159  0.0594780195907752
  0.6554804037826762  0.0513730395014991  0.0625487530823674
  0.7548262458386050  0.1092064206658814  0.0590061643963279
  0.7556596663068575  0.2221081240309269  0.0599545700531688
  0.6579615283758100  0.2823845306585502  0.0671602267029768
  0.8545287527820866  0.0529217443391960  0.0543554982501837
  0.9549232580219256  0.1091840745801896  0.0511022032162633
  0.9554296301385130  0.2208430474236653  0.0502559911836244
  0.8557526692011518  0.2774601251922876  0.0540491486393807
  0.0569236873073055  0.3869294298792383  0.0438220920016232
  0.1561214811361455  0.4429234434331292  0.0423587404763237
  0.1564959236898866  0.5539077953285542  0.0411751103865112
  0.0574744923260813  0.6099811065065968  0.0408681533789534
  0.2556677744353456  0.3867697467459226  0.0458558034068143
  0.3543463915573535  0.4416667887555711  0.0503240443553750
  0.3555073700191130  0.5548242455301331  0.0509344880387803
  0.2557595530768206  0.6096610921925288  0.0445420913353498
  0.7605938697067691  0.4489354335948249  0.0607325879238078
  0.8578737642327418  0.3892369513830032  0.0519592506837607
  0.9578071620074869  0.4429841012139963  0.0451726449927600
  0.9587325438140382  0.5540089613269290  0.0433215626660129
  0.8596316569656690  0.6091091794999595  0.0480774887427264
  0.0570701719692528  0.7210729198158378  0.0421994395325021
  0.1558733992313299  0.7770921511307126  0.0442311688751602
  0.1558913679228436  0.8881027262530314  0.0469657845461852
  0.0556196514721492  0.9433565470795879  0.0477182588524478
  0.2552057403178762  0.7208224781892240  0.0464362026413788
  0.3534980619200574  0.7765956940081641  0.0536052995439585
  0.3549664953469992  0.8878739953447141  0.0547632963781796
  0.2557443095086816  0.9439027617020664  0.0507042670795057
  0.4510090166782115  0.7195541829290849  0.0628887756497131
  0.5531796187122475  0.8814162780328418  0.0655301864214054
  0.4554703314835645  0.9421447509812430  0.0601006518552806
  0.7563920271600871  0.8809104699052415  0.0576479514231657
  0.6553698684320358  0.9371093309812829  0.0630772242440030
  0.8590139899057710  0.7213469782100234  0.0480619742952605
  0.9575019228472297  0.7766139943507426  0.0451845835410583
  0.9561524631691668  0.8875687480299201  0.0482195174069708
  0.8548571632752747  0.9407251311834257  0.0531695869516577
  0.4536402716002051  0.6080520764926416  0.0633630799287728
  0.6625147394631380  0.3935512605650260  0.0738657227804383
  0.4513486809943625  0.3903669695736824  0.0584221547324387
  0.7634877037647000  0.5588334778549462  0.0570919200295150
  0.5478716462695467  0.7741876718868723  0.0706135941282420
  0.7607982361434158  0.7715390514571698  0.0554756863267982
  0.6536735518764407  0.6675278696757631  0.0732373437420785
  0.5523557286194711  0.4904986310266908  0.0864069346140138
  0.6177205299343238  0.5800624751341302  0.1506931441422534
  0.6819709857068890  0.5439272819311856  0.1674448050986537
 
  0.00000000E+00  0.00000000E+00  0.00000000E+00
  0.00000000E+00  0.00000000E+00  0.00000000E+00
  0.00000000E+00  0.00000000E+00  0.00000000E+00
  0.00000000E+00  0.00000000E+00  0.00000000E+00
  0.00000000E+00  0.00000000E+00  0.00000000E+00
  0.00000000E+00  0.00000000E+00  0.00000000E+00
  0.00000000E+00  0.00000000E+00  0.00000000E+00
  0.00000000E+00  0.00000000E+00  0.00000000E+00
  0.00000000E+00  0.00000000E+00  0.00000000E+00
  0.00000000E+00  0.00000000E+00  0.00000000E+00
  0.00000000E+00  0.00000000E+00  0.00000000E+00
  0.00000000E+00  0.00000000E+00  0.00000000E+00
  0.00000000E+00  0.00000000E+00  0.00000000E+00
  0.00000000E+00  0.00000000E+00  0.00000000E+00
  0.00000000E+00  0.00000000E+00  0.00000000E+00
  0.00000000E+00  0.00000000E+00  0.00000000E+00
  0.00000000E+00  0.00000000E+00  0.00000000E+00
  0.00000000E+00  0.00000000E+00  0.00000000E+00
  0.00000000E+00  0.00000000E+00  0.00000000E+00
  0.00000000E+00  0.00000000E+00  0.00000000E+00
  0.00000000E+00  0.00000000E+00  0.00000000E+00
  0.00000000E+00  0.00000000E+00  0.00000000E+00
  0.00000000E+00  0.00000000E+00  0.00000000E+00
  0.00000000E+00  0.00000000E+00  0.00000000E+00
  0.00000000E+00  0.00000000E+00  0.00000000E+00
  0.00000000E+00  0.00000000E+00  0.00000000E+00
  0.00000000E+00  0.00000000E+00  0.00000000E+00
  0.00000000E+00  0.00000000E+00  0.00000000E+00
  0.00000000E+00  0.00000000E+00  0.00000000E+00
  0.00000000E+00  0.00000000E+00  0.00000000E+00
  0.00000000E+00  0.00000000E+00  0.00000000E+00
  0.00000000E+00  0.00000000E+00  0.00000000E+00
  0.00000000E+00  0.00000000E+00  0.00000000E+00
  0.00000000E+00  0.00000000E+00  0.00000000E+00
  0.00000000E+00  0.00000000E+00  0.00000000E+00
  0.00000000E+00  0.00000000E+00  0.00000000E+00
  0.00000000E+00  0.00000000E+00  0.00000000E+00
  0.00000000E+00  0.00000000E+00  0.00000000E+00
  0.00000000E+00  0.00000000E+00  0.00000000E+00
  0.00000000E+00  0.00000000E+00  0.00000000E+00
  0.00000000E+00  0.00000000E+00  0.00000000E+00
  0.00000000E+00  0.00000000E+00  0.00000000E+00
  0.00000000E+00  0.00000000E+00  0.00000000E+00
  0.00000000E+00  0.00000000E+00  0.00000000E+00
  0.00000000E+00  0.00000000E+00  0.00000000E+00
  0.00000000E+00  0.00000000E+00  0.00000000E+00
  0.00000000E+00  0.00000000E+00  0.00000000E+00
  0.00000000E+00  0.00000000E+00  0.00000000E+00
  0.00000000E+00  0.00000000E+00  0.00000000E+00
  0.00000000E+00  0.00000000E+00  0.00000000E+00
  0.00000000E+00  0.00000000E+00  0.00000000E+00
  0.00000000E+00  0.00000000E+00  0.00000000E+00
  0.00000000E+00  0.00000000E+00  0.00000000E+00
  0.00000000E+00  0.00000000E+00  0.00000000E+00
  0.00000000E+00  0.00000000E+00  0.00000000E+00
  0.00000000E+00  0.00000000E+00  0.00000000E+00
  0.00000000E+00  0.00000000E+00  0.00000000E+00
  0.00000000E+00  0.00000000E+00  0.00000000E+00
  0.00000000E+00  0.00000000E+00  0.00000000E+00
  0.00000000E+00  0.00000000E+00  0.00000000E+00
