CONTCAR\(3)                             
   1.00000000000000     
    12.3312997818000003    0.0000000000000000    0.0000000000000000
     0.0001127485000000   12.8291997905000006    0.0000000000000000
     0.0005937186000000    0.0011528207000000   19.9943999824000009
   C    N    Fe   Ni   O    H 
    52     4     1     1     1     1
Direct
  0.0558013696457521  0.0545975520008990  0.0487241170609808
  0.1562260777718135  0.1099678224152241  0.0493904920068664
  0.1558162714091666  0.2206384488483994  0.0474071165783329
  0.0558739499388664  0.2764362982066929  0.0455978316324765
  0.2571997108659119  0.0555747658152079  0.0527941306471670
  0.3572718669898510  0.1120342878397170  0.0564154769954797
  0.3566637096996631  0.2240745420427201  0.0549279814484046
  0.2553367501446567  0.2764651087868358  0.0489956802895901
  0.4574329485006375  0.0567147430180635  0.0614462201538803
  0.5571106567997407  0.1150402412438775  0.0633732900546005
  0.5574895840780685  0.2294322212179244  0.0638479381442414
  0.4549622604167548  0.2846609214748662  0.0600202721471131
  0.6560823424470142  0.0547319185378526  0.0620344737626315
  0.7552629831333768  0.1115450783806632  0.0573350405299112
  0.7562560936986483  0.2239444408341843  0.0575189141637113
  0.6595755395493257  0.2855920455106786  0.0637885966518593
  0.8548422389599529  0.0545990427413632  0.0529617940726833
  0.9554553682268572  0.1097788625262319  0.0498661445515778
  0.9560620073246437  0.2211924460333098  0.0486966648605187
  0.8568140296924738  0.2777974832769630  0.0519179673383166
  0.0560681322150924  0.3876678471158422  0.0429270191800335
  0.1548252671708606  0.4438080526842113  0.0425703284908866
  0.1548466772635878  0.5548574795337227  0.0422626633376312
  0.0560428914526092  0.6111512561800267  0.0413132806598417
  0.2536480512537435  0.3870803684205686  0.0464338219472628
  0.3513247669121910  0.4419049096204568  0.0524852454061735
  0.3516430639608034  0.5536902298336105  0.0551484699204665
  0.2538276086961180  0.6103727074120818  0.0475561919263149
  0.7606730612225064  0.4466959751301454  0.0567314904507494
  0.8584860770760007  0.3887873699795898  0.0496865950780743
  0.9572251448838206  0.4439144057447121  0.0438888648773440
  0.9569712581085469  0.5552167427863296  0.0426306607889865
  0.8569169991675218  0.6085865357603715  0.0465638641473288
  0.0561502321095555  0.7219039466843040  0.0430806262951560
  0.1556831339412993  0.7777830501686694  0.0462733926056503
  0.1564910301064165  0.8886300535096254  0.0485218567795091
  0.0558786137811333  0.9436612310481527  0.0478303484469334
  0.2549443694546394  0.7215901238935896  0.0498222518901830
  0.3543857602890114  0.7758559073884493  0.0580084473060220
  0.3564896871473932  0.8878381902604692  0.0583202065206708
  0.2568621910077188  0.9439507836382131  0.0529378890517931
  0.4521655482831718  0.7169233718171353  0.0694635609886073
  0.5554081824547035  0.8850370657498942  0.0690490008160469
  0.4567033052632267  0.9441856006487082  0.0635163599391292
  0.7564237558768698  0.8838691606251484  0.0567173575775895
  0.6561467301063472  0.9411805182312147  0.0636287155876102
  0.8565844378709181  0.7218107931674920  0.0471357843393814
  0.9561220357563586  0.7768780184449189  0.0451206335418585
  0.9559292063319430  0.8882507633759628  0.0477773493534432
  0.8551725984193749  0.9426105853630236  0.0519769791672709
  0.4497002079103428  0.6042935516102356  0.0699390060842392
  0.5508571930065597  0.7745690169163181  0.0767668188231551
  0.4487839039831104  0.3924242758491089  0.0601513096196375
  0.6653638353043162  0.3940944129025236  0.0678978454276042
  0.7610226422818872  0.5542382515897982  0.0532345330864601
  0.7593262011504042  0.7753257892311006  0.0542050302928015
  0.6567448896666663  0.6712260495282810  0.0799532834197185
  0.5521807978388081  0.4957666710099639  0.0849045944285584
  0.6172645984969694  0.5837066760829305  0.1526880737447860
  0.5558202414842585  0.6134438763114581  0.1769001085647843
 
  0.00000000E+00  0.00000000E+00  0.00000000E+00
  0.00000000E+00  0.00000000E+00  0.00000000E+00
  0.00000000E+00  0.00000000E+00  0.00000000E+00
  0.00000000E+00  0.00000000E+00  0.00000000E+00
  0.00000000E+00  0.00000000E+00  0.00000000E+00
  0.00000000E+00  0.00000000E+00  0.00000000E+00
  0.00000000E+00  0.00000000E+00  0.00000000E+00
  0.00000000E+00  0.00000000E+00  0.00000000E+00
  0.00000000E+00  0.00000000E+00  0.00000000E+00
  0.00000000E+00  0.00000000E+00  0.00000000E+00
  0.00000000E+00  0.00000000E+00  0.00000000E+00
  0.00000000E+00  0.00000000E+00  0.00000000E+00
  0.00000000E+00  0.00000000E+00  0.00000000E+00
  0.00000000E+00  0.00000000E+00  0.00000000E+00
  0.00000000E+00  0.00000000E+00  0.00000000E+00
  0.00000000E+00  0.00000000E+00  0.00000000E+00
  0.00000000E+00  0.00000000E+00  0.00000000E+00
  0.00000000E+00  0.00000000E+00  0.00000000E+00
  0.00000000E+00  0.00000000E+00  0.00000000E+00
  0.00000000E+00  0.00000000E+00  0.00000000E+00
  0.00000000E+00  0.00000000E+00  0.00000000E+00
  0.00000000E+00  0.00000000E+00  0.00000000E+00
  0.00000000E+00  0.00000000E+00  0.00000000E+00
  0.00000000E+00  0.00000000E+00  0.00000000E+00
  0.00000000E+00  0.00000000E+00  0.00000000E+00
  0.00000000E+00  0.00000000E+00  0.00000000E+00
  0.00000000E+00  0.00000000E+00  0.00000000E+00
  0.00000000E+00  0.00000000E+00  0.00000000E+00
  0.00000000E+00  0.00000000E+00  0.00000000E+00
  0.00000000E+00  0.00000000E+00  0.00000000E+00
  0.00000000E+00  0.00000000E+00  0.00000000E+00
  0.00000000E+00  0.00000000E+00  0.00000000E+00
  0.00000000E+00  0.00000000E+00  0.00000000E+00
  0.00000000E+00  0.00000000E+00  0.00000000E+00
  0.00000000E+00  0.00000000E+00  0.00000000E+00
  0.00000000E+00  0.00000000E+00  0.00000000E+00
  0.00000000E+00  0.00000000E+00  0.00000000E+00
  0.00000000E+00  0.00000000E+00  0.00000000E+00
  0.00000000E+00  0.00000000E+00  0.00000000E+00
  0.00000000E+00  0.00000000E+00  0.00000000E+00
  0.00000000E+00  0.00000000E+00  0.00000000E+00
  0.00000000E+00  0.00000000E+00  0.00000000E+00
  0.00000000E+00  0.00000000E+00  0.00000000E+00
  0.00000000E+00  0.00000000E+00  0.00000000E+00
  0.00000000E+00  0.00000000E+00  0.00000000E+00
  0.00000000E+00  0.00000000E+00  0.00000000E+00
  0.00000000E+00  0.00000000E+00  0.00000000E+00
  0.00000000E+00  0.00000000E+00  0.00000000E+00
  0.00000000E+00  0.00000000E+00  0.00000000E+00
  0.00000000E+00  0.00000000E+00  0.00000000E+00
  0.00000000E+00  0.00000000E+00  0.00000000E+00
  0.00000000E+00  0.00000000E+00  0.00000000E+00
  0.00000000E+00  0.00000000E+00  0.00000000E+00
  0.00000000E+00  0.00000000E+00  0.00000000E+00
  0.00000000E+00  0.00000000E+00  0.00000000E+00
  0.00000000E+00  0.00000000E+00  0.00000000E+00
  0.00000000E+00  0.00000000E+00  0.00000000E+00
  0.00000000E+00  0.00000000E+00  0.00000000E+00
  0.00000000E+00  0.00000000E+00  0.00000000E+00
  0.00000000E+00  0.00000000E+00  0.00000000E+00
