CONTCAR\(5)                             
   1.00000000000000     
    12.3312997818000003    0.0000000000000000    0.0000000000000000
     0.0001127485000000   12.8291997905000006    0.0000000000000000
     0.0005937186000000    0.0011528207000000   19.9943999824000009
   C    N    Fe   Ni   O    H 
    54     2     1     1     2     2
Direct
  0.0569430178863506  0.0552787620334384  0.0448072623362215
  0.1572934531004371  0.1113357346101495  0.0450395021461010
  0.1585482628714836  0.2224600222920360  0.0454598197546712
  0.0581180128790703  0.2766646136325984  0.0451829411821890
  0.2569232346891979  0.0561192921474763  0.0458060731728396
  0.3574553663369510  0.1109988825751412  0.0492753229747377
  0.3584497391605366  0.2223634363117011  0.0509395822122859
  0.2590573511938798  0.2785273954919156  0.0474183893448655
  0.4569847850395005  0.0547587261098488  0.0518218448412264
  0.5573213716587685  0.1096149585794678  0.0555867553798658
  0.5581666526998694  0.2208042574496568  0.0595433844827530
  0.4582441584043544  0.2780983437600645  0.0580183599147159
  0.6563113892231729  0.0507304269724713  0.0550919950056338
  0.7566041830535238  0.1078580492354580  0.0530836854805908
  0.7578332704670993  0.2197187364253404  0.0544132247345725
  0.6589376551905588  0.2770325427354181  0.0611129747332167
  0.8563068194656155  0.0524425801420305  0.0493720194431314
  0.9563774676352357  0.1094664531582032  0.0468049853878300
  0.9573203459336174  0.2209356903819339  0.0470729621922662
  0.8575407268671208  0.2764207005277746  0.0506383075236285
  0.0593883547826347  0.3875046147250656  0.0444368204937742
  0.1595357997118413  0.4436989856875531  0.0437914268431790
  0.1597443268660410  0.5547877823898162  0.0429647368129016
  0.0596712886526858  0.6096562725142519  0.0428744303374629
  0.2605237944392891  0.3902067480335381  0.0465156906701610
  0.3614900926510207  0.4468602630137203  0.0515268025017494
  0.3619025067173812  0.5607170092644352  0.0497655216281383
  0.2590959915285037  0.6117837488866147  0.0443914549738155
  0.7590172958720151  0.4463430471584309  0.0593991781062049
  0.8584579946313026  0.3882034639144414  0.0510473368470281
  0.9591265337221584  0.4425073211653638  0.0464991247748413
  0.9602963581333829  0.5530929330963861  0.0459685047746152
  0.8609664054950475  0.6079253226223802  0.0511897747439429
  0.0582144861404812  0.7209860910893827  0.0424509828497876
  0.1563457100230956  0.7777830578140824  0.0420243298641814
  0.1561756003732423  0.8890631524276157  0.0427241370786573
  0.0563253055562723  0.9442605329286230  0.0437827331212217
  0.2556292667336779  0.7225625833195045  0.0434128326665950
  0.3531614775937198  0.7794442878055952  0.0458027258594121
  0.3548744090396988  0.8898540474278014  0.0462929631716385
  0.2556401916986086  0.9452544798685492  0.0443627709933943
  0.4512356808129664  0.7235852873442042  0.0506911090145655
  0.5528694427321702  0.8835621925889960  0.0536704552033458
  0.4554491859097941  0.9433972892126582  0.0503141546852196
  0.7556339047000022  0.8816654947565349  0.0540853779825007
  0.6550457785686580  0.9385527951307592  0.0553746276818844
  0.8610048643459161  0.7198580719550404  0.0497340225929210
  0.9587432998288860  0.7766064381535540  0.0447002899579724
  0.9567319749477544  0.8875338471586581  0.0454546596832462
  0.8556049628852330  0.9405520303750250  0.0492371424171533
  0.4575693468233967  0.3888953748377451  0.0627990391481467
  0.6618483663481699  0.3866655072113809  0.0686948833059824
  0.7604736704836408  0.5579557981328009  0.0607307475268347
  0.7611716170321022  0.7708971212200173  0.0564080240798982
  0.4562728456908810  0.6173237995016884  0.0538842588711149
  0.5473231771050899  0.7765998051876289  0.0539847703790853
  0.6515420747993214  0.6710144855557009  0.0842788698510163
  0.5583062742084779  0.4617042292308539  0.1099517683277356
  0.5606753058651268  0.5057939954753060  0.1935777905978689
  0.6378545073393929  0.7033791180080308  0.1741798617642062
  0.7004878263318479  0.6852870570437282  0.2016373253438315
  0.5682654731227009  0.5823251741944073  0.1970171552294067
 
  0.00000000E+00  0.00000000E+00  0.00000000E+00
  0.00000000E+00  0.00000000E+00  0.00000000E+00
  0.00000000E+00  0.00000000E+00  0.00000000E+00
  0.00000000E+00  0.00000000E+00  0.00000000E+00
  0.00000000E+00  0.00000000E+00  0.00000000E+00
  0.00000000E+00  0.00000000E+00  0.00000000E+00
  0.00000000E+00  0.00000000E+00  0.00000000E+00
  0.00000000E+00  0.00000000E+00  0.00000000E+00
  0.00000000E+00  0.00000000E+00  0.00000000E+00
  0.00000000E+00  0.00000000E+00  0.00000000E+00
  0.00000000E+00  0.00000000E+00  0.00000000E+00
  0.00000000E+00  0.00000000E+00  0.00000000E+00
  0.00000000E+00  0.00000000E+00  0.00000000E+00
  0.00000000E+00  0.00000000E+00  0.00000000E+00
  0.00000000E+00  0.00000000E+00  0.00000000E+00
  0.00000000E+00  0.00000000E+00  0.00000000E+00
  0.00000000E+00  0.00000000E+00  0.00000000E+00
  0.00000000E+00  0.00000000E+00  0.00000000E+00
  0.00000000E+00  0.00000000E+00  0.00000000E+00
  0.00000000E+00  0.00000000E+00  0.00000000E+00
  0.00000000E+00  0.00000000E+00  0.00000000E+00
  0.00000000E+00  0.00000000E+00  0.00000000E+00
  0.00000000E+00  0.00000000E+00  0.00000000E+00
  0.00000000E+00  0.00000000E+00  0.00000000E+00
  0.00000000E+00  0.00000000E+00  0.00000000E+00
  0.00000000E+00  0.00000000E+00  0.00000000E+00
  0.00000000E+00  0.00000000E+00  0.00000000E+00
  0.00000000E+00  0.00000000E+00  0.00000000E+00
  0.00000000E+00  0.00000000E+00  0.00000000E+00
  0.00000000E+00  0.00000000E+00  0.00000000E+00
  0.00000000E+00  0.00000000E+00  0.00000000E+00
  0.00000000E+00  0.00000000E+00  0.00000000E+00
  0.00000000E+00  0.00000000E+00  0.00000000E+00
  0.00000000E+00  0.00000000E+00  0.00000000E+00
  0.00000000E+00  0.00000000E+00  0.00000000E+00
  0.00000000E+00  0.00000000E+00  0.00000000E+00
  0.00000000E+00  0.00000000E+00  0.00000000E+00
  0.00000000E+00  0.00000000E+00  0.00000000E+00
  0.00000000E+00  0.00000000E+00  0.00000000E+00
  0.00000000E+00  0.00000000E+00  0.00000000E+00
  0.00000000E+00  0.00000000E+00  0.00000000E+00
  0.00000000E+00  0.00000000E+00  0.00000000E+00
  0.00000000E+00  0.00000000E+00  0.00000000E+00
  0.00000000E+00  0.00000000E+00  0.00000000E+00
  0.00000000E+00  0.00000000E+00  0.00000000E+00
  0.00000000E+00  0.00000000E+00  0.00000000E+00
  0.00000000E+00  0.00000000E+00  0.00000000E+00
  0.00000000E+00  0.00000000E+00  0.00000000E+00
  0.00000000E+00  0.00000000E+00  0.00000000E+00
  0.00000000E+00  0.00000000E+00  0.00000000E+00
  0.00000000E+00  0.00000000E+00  0.00000000E+00
  0.00000000E+00  0.00000000E+00  0.00000000E+00
  0.00000000E+00  0.00000000E+00  0.00000000E+00
  0.00000000E+00  0.00000000E+00  0.00000000E+00
  0.00000000E+00  0.00000000E+00  0.00000000E+00
  0.00000000E+00  0.00000000E+00  0.00000000E+00
  0.00000000E+00  0.00000000E+00  0.00000000E+00
  0.00000000E+00  0.00000000E+00  0.00000000E+00
  0.00000000E+00  0.00000000E+00  0.00000000E+00
  0.00000000E+00  0.00000000E+00  0.00000000E+00
  0.00000000E+00  0.00000000E+00  0.00000000E+00
  0.00000000E+00  0.00000000E+00  0.00000000E+00
