POSCAR\(2)                              
   1.00000000000000     
    12.3312997818000003    0.0000000000000000    0.0000000000000000
     0.0001127485000000   12.8291997905000006    0.0000000000000000
     0.0005937186000000    0.0011528207000000   19.9943999824000009
   C    N    Fe   Ni
    53     3     1     1
Direct
  0.0553993259204028  0.0541439065781961  0.0558010737662143
  0.1556052071149130  0.1101703178832795  0.0558277400571734
  0.1565531094659115  0.2209745473957388  0.0558066273503560
  0.0568611387056661  0.2758440662643744  0.0557607785714328
  0.2559193123891787  0.0560334289763964  0.0558401057683872
  0.3564691368087720  0.1118100662742649  0.0558042126860256
  0.3570576170837629  0.2236122569781682  0.0557753934470167
  0.2564436131931608  0.2771087027013595  0.0557975063738623
  0.4559831546383118  0.0560679153506094  0.0557564548556215
  0.5558382965982750  0.1129357265918853  0.0556957054822350
  0.5566801448133687  0.2253244334081691  0.0556656410632802
  0.4562310755960367  0.2824420908474312  0.0556900579156717
  0.6548928002550731  0.0529639652995449  0.0556670030026169
  0.7552942067556826  0.1093012948481374  0.0556868662005873
  0.7566854246923066  0.2214963823759419  0.0556855545701196
  0.6583702111625707  0.2813359376750660  0.0556397276118974
  0.8545416806095860  0.0524585786409208  0.0556993546696952
  0.9551057658375143  0.1088339254951061  0.0557456032848352
  0.9564991363343193  0.2203057527303643  0.0557352030056364
  0.8570416289584352  0.2765960542047588  0.0556946165028973
  0.0588628224217365  0.3869722487352082  0.0557467692910361
  0.1575657274892316  0.4436870536861198  0.0557784483202671
  0.1577130826428743  0.5547093352668165  0.0557847813088333
  0.0579787548483584  0.6099105845864292  0.0557626399426188
  0.2572199273051766  0.3881501976255732  0.0557779805100296
  0.3565939461615575  0.4431739773529460  0.0557234728031452
  0.3590135893483352  0.5568409670439393  0.0557215544483946
  0.2573150871967119  0.6106206926517213  0.0557815622988008
  0.7627033645541431  0.4469819094050381  0.0556075588714405
  0.8602529561632998  0.3880842331690628  0.0556556560379898
  0.9599156749322071  0.4424021912780371  0.0556885763422450
  0.9594348172200596  0.5529150058240554  0.0556888028951355
  0.8591068959270607  0.6067929965714823  0.0556360115866211
  0.0566059244057600  0.7210955190875632  0.0557924685718966
  0.1550952830068008  0.7772831400740730  0.0558342150652068
  0.1548871471407317  0.8885211892546993  0.0558465193494064
  0.0546628136807036  0.9430143877888106  0.0558096525110852
  0.2547285513736722  0.7217084683370782  0.0558075295544647
  0.3524282050468912  0.7788555253617320  0.0557615346412958
  0.3538522264670261  0.8898439658115163  0.0557927382956775
  0.2545443056411668  0.9450645034258244  0.0558453398357266
  0.4511729357348374  0.7236152205929289  0.0556698652526607
  0.5524566817366234  0.8853449385576745  0.0556439760663744
  0.4542607699349421  0.9444675968654932  0.0557394764281002
  0.7534584281341685  0.8812228893545828  0.0556334275809036
  0.6543140656786860  0.9403106418377301  0.0556328847689768
  0.8576941544095394  0.7187306131613658  0.0556529461200972
  0.9564109756676359  0.7754754862300024  0.0557328321573387
  0.9548244783771032  0.8865394982459173  0.0557427433488402
  0.8534929147263512  0.9400566260224138  0.0556829493180592
  0.6636702933068491  0.3912544320636224  0.0556057872168667
  0.7559380063525619  0.7681036452852896  0.0556252615730731
  0.4590337359874800  0.6124461887744311  0.0556563439391591
  0.4533478928498726  0.3907350987573699  0.0556617714698374
  0.7621084647409884  0.5561289608951363  0.0555948683654683
  0.5476065600798046  0.7789448866863206  0.0556045681610843
  0.6400087490431127  0.6653102887772371  0.0555953776748616
  0.5636578713327023  0.4935656100350130  0.0556058778914016
 
  0.00000000E+00  0.00000000E+00  0.00000000E+00
  0.00000000E+00  0.00000000E+00  0.00000000E+00
  0.00000000E+00  0.00000000E+00  0.00000000E+00
  0.00000000E+00  0.00000000E+00  0.00000000E+00
  0.00000000E+00  0.00000000E+00  0.00000000E+00
  0.00000000E+00  0.00000000E+00  0.00000000E+00
  0.00000000E+00  0.00000000E+00  0.00000000E+00
  0.00000000E+00  0.00000000E+00  0.00000000E+00
  0.00000000E+00  0.00000000E+00  0.00000000E+00
  0.00000000E+00  0.00000000E+00  0.00000000E+00
  0.00000000E+00  0.00000000E+00  0.00000000E+00
  0.00000000E+00  0.00000000E+00  0.00000000E+00
  0.00000000E+00  0.00000000E+00  0.00000000E+00
  0.00000000E+00  0.00000000E+00  0.00000000E+00
  0.00000000E+00  0.00000000E+00  0.00000000E+00
  0.00000000E+00  0.00000000E+00  0.00000000E+00
  0.00000000E+00  0.00000000E+00  0.00000000E+00
  0.00000000E+00  0.00000000E+00  0.00000000E+00
  0.00000000E+00  0.00000000E+00  0.00000000E+00
  0.00000000E+00  0.00000000E+00  0.00000000E+00
  0.00000000E+00  0.00000000E+00  0.00000000E+00
  0.00000000E+00  0.00000000E+00  0.00000000E+00
  0.00000000E+00  0.00000000E+00  0.00000000E+00
  0.00000000E+00  0.00000000E+00  0.00000000E+00
  0.00000000E+00  0.00000000E+00  0.00000000E+00
  0.00000000E+00  0.00000000E+00  0.00000000E+00
  0.00000000E+00  0.00000000E+00  0.00000000E+00
  0.00000000E+00  0.00000000E+00  0.00000000E+00
  0.00000000E+00  0.00000000E+00  0.00000000E+00
  0.00000000E+00  0.00000000E+00  0.00000000E+00
  0.00000000E+00  0.00000000E+00  0.00000000E+00
  0.00000000E+00  0.00000000E+00  0.00000000E+00
  0.00000000E+00  0.00000000E+00  0.00000000E+00
  0.00000000E+00  0.00000000E+00  0.00000000E+00
  0.00000000E+00  0.00000000E+00  0.00000000E+00
  0.00000000E+00  0.00000000E+00  0.00000000E+00
  0.00000000E+00  0.00000000E+00  0.00000000E+00
  0.00000000E+00  0.00000000E+00  0.00000000E+00
  0.00000000E+00  0.00000000E+00  0.00000000E+00
  0.00000000E+00  0.00000000E+00  0.00000000E+00
  0.00000000E+00  0.00000000E+00  0.00000000E+00
  0.00000000E+00  0.00000000E+00  0.00000000E+00
  0.00000000E+00  0.00000000E+00  0.00000000E+00
  0.00000000E+00  0.00000000E+00  0.00000000E+00
  0.00000000E+00  0.00000000E+00  0.00000000E+00
  0.00000000E+00  0.00000000E+00  0.00000000E+00
  0.00000000E+00  0.00000000E+00  0.00000000E+00
  0.00000000E+00  0.00000000E+00  0.00000000E+00
  0.00000000E+00  0.00000000E+00  0.00000000E+00
  0.00000000E+00  0.00000000E+00  0.00000000E+00
  0.00000000E+00  0.00000000E+00  0.00000000E+00
  0.00000000E+00  0.00000000E+00  0.00000000E+00
  0.00000000E+00  0.00000000E+00  0.00000000E+00
  0.00000000E+00  0.00000000E+00  0.00000000E+00
  0.00000000E+00  0.00000000E+00  0.00000000E+00
  0.00000000E+00  0.00000000E+00  0.00000000E+00
  0.00000000E+00  0.00000000E+00  0.00000000E+00
  0.00000000E+00  0.00000000E+00  0.00000000E+00
