CONTCAR\(2)                             
   1.00000000000000     
    12.3312997818000003    0.0000000000000000    0.0000000000000000
     0.0001127485000000   12.8291997905000006    0.0000000000000000
     0.0005937186000000    0.0011528207000000   19.9943999824000009
   C    N    Fe   Ni   H 
    54     2     1     1     2
Direct
  0.0553589085468098  0.0520092638734486  0.0537388108127629
  0.1553321544627265  0.1081707174072545  0.0537439543370365
  0.1561129039248091  0.2189711654594191  0.0536395270635407
  0.0564943987695160  0.2736603353830785  0.0533642960589303
  0.2554013138177147  0.0539855924628051  0.0539008003496960
  0.3558401057928784  0.1098087871879622  0.0541656280886872
  0.3564781529359403  0.2215590850820875  0.0541218290851098
  0.2559887068179533  0.2750947961085473  0.0537992978569627
  0.4550791353143151  0.0539493056554161  0.0543809489973231
  0.5549858515662797  0.1100125768022425  0.0546077426671125
  0.5556716840911339  0.2220411176668956  0.0544770842672152
  0.4556546038956544  0.2799552881488473  0.0542490378509644
  0.6543333171651134  0.0503437728781303  0.0549147416472220
  0.7550722323188520  0.1062794733980991  0.0544891159814567
  0.7565029817842944  0.2180055117742335  0.0542296224655771
  0.6574818698112901  0.2765130585814675  0.0545604021817690
  0.8544567583049560  0.0498644389255084  0.0542014871855801
  0.9550280303485471  0.1062876548846847  0.0537288415677072
  0.9562556743056363  0.2175389826593373  0.0534757935280639
  0.8569224935322759  0.2733151695897283  0.0536485149607885
  0.0581796687931606  0.3849287908577397  0.0531061843810290
  0.1571636284034995  0.4412861644357285  0.0531647724449680
  0.1573755391122160  0.5526408785780749  0.0529957537839035
  0.0575978747309648  0.6075231028283742  0.0529551141577481
  0.2566772088965752  0.3860206620103237  0.0536214048904956
  0.3568099321070614  0.4408867288942098  0.0538735600513384
  0.3591774577817682  0.5549424186868134  0.0539470302682017
  0.2570394600980345  0.6084200027473322  0.0532800533942561
  0.7613331940236859  0.4420420752542031  0.0545001767324007
  0.8598903888728845  0.3845795180462964  0.0535110981152584
  0.9588602994440051  0.4400926014737235  0.0530451625359798
  0.9581599806768981  0.5510473959884176  0.0530228023798823
  0.8582899009765578  0.6058691992838746  0.0537600304788377
  0.0564290549331549  0.7189701912975019  0.0531721112937035
  0.1548138538401252  0.7749791677273645  0.0533400925508087
  0.1546246803457859  0.8863479336279168  0.0536183795017174
  0.0547390655854362  0.9410698624815211  0.0537780635703613
  0.2542084705788644  0.7193960777127650  0.0533660383923533
  0.3517729523982919  0.7767172607788094  0.0537375047556325
  0.3532531206299154  0.8877606840097205  0.0538965657766063
  0.2540686415780132  0.9429683661516297  0.0537725076650004
  0.4505567245123358  0.7220704267455594  0.0542742816460019
  0.5514997687543870  0.8837242238900938  0.0550374168814751
  0.4533487662445421  0.9425924872136948  0.0542788889049393
  0.7533095653362334  0.8789941520700613  0.0557142141741106
  0.6537403398210194  0.9381017962517463  0.0555095916780671
  0.8583499170149136  0.7179516581666452  0.0543926584546362
  0.9566527623977277  0.7741601013072610  0.0536320497423047
  0.9548770971346086  0.8848969572447314  0.0540077752277448
  0.8535300009910440  0.9379180702256018  0.0545716322940171
  0.4588200003090504  0.6104046625276931  0.0547517549869862
  0.6632598834703202  0.3854654607212684  0.0549120270778190
  0.7569475883019983  0.5541699498117999  0.0551292236041731
  0.7565100285732245  0.7667025527383660  0.0565086419379064
  0.4531824488064333  0.3886739841652715  0.0540514060150797
  0.5462235282821102  0.7780056218245557  0.0553599998481106
  0.6383971977842128  0.6612384859525537  0.0607695117113498
  0.5659359342122797  0.4898612604630671  0.0547829547586690
  0.6542363672156153  0.6718354531240039  0.1636726029593592
  0.6056864465243329  0.6335475457544902  0.1613014730232492
 
  0.00000000E+00  0.00000000E+00  0.00000000E+00
  0.00000000E+00  0.00000000E+00  0.00000000E+00
  0.00000000E+00  0.00000000E+00  0.00000000E+00
  0.00000000E+00  0.00000000E+00  0.00000000E+00
  0.00000000E+00  0.00000000E+00  0.00000000E+00
  0.00000000E+00  0.00000000E+00  0.00000000E+00
  0.00000000E+00  0.00000000E+00  0.00000000E+00
  0.00000000E+00  0.00000000E+00  0.00000000E+00
  0.00000000E+00  0.00000000E+00  0.00000000E+00
  0.00000000E+00  0.00000000E+00  0.00000000E+00
  0.00000000E+00  0.00000000E+00  0.00000000E+00
  0.00000000E+00  0.00000000E+00  0.00000000E+00
  0.00000000E+00  0.00000000E+00  0.00000000E+00
  0.00000000E+00  0.00000000E+00  0.00000000E+00
  0.00000000E+00  0.00000000E+00  0.00000000E+00
  0.00000000E+00  0.00000000E+00  0.00000000E+00
  0.00000000E+00  0.00000000E+00  0.00000000E+00
  0.00000000E+00  0.00000000E+00  0.00000000E+00
  0.00000000E+00  0.00000000E+00  0.00000000E+00
  0.00000000E+00  0.00000000E+00  0.00000000E+00
  0.00000000E+00  0.00000000E+00  0.00000000E+00
  0.00000000E+00  0.00000000E+00  0.00000000E+00
  0.00000000E+00  0.00000000E+00  0.00000000E+00
  0.00000000E+00  0.00000000E+00  0.00000000E+00
  0.00000000E+00  0.00000000E+00  0.00000000E+00
  0.00000000E+00  0.00000000E+00  0.00000000E+00
  0.00000000E+00  0.00000000E+00  0.00000000E+00
  0.00000000E+00  0.00000000E+00  0.00000000E+00
  0.00000000E+00  0.00000000E+00  0.00000000E+00
  0.00000000E+00  0.00000000E+00  0.00000000E+00
  0.00000000E+00  0.00000000E+00  0.00000000E+00
  0.00000000E+00  0.00000000E+00  0.00000000E+00
  0.00000000E+00  0.00000000E+00  0.00000000E+00
  0.00000000E+00  0.00000000E+00  0.00000000E+00
  0.00000000E+00  0.00000000E+00  0.00000000E+00
  0.00000000E+00  0.00000000E+00  0.00000000E+00
  0.00000000E+00  0.00000000E+00  0.00000000E+00
  0.00000000E+00  0.00000000E+00  0.00000000E+00
  0.00000000E+00  0.00000000E+00  0.00000000E+00
  0.00000000E+00  0.00000000E+00  0.00000000E+00
  0.00000000E+00  0.00000000E+00  0.00000000E+00
  0.00000000E+00  0.00000000E+00  0.00000000E+00
  0.00000000E+00  0.00000000E+00  0.00000000E+00
  0.00000000E+00  0.00000000E+00  0.00000000E+00
  0.00000000E+00  0.00000000E+00  0.00000000E+00
  0.00000000E+00  0.00000000E+00  0.00000000E+00
  0.00000000E+00  0.00000000E+00  0.00000000E+00
  0.00000000E+00  0.00000000E+00  0.00000000E+00
  0.00000000E+00  0.00000000E+00  0.00000000E+00
  0.00000000E+00  0.00000000E+00  0.00000000E+00
  0.00000000E+00  0.00000000E+00  0.00000000E+00
  0.00000000E+00  0.00000000E+00  0.00000000E+00
  0.00000000E+00  0.00000000E+00  0.00000000E+00
  0.00000000E+00  0.00000000E+00  0.00000000E+00
  0.00000000E+00  0.00000000E+00  0.00000000E+00
  0.00000000E+00  0.00000000E+00  0.00000000E+00
  0.00000000E+00  0.00000000E+00  0.00000000E+00
  0.00000000E+00  0.00000000E+00  0.00000000E+00
  0.00000000E+00  0.00000000E+00  0.00000000E+00
  0.00000000E+00  0.00000000E+00  0.00000000E+00
