CONTCAR                                 
   1.00000000000000     
    12.3312997818000003    0.0000000000000000    0.0000000000000000
     0.0001127485000000   12.8291997905000006    0.0000000000000000
     0.0005937186000000    0.0011528207000000   19.9943999824000009
   C    N    Fe   Ni   O    H 
    54     2     1     1     2     2
Direct
  0.0569778890609362  0.0552419458575297  0.0497476844290035
  0.1568963108925429  0.1105061547113112  0.0494556781910727
  0.1567358420626030  0.2214584370557686  0.0488854601718998
  0.0570517542934027  0.2770939768508156  0.0488593538803822
  0.2570551706956403  0.0553144277263740  0.0507171343718752
  0.3574009583285551  0.1107937569484290  0.0529154527515788
  0.3570154298232225  0.2221394824984792  0.0529684388477408
  0.2567479056036472  0.2766799237630901  0.0499310702639475
  0.4571381044671634  0.0553456379219066  0.0558395727659821
  0.5570756499467479  0.1116782982109518  0.0588746870088330
  0.5567396247325426  0.2235349702212644  0.0610432835820166
  0.4557867059275294  0.2795924914385124  0.0575745253067320
  0.6576361890506703  0.0532424909417381  0.0588930598676352
  0.7570028822085377  0.1104722894829142  0.0564955735638077
  0.7572398611932449  0.2223867035827195  0.0574774255773946
  0.6576135362001457  0.2801380880919039  0.0635680719915768
  0.8563763758463780  0.0543450050528546  0.0536455483495560
  0.9565978528743113  0.1103031902665448  0.0510756194717508
  0.9567306739300856  0.2216223808338190  0.0508089003893396
  0.8570633241846346  0.2778676080778870  0.0540796566727651
  0.0579425029414870  0.3884436262242404  0.0483501947408563
  0.1576695343307663  0.4435772699160443  0.0481960536971668
  0.1589321766455861  0.5549443370599335  0.0485390244782576
  0.0589377982104815  0.6104737305317707  0.0482060846604331
  0.2570603535107993  0.3873453100076121  0.0495822800564632
  0.3575436921752102  0.4409633821111666  0.0534187338771010
  0.3613888363059061  0.5543548872617392  0.0557990263433766
  0.2593028811223352  0.6097391270832346  0.0511004242567004
  0.7597694206481326  0.4474035981702953  0.0631934029731207
  0.8584094707474440  0.3895250518289021  0.0544976065333608
  0.9581123931461614  0.4445563010259258  0.0501218024237954
  0.9587573629031156  0.5555375346563521  0.0497155644523134
  0.8584892093609118  0.6111708716969804  0.0540153601185824
  0.0578464319538370  0.7216565603236329  0.0487512045445909
  0.1568120057292748  0.7770184343359045  0.0493923941886125
  0.1571488269263289  0.8885290129981891  0.0496224905342729
  0.0573777857730977  0.9442585240468071  0.0496909351619945
  0.2565413239673583  0.7209305545683919  0.0513527232255554
  0.3545663424925056  0.7773302350060860  0.0548487526674389
  0.3566644210387468  0.8884820029683321  0.0536434814637304
  0.2568817441540368  0.9443115191404621  0.0508643562440522
  0.4532151959331542  0.7209595125195573  0.0623323928154000
  0.5563387715653849  0.8863323701510234  0.0607185482421634
  0.4567264554894780  0.9438389799346443  0.0563838757200001
  0.7581683302010609  0.8834083061322291  0.0576717602479724
  0.6580300714319866  0.9412949714019961  0.0598330895585991
  0.8586361738987708  0.7239221008962469  0.0532306146021931
  0.9581686173583908  0.7781074848445662  0.0502311785163394
  0.9576985773526419  0.8887734548867791  0.0509963246376585
  0.8567688637017175  0.9423147041494175  0.0539672495441456
  0.4601279392284136  0.6088364072570427  0.0657408029205909
  0.6631188637630731  0.3888144244855788  0.0718151779559378
  0.7596029740143602  0.5590070433182849  0.0637383644004628
  0.5499669688264850  0.7783006886133508  0.0653893931645111
  0.4526852337759794  0.3874677943891949  0.0584312984172908
  0.7613028055496033  0.7745567634910790  0.0577032222228534
  0.6449903492074134  0.6659495472140179  0.0857210825874637
  0.5534530735266979  0.4753343824938064  0.1007267739723861
  0.5914565578961405  0.4999101919868464  0.1847464968679339
  0.6522374782452918  0.6955068508478235  0.1781642696437636
  0.7215177326215881  0.7231391782264657  0.1933593306705107
  0.6152223250063087  0.5728358282632313  0.1945206661951410
 
  0.00000000E+00  0.00000000E+00  0.00000000E+00
  0.00000000E+00  0.00000000E+00  0.00000000E+00
  0.00000000E+00  0.00000000E+00  0.00000000E+00
  0.00000000E+00  0.00000000E+00  0.00000000E+00
  0.00000000E+00  0.00000000E+00  0.00000000E+00
  0.00000000E+00  0.00000000E+00  0.00000000E+00
  0.00000000E+00  0.00000000E+00  0.00000000E+00
  0.00000000E+00  0.00000000E+00  0.00000000E+00
  0.00000000E+00  0.00000000E+00  0.00000000E+00
  0.00000000E+00  0.00000000E+00  0.00000000E+00
  0.00000000E+00  0.00000000E+00  0.00000000E+00
  0.00000000E+00  0.00000000E+00  0.00000000E+00
  0.00000000E+00  0.00000000E+00  0.00000000E+00
  0.00000000E+00  0.00000000E+00  0.00000000E+00
  0.00000000E+00  0.00000000E+00  0.00000000E+00
  0.00000000E+00  0.00000000E+00  0.00000000E+00
  0.00000000E+00  0.00000000E+00  0.00000000E+00
  0.00000000E+00  0.00000000E+00  0.00000000E+00
  0.00000000E+00  0.00000000E+00  0.00000000E+00
  0.00000000E+00  0.00000000E+00  0.00000000E+00
  0.00000000E+00  0.00000000E+00  0.00000000E+00
  0.00000000E+00  0.00000000E+00  0.00000000E+00
  0.00000000E+00  0.00000000E+00  0.00000000E+00
  0.00000000E+00  0.00000000E+00  0.00000000E+00
  0.00000000E+00  0.00000000E+00  0.00000000E+00
  0.00000000E+00  0.00000000E+00  0.00000000E+00
  0.00000000E+00  0.00000000E+00  0.00000000E+00
  0.00000000E+00  0.00000000E+00  0.00000000E+00
  0.00000000E+00  0.00000000E+00  0.00000000E+00
  0.00000000E+00  0.00000000E+00  0.00000000E+00
  0.00000000E+00  0.00000000E+00  0.00000000E+00
  0.00000000E+00  0.00000000E+00  0.00000000E+00
  0.00000000E+00  0.00000000E+00  0.00000000E+00
  0.00000000E+00  0.00000000E+00  0.00000000E+00
  0.00000000E+00  0.00000000E+00  0.00000000E+00
  0.00000000E+00  0.00000000E+00  0.00000000E+00
  0.00000000E+00  0.00000000E+00  0.00000000E+00
  0.00000000E+00  0.00000000E+00  0.00000000E+00
  0.00000000E+00  0.00000000E+00  0.00000000E+00
  0.00000000E+00  0.00000000E+00  0.00000000E+00
  0.00000000E+00  0.00000000E+00  0.00000000E+00
  0.00000000E+00  0.00000000E+00  0.00000000E+00
  0.00000000E+00  0.00000000E+00  0.00000000E+00
  0.00000000E+00  0.00000000E+00  0.00000000E+00
  0.00000000E+00  0.00000000E+00  0.00000000E+00
  0.00000000E+00  0.00000000E+00  0.00000000E+00
  0.00000000E+00  0.00000000E+00  0.00000000E+00
  0.00000000E+00  0.00000000E+00  0.00000000E+00
  0.00000000E+00  0.00000000E+00  0.00000000E+00
  0.00000000E+00  0.00000000E+00  0.00000000E+00
  0.00000000E+00  0.00000000E+00  0.00000000E+00
  0.00000000E+00  0.00000000E+00  0.00000000E+00
  0.00000000E+00  0.00000000E+00  0.00000000E+00
  0.00000000E+00  0.00000000E+00  0.00000000E+00
  0.00000000E+00  0.00000000E+00  0.00000000E+00
  0.00000000E+00  0.00000000E+00  0.00000000E+00
  0.00000000E+00  0.00000000E+00  0.00000000E+00
  0.00000000E+00  0.00000000E+00  0.00000000E+00
  0.00000000E+00  0.00000000E+00  0.00000000E+00
  0.00000000E+00  0.00000000E+00  0.00000000E+00
  0.00000000E+00  0.00000000E+00  0.00000000E+00
  0.00000000E+00  0.00000000E+00  0.00000000E+00
