CONTCAR\(6)                             
   1.00000000000000     
    12.3312997818000003    0.0000000000000000    0.0000000000000000
     0.0001127485000000   12.8291997905000006    0.0000000000000000
     0.0005937186000000    0.0011528207000000   19.9943999824000009
   C    N    Fe   Ni   O    H 
    51     5     1     1     2     2
Direct
  0.0565804287227758  0.0514397335015896  0.0478270144221326
  0.1571886952098151  0.1073775532892279  0.0474416941239255
  0.1575126017696764  0.2183393549729962  0.0463065452003198
  0.0575071503304569  0.2733141560685921  0.0457505111649316
  0.2575643356878207  0.0528446317222001  0.0489674697231306
  0.3579394480510759  0.1088490981996017  0.0514196201003704
  0.3575906911652659  0.2206043830602403  0.0509510029052757
  0.2573021678227465  0.2747276110513102  0.0472199066371765
  0.4581555839145620  0.0536598793749536  0.0548115649106449
  0.5576127894345534  0.1117319152365320  0.0574093517526488
  0.5584375946648108  0.2258960612610439  0.0583207185023858
  0.4558463741898017  0.2806558189952628  0.0554753121626064
  0.6554015522479086  0.0508543467490619  0.0578022239249688
  0.7556676413353033  0.1072153661270166  0.0551507686739528
  0.7572153972820489  0.2198294583587567  0.0550154153441851
  0.6606285546402917  0.2817439914829062  0.0590995840211635
  0.8556240943981528  0.0507090068008642  0.0521636541086881
  0.9561995614643000  0.1063648309216210  0.0491506774198673
  0.9572346052497763  0.2178285575564422  0.0482242111382564
  0.8580378679700338  0.2740137411119950  0.0510675104682601
  0.0585812922301753  0.3841977118856155  0.0444948228878398
  0.1577184848462459  0.4408959169650120  0.0437717096580012
  0.1582083148752528  0.5517152098467811  0.0439370125463812
  0.0588322304853886  0.6073109375426632  0.0444541834503409
  0.2570243893937321  0.3861606898482299  0.0457752402745421
  0.3568768106344489  0.4411369071169252  0.0500479731634390
  0.3588304035721319  0.5549453094369943  0.0510323001103841
  0.2580611069666356  0.6077420376087046  0.0464422502170410
  0.7623785032459084  0.4431499187339734  0.0574194891622210
  0.8602968887081185  0.3853001546072584  0.0506596341810721
  0.9598345458820464  0.4396626427387337  0.0466091604020211
  0.9596858330533247  0.5504057813778515  0.0468400720186143
  0.8598788893939009  0.6031466721813679  0.0523247564312738
  0.0579720799682427  0.7182264727176898  0.0452756498889310
  0.1570464495778129  0.7745505365502144  0.0458183204336018
  0.1568256995510378  0.8855898010792931  0.0469987517491754
  0.0562716343863187  0.9403693016101071  0.0476174993533924
  0.2563546719998172  0.7190467126145929  0.0470401123772652
  0.3551145330358377  0.7746467579757237  0.0504312352499688
  0.3564110842276901  0.8860342370390729  0.0510916026589171
  0.2568270128515365  0.9414775159077994  0.0487237756459794
  0.4533526795669265  0.7172104324174241  0.0561756973757902
  0.5536583967844458  0.8803271650671977  0.0589265267735398
  0.4568349316816565  0.9410565358212076  0.0548979987468798
  0.7553611921134357  0.8804071033989996  0.0574220528553286
  0.6546039755899341  0.9370449186101616  0.0592485672916798
  0.8593418932725240  0.7155038915976675  0.0521779458326756
  0.9580361905234568  0.7725931845452875  0.0477693432989502
  0.9561832613379347  0.8840761327997781  0.0490072679359085
  0.8553109870648429  0.9385921550627928  0.0524702589838279
  0.7605534297484731  0.7691736658606040  0.0598770817754393
  0.4513509744945652  0.3874983616139748  0.0567254201711160
  0.4554966253130906  0.6093720837002289  0.0580109237668116
  0.6668096168043349  0.3902418780621485  0.0628457373331958
  0.7624954372108921  0.5514937516573005  0.0594043656935338
  0.5491583608623049  0.7714940974974477  0.0611267333187531
  0.6578948491814381  0.6727625318927231  0.0911882223778475
  0.5544997892134439  0.4850394435570166  0.0966711824055411
  0.5628762136879824  0.5144407457789431  0.1843113434128852
  0.6701192524662680  0.6959089020511144  0.1820388897491845
  0.7394491168759680  0.7142107615939906  0.2019342705199422
  0.5957548107692913  0.5810515651871695  0.1988698488158685
 
  0.00000000E+00  0.00000000E+00  0.00000000E+00
  0.00000000E+00  0.00000000E+00  0.00000000E+00
  0.00000000E+00  0.00000000E+00  0.00000000E+00
  0.00000000E+00  0.00000000E+00  0.00000000E+00
  0.00000000E+00  0.00000000E+00  0.00000000E+00
  0.00000000E+00  0.00000000E+00  0.00000000E+00
  0.00000000E+00  0.00000000E+00  0.00000000E+00
  0.00000000E+00  0.00000000E+00  0.00000000E+00
  0.00000000E+00  0.00000000E+00  0.00000000E+00
  0.00000000E+00  0.00000000E+00  0.00000000E+00
  0.00000000E+00  0.00000000E+00  0.00000000E+00
  0.00000000E+00  0.00000000E+00  0.00000000E+00
  0.00000000E+00  0.00000000E+00  0.00000000E+00
  0.00000000E+00  0.00000000E+00  0.00000000E+00
  0.00000000E+00  0.00000000E+00  0.00000000E+00
  0.00000000E+00  0.00000000E+00  0.00000000E+00
  0.00000000E+00  0.00000000E+00  0.00000000E+00
  0.00000000E+00  0.00000000E+00  0.00000000E+00
  0.00000000E+00  0.00000000E+00  0.00000000E+00
  0.00000000E+00  0.00000000E+00  0.00000000E+00
  0.00000000E+00  0.00000000E+00  0.00000000E+00
  0.00000000E+00  0.00000000E+00  0.00000000E+00
  0.00000000E+00  0.00000000E+00  0.00000000E+00
  0.00000000E+00  0.00000000E+00  0.00000000E+00
  0.00000000E+00  0.00000000E+00  0.00000000E+00
  0.00000000E+00  0.00000000E+00  0.00000000E+00
  0.00000000E+00  0.00000000E+00  0.00000000E+00
  0.00000000E+00  0.00000000E+00  0.00000000E+00
  0.00000000E+00  0.00000000E+00  0.00000000E+00
  0.00000000E+00  0.00000000E+00  0.00000000E+00
  0.00000000E+00  0.00000000E+00  0.00000000E+00
  0.00000000E+00  0.00000000E+00  0.00000000E+00
  0.00000000E+00  0.00000000E+00  0.00000000E+00
  0.00000000E+00  0.00000000E+00  0.00000000E+00
  0.00000000E+00  0.00000000E+00  0.00000000E+00
  0.00000000E+00  0.00000000E+00  0.00000000E+00
  0.00000000E+00  0.00000000E+00  0.00000000E+00
  0.00000000E+00  0.00000000E+00  0.00000000E+00
  0.00000000E+00  0.00000000E+00  0.00000000E+00
  0.00000000E+00  0.00000000E+00  0.00000000E+00
  0.00000000E+00  0.00000000E+00  0.00000000E+00
  0.00000000E+00  0.00000000E+00  0.00000000E+00
  0.00000000E+00  0.00000000E+00  0.00000000E+00
  0.00000000E+00  0.00000000E+00  0.00000000E+00
  0.00000000E+00  0.00000000E+00  0.00000000E+00
  0.00000000E+00  0.00000000E+00  0.00000000E+00
  0.00000000E+00  0.00000000E+00  0.00000000E+00
  0.00000000E+00  0.00000000E+00  0.00000000E+00
  0.00000000E+00  0.00000000E+00  0.00000000E+00
  0.00000000E+00  0.00000000E+00  0.00000000E+00
  0.00000000E+00  0.00000000E+00  0.00000000E+00
  0.00000000E+00  0.00000000E+00  0.00000000E+00
  0.00000000E+00  0.00000000E+00  0.00000000E+00
  0.00000000E+00  0.00000000E+00  0.00000000E+00
  0.00000000E+00  0.00000000E+00  0.00000000E+00
  0.00000000E+00  0.00000000E+00  0.00000000E+00
  0.00000000E+00  0.00000000E+00  0.00000000E+00
  0.00000000E+00  0.00000000E+00  0.00000000E+00
  0.00000000E+00  0.00000000E+00  0.00000000E+00
  0.00000000E+00  0.00000000E+00  0.00000000E+00
  0.00000000E+00  0.00000000E+00  0.00000000E+00
  0.00000000E+00  0.00000000E+00  0.00000000E+00
