CONTCAR\(5)                             
   1.00000000000000     
    12.3312997818000003    0.0000000000000000    0.0000000000000000
     0.0001127485000000   12.8291997905000006    0.0000000000000000
     0.0005937186000000    0.0011528207000000   19.9943999824000009
   C    N    Fe   Ni   H 
    54     2     1     1     2
Direct
  0.0554844786716573  0.0526285778194233  0.0521027780831470
  0.1557356523577331  0.1089279109342000  0.0518854657086303
  0.1569649892913827  0.2199591826219783  0.0523606889210995
  0.0568055986905384  0.2738565852907981  0.0527201198412707
  0.2555872596878894  0.0544150301859965  0.0517159343096329
  0.3562002272777635  0.1100207240406338  0.0531233910394801
  0.3575699113452618  0.2219479625035743  0.0536751746069631
  0.2573434949266805  0.2765325228292431  0.0528089831674620
  0.4551956865556411  0.0534424306118774  0.0543452407630968
  0.5557521804341383  0.1083255999835155  0.0561418190504655
  0.5566961839201123  0.2198180264293000  0.0563449355948345
  0.4579565434295701  0.2790280679107211  0.0551061141186244
  0.6545629083865291  0.0487590540168227  0.0572198110339637
  0.7551268014401227  0.1053293051899146  0.0566260018194169
  0.7566911936393554  0.2172266043406151  0.0567360346873006
  0.6577404746182292  0.2751249186885802  0.0574983047721944
  0.8546072789368896  0.0495701695440703  0.0550758090341555
  0.9551035676517190  0.1064011967202660  0.0535867770345021
  0.9564442725302021  0.2175996495465102  0.0537516393018171
  0.8569418616525869  0.2729616649220787  0.0552784722762793
  0.0579029040736870  0.3849741400133906  0.0522579799035393
  0.1572005201795788  0.4414751914677379  0.0516198671914443
  0.1566810237359622  0.5526534941732336  0.0505990424729760
  0.0571801896472372  0.6074139930226473  0.0504487798310423
  0.2575643735627928  0.3878980769937053  0.0526414385038679
  0.3580158791087789  0.4448093799917774  0.0535845025359868
  0.3572083249769495  0.5582435312249329  0.0530900386489140
  0.2558876777616280  0.6099962273752340  0.0507821661462155
  0.7601068036168455  0.4416207145706937  0.0579607070972868
  0.8590636076347493  0.3842996129615404  0.0552118506452708
  0.9583658681276555  0.4397962789359491  0.0529957800248431
  0.9577296300911291  0.5507368140341851  0.0521453612796796
  0.8581418411530259  0.6053668551327713  0.0543523105708779
  0.0559632457663688  0.7189414768913738  0.0499159312721451
  0.1540545969858629  0.7758435536908632  0.0493031594967454
  0.1542758371419758  0.8871047595850746  0.0498965341962690
  0.0545726314386732  0.9416536025372090  0.0512180587219377
  0.2528687955907848  0.7207069763423968  0.0498350990481367
  0.3507401048482104  0.7770124340779110  0.0510590641672995
  0.3529279559832412  0.8879236470375019  0.0515867901912620
  0.2539968618559827  0.9433696937265861  0.0506689886197839
  0.4484815823571950  0.7215040833350569  0.0539005128462752
  0.5505567533161320  0.8823555624319273  0.0566957345242884
  0.4533459947923109  0.9419437230496968  0.0539079573637749
  0.7534771524914651  0.8784045545917878  0.0581659148756680
  0.6532941108553603  0.9363056764305179  0.0581551251321821
  0.8585961002529386  0.7174005834658252  0.0548427704270662
  0.9565926537964676  0.7740411181424111  0.0517704155001343
  0.9548795568733925  0.8849500878193792  0.0525744504701429
  0.8535789054805291  0.9376473195018806  0.0551508761668066
  0.4575048655406063  0.3909560959269220  0.0548191845999100
  0.6618041884023675  0.3845449497985351  0.0583933323341003
  0.7564512891077110  0.5542038947427999  0.0588374620478210
  0.7574238089992491  0.7664380336609121  0.0599653658763602
  0.4534528212540652  0.6135862833028317  0.0550146199396310
  0.5442829654387621  0.7752204330658136  0.0577954162087805
  0.6422552317511000  0.6650188273072130  0.0686270525609243
  0.5672078234125342  0.4899318285793173  0.0561851569750021
  0.6613721615061758  0.6585903381112560  0.1626083863391327
  0.6005528146465033  0.6394511768190553  0.1608633120821269
 
  0.00000000E+00  0.00000000E+00  0.00000000E+00
  0.00000000E+00  0.00000000E+00  0.00000000E+00
  0.00000000E+00  0.00000000E+00  0.00000000E+00
  0.00000000E+00  0.00000000E+00  0.00000000E+00
  0.00000000E+00  0.00000000E+00  0.00000000E+00
  0.00000000E+00  0.00000000E+00  0.00000000E+00
  0.00000000E+00  0.00000000E+00  0.00000000E+00
  0.00000000E+00  0.00000000E+00  0.00000000E+00
  0.00000000E+00  0.00000000E+00  0.00000000E+00
  0.00000000E+00  0.00000000E+00  0.00000000E+00
  0.00000000E+00  0.00000000E+00  0.00000000E+00
  0.00000000E+00  0.00000000E+00  0.00000000E+00
  0.00000000E+00  0.00000000E+00  0.00000000E+00
  0.00000000E+00  0.00000000E+00  0.00000000E+00
  0.00000000E+00  0.00000000E+00  0.00000000E+00
  0.00000000E+00  0.00000000E+00  0.00000000E+00
  0.00000000E+00  0.00000000E+00  0.00000000E+00
  0.00000000E+00  0.00000000E+00  0.00000000E+00
  0.00000000E+00  0.00000000E+00  0.00000000E+00
  0.00000000E+00  0.00000000E+00  0.00000000E+00
  0.00000000E+00  0.00000000E+00  0.00000000E+00
  0.00000000E+00  0.00000000E+00  0.00000000E+00
  0.00000000E+00  0.00000000E+00  0.00000000E+00
  0.00000000E+00  0.00000000E+00  0.00000000E+00
  0.00000000E+00  0.00000000E+00  0.00000000E+00
  0.00000000E+00  0.00000000E+00  0.00000000E+00
  0.00000000E+00  0.00000000E+00  0.00000000E+00
  0.00000000E+00  0.00000000E+00  0.00000000E+00
  0.00000000E+00  0.00000000E+00  0.00000000E+00
  0.00000000E+00  0.00000000E+00  0.00000000E+00
  0.00000000E+00  0.00000000E+00  0.00000000E+00
  0.00000000E+00  0.00000000E+00  0.00000000E+00
  0.00000000E+00  0.00000000E+00  0.00000000E+00
  0.00000000E+00  0.00000000E+00  0.00000000E+00
  0.00000000E+00  0.00000000E+00  0.00000000E+00
  0.00000000E+00  0.00000000E+00  0.00000000E+00
  0.00000000E+00  0.00000000E+00  0.00000000E+00
  0.00000000E+00  0.00000000E+00  0.00000000E+00
  0.00000000E+00  0.00000000E+00  0.00000000E+00
  0.00000000E+00  0.00000000E+00  0.00000000E+00
  0.00000000E+00  0.00000000E+00  0.00000000E+00
  0.00000000E+00  0.00000000E+00  0.00000000E+00
  0.00000000E+00  0.00000000E+00  0.00000000E+00
  0.00000000E+00  0.00000000E+00  0.00000000E+00
  0.00000000E+00  0.00000000E+00  0.00000000E+00
  0.00000000E+00  0.00000000E+00  0.00000000E+00
  0.00000000E+00  0.00000000E+00  0.00000000E+00
  0.00000000E+00  0.00000000E+00  0.00000000E+00
  0.00000000E+00  0.00000000E+00  0.00000000E+00
  0.00000000E+00  0.00000000E+00  0.00000000E+00
  0.00000000E+00  0.00000000E+00  0.00000000E+00
  0.00000000E+00  0.00000000E+00  0.00000000E+00
  0.00000000E+00  0.00000000E+00  0.00000000E+00
  0.00000000E+00  0.00000000E+00  0.00000000E+00
  0.00000000E+00  0.00000000E+00  0.00000000E+00
  0.00000000E+00  0.00000000E+00  0.00000000E+00
  0.00000000E+00  0.00000000E+00  0.00000000E+00
  0.00000000E+00  0.00000000E+00  0.00000000E+00
  0.00000000E+00  0.00000000E+00  0.00000000E+00
  0.00000000E+00  0.00000000E+00  0.00000000E+00
