26                                      
   1.00000000000000     
    12.3312997818000003    0.0000000000000000    0.0000000000000000
     0.0001127485000000   12.8291997905000006    0.0000000000000000
     0.0005937186000000    0.0011528207000000   19.9943999824000009
   C    N    Fe   Ni   O    H 
    54     2     1     1     1     1
Direct
  0.0568585538166320  0.0547577574824728  0.0515579730123061
  0.1571758742408187  0.1101218984485704  0.0517835868449727
  0.1574395539277265  0.2212051660221829  0.0507071505530246
  0.0573270697832268  0.2759935504870659  0.0495488791374645
  0.2575884393786530  0.0552401118434560  0.0537091330149387
  0.3578522859297778  0.1115296464928460  0.0564110772241732
  0.3581139492326192  0.2236910937001480  0.0557852841721253
  0.2572198086735640  0.2774830703305438  0.0518191646803344
  0.4573678412981519  0.0555348275550788  0.0598528548943947
  0.5573094052109769  0.1128318701486463  0.0620403073031992
  0.5577632462805134  0.2250907798586814  0.0624690430365453
  0.4578737473805844  0.2820924576352591  0.0594710818683728
  0.6562341535242215  0.0535517952458395  0.0617168042507001
  0.7561642331072873  0.1100818894067998  0.0582377311360968
  0.7574008090337250  0.2220404490548750  0.0579442313047574
  0.6592311156234026  0.2818143031847397  0.0623693494385872
  0.8559805195878352  0.0543060112041406  0.0550243533402129
  0.9565518163738514  0.1096015217890477  0.0525102072061649
  0.9574301434551453  0.2203467270208900  0.0515605037875968
  0.8577864540997904  0.2759961508226024  0.0536761715062325
  0.0570813248721765  0.3871210563416517  0.0478736135026303
  0.1556801777223654  0.4432574072552483  0.0477096200679624
  0.1551915004983790  0.5546959854542710  0.0472648238446955
  0.0561862623366125  0.6099654133576681  0.0469034056194378
  0.2555091611307948  0.3884011658137655  0.0502250890025829
  0.3540302757120107  0.4451630861924240  0.0534853431292102
  0.3529833099038447  0.5574599351293159  0.0545006416794137
  0.2537601683349900  0.6116858539839711  0.0499794909921056
  0.7593332576395422  0.4430156675136886  0.0562174115505985
  0.8584225814019725  0.3867749463507111  0.0518997978357378
  0.9574127766427828  0.4426728535045026  0.0482716489423952
  0.9571640356390987  0.5533456947390674  0.0475898995587420
  0.8566246488105119  0.6073161665215182  0.0497132026012261
  0.0564008168966502  0.7216619150290934  0.0479080531213972
  0.1552525998963306  0.7777984487103968  0.0492694635391286
  0.1563144637443068  0.8889281598045685  0.0507852513314782
  0.0563455098086412  0.9438413185074993  0.0509520651795316
  0.2545007339532250  0.7221390667120479  0.0510209049689578
  0.3547159117325885  0.7756615793159771  0.0556063172998164
  0.3565948651956194  0.8876107395518495  0.0565319787804984
  0.2568862835305281  0.9439014157763858  0.0533813629044069
  0.4524897515394867  0.7163009450023609  0.0621735629358576
  0.5549087061844259  0.8836486852248688  0.0656646987762103
  0.4565647889572438  0.9429483363402634  0.0606519940596190
  0.7558693926699979  0.8854070461742896  0.0592235937797364
  0.6556488111919977  0.9417164598972353  0.0634131347337578
  0.8575289998994415  0.7209405875573797  0.0513214529748679
  0.9566807360922345  0.7770265991970291  0.0496994607871531
  0.9561697382358499  0.8881160339787935  0.0514700576916125
  0.8555776782106274  0.9426988911827902  0.0547680222621203
  0.4540031784266040  0.3936830906311373  0.0590402273904625
  0.7572761403902672  0.5538230711599359  0.0544213789466780
  0.5515299753864067  0.7725824815562234  0.0708153440543355
  0.7584424905801738  0.7742792763513391  0.0586393171008892
  0.4492876701501353  0.6068522542364079  0.0618915100776352
  0.6629098761082235  0.3885843719086405  0.0642450107153011
  0.6599970824799599  0.6707489792141548  0.0887247986808566
  0.5591416723907758  0.4923234866316147  0.0763384002249293
  0.6139625400907753  0.5791300512819465  0.1582149189239948
  0.5522111976539021  0.6070503611740818  0.1828388437198331
 
  0.00000000E+00  0.00000000E+00  0.00000000E+00
  0.00000000E+00  0.00000000E+00  0.00000000E+00
  0.00000000E+00  0.00000000E+00  0.00000000E+00
  0.00000000E+00  0.00000000E+00  0.00000000E+00
  0.00000000E+00  0.00000000E+00  0.00000000E+00
  0.00000000E+00  0.00000000E+00  0.00000000E+00
  0.00000000E+00  0.00000000E+00  0.00000000E+00
  0.00000000E+00  0.00000000E+00  0.00000000E+00
  0.00000000E+00  0.00000000E+00  0.00000000E+00
  0.00000000E+00  0.00000000E+00  0.00000000E+00
  0.00000000E+00  0.00000000E+00  0.00000000E+00
  0.00000000E+00  0.00000000E+00  0.00000000E+00
  0.00000000E+00  0.00000000E+00  0.00000000E+00
  0.00000000E+00  0.00000000E+00  0.00000000E+00
  0.00000000E+00  0.00000000E+00  0.00000000E+00
  0.00000000E+00  0.00000000E+00  0.00000000E+00
  0.00000000E+00  0.00000000E+00  0.00000000E+00
  0.00000000E+00  0.00000000E+00  0.00000000E+00
  0.00000000E+00  0.00000000E+00  0.00000000E+00
  0.00000000E+00  0.00000000E+00  0.00000000E+00
  0.00000000E+00  0.00000000E+00  0.00000000E+00
  0.00000000E+00  0.00000000E+00  0.00000000E+00
  0.00000000E+00  0.00000000E+00  0.00000000E+00
  0.00000000E+00  0.00000000E+00  0.00000000E+00
  0.00000000E+00  0.00000000E+00  0.00000000E+00
  0.00000000E+00  0.00000000E+00  0.00000000E+00
  0.00000000E+00  0.00000000E+00  0.00000000E+00
  0.00000000E+00  0.00000000E+00  0.00000000E+00
  0.00000000E+00  0.00000000E+00  0.00000000E+00
  0.00000000E+00  0.00000000E+00  0.00000000E+00
  0.00000000E+00  0.00000000E+00  0.00000000E+00
  0.00000000E+00  0.00000000E+00  0.00000000E+00
  0.00000000E+00  0.00000000E+00  0.00000000E+00
  0.00000000E+00  0.00000000E+00  0.00000000E+00
  0.00000000E+00  0.00000000E+00  0.00000000E+00
  0.00000000E+00  0.00000000E+00  0.00000000E+00
  0.00000000E+00  0.00000000E+00  0.00000000E+00
  0.00000000E+00  0.00000000E+00  0.00000000E+00
  0.00000000E+00  0.00000000E+00  0.00000000E+00
  0.00000000E+00  0.00000000E+00  0.00000000E+00
  0.00000000E+00  0.00000000E+00  0.00000000E+00
  0.00000000E+00  0.00000000E+00  0.00000000E+00
  0.00000000E+00  0.00000000E+00  0.00000000E+00
  0.00000000E+00  0.00000000E+00  0.00000000E+00
  0.00000000E+00  0.00000000E+00  0.00000000E+00
  0.00000000E+00  0.00000000E+00  0.00000000E+00
  0.00000000E+00  0.00000000E+00  0.00000000E+00
  0.00000000E+00  0.00000000E+00  0.00000000E+00
  0.00000000E+00  0.00000000E+00  0.00000000E+00
  0.00000000E+00  0.00000000E+00  0.00000000E+00
  0.00000000E+00  0.00000000E+00  0.00000000E+00
  0.00000000E+00  0.00000000E+00  0.00000000E+00
  0.00000000E+00  0.00000000E+00  0.00000000E+00
  0.00000000E+00  0.00000000E+00  0.00000000E+00
  0.00000000E+00  0.00000000E+00  0.00000000E+00
  0.00000000E+00  0.00000000E+00  0.00000000E+00
  0.00000000E+00  0.00000000E+00  0.00000000E+00
  0.00000000E+00  0.00000000E+00  0.00000000E+00
  0.00000000E+00  0.00000000E+00  0.00000000E+00
  0.00000000E+00  0.00000000E+00  0.00000000E+00
