CONTCAR\(10)                            
   1.00000000000000     
    12.3312997818000003    0.0000000000000000    0.0000000000000000
     0.0001127485000000   12.8291997905000006    0.0000000000000000
     0.0005937186000000    0.0011528207000000   19.9943999824000009
   C    N    Fe   Ni   H 
    53     3     1     1     1
Direct
  0.0562145357315495  0.0548667365412996  0.0511016009021212
  0.1566051815080943  0.1101165529416323  0.0517381981887056
  0.1563889415667905  0.2210429956398103  0.0497773702386287
  0.0564561144814942  0.2761622541270279  0.0474507351535652
  0.2570075267118337  0.0554888631463280  0.0549648712780804
  0.3571219744420318  0.1119057004452402  0.0586090670838928
  0.3565238853560064  0.2238361003812420  0.0572391102330019
  0.2557871718621986  0.2770194919335798  0.0515897018791879
  0.4569139343045366  0.0564585778995913  0.0632060685649913
  0.5561785036863289  0.1147891362041908  0.0653003235822122
  0.5564396791949171  0.2285272076861623  0.0654582092223064
  0.4548744848714262  0.2839542029944240  0.0614726765764702
  0.6551153400833881  0.0547103181728783  0.0643416871564077
  0.7550902003412008  0.1112561984351753  0.0596450708865223
  0.7562581004721320  0.2235512028283809  0.0590402064834343
  0.6584899045554303  0.2848586227801583  0.0650652918360859
  0.8549731707134919  0.0547945770587253  0.0553641463113633
  0.9556395151407787  0.1098055034237367  0.0520608176365618
  0.9564359071952965  0.2207527422335082  0.0502652559899266
  0.8570264048620281  0.2768143674651720  0.0526483353319632
  0.0568343405340740  0.3872161028014525  0.0445280323408924
  0.1555300848184531  0.4434764605115482  0.0450766805105291
  0.1560044718647491  0.5546358242760585  0.0446224487974951
  0.0573780320878117  0.6105087536696435  0.0430570614323837
  0.2546549502822593  0.3880198086109828  0.0494923890118487
  0.3532025371139039  0.4427737729808401  0.0548802383776170
  0.3534756720320760  0.5556206908178442  0.0571858266385382
  0.2548097578756588  0.6104833755034619  0.0500242683346466
  0.7604835206615460  0.4446522131531054  0.0552400850488224
  0.8584488356912643  0.3875853630547672  0.0490618050257888
  0.9576659563246395  0.4430560984269898  0.0440105519094104
  0.9585733494643393  0.5539298877875218  0.0429744388587658
  0.8590960756732431  0.6085565452436527  0.0454432657846918
  0.0569482765224218  0.7221212077597309  0.0449264764653649
  0.1558617378334602  0.7777174513547307  0.0483740707953076
  0.1564196764273498  0.8889809277742518  0.0506252172976848
  0.0561829271010939  0.9441256147157293  0.0501554400183642
  0.2548415894230818  0.7216277581574344  0.0517473354322727
  0.3542751357959494  0.7755534930070082  0.0585658250579259
  0.3563406929225293  0.8877517750679531  0.0594556220293780
  0.2566639764946719  0.9439448494274527  0.0547873918368419
  0.4517315689178099  0.7165377092910901  0.0673716917547360
  0.5542777960299476  0.8840274840499126  0.0695356999674858
  0.4562254284605121  0.9435982974330885  0.0645711960143108
  0.7551900887462482  0.8848822853377999  0.0591934127211087
  0.6548823495529892  0.9420166383190032  0.0656422392737999
  0.8585019425185426  0.7218543158787653  0.0479058239830368
  0.9572573841685234  0.7777915688393200  0.0465565680690581
  0.9558642067254129  0.8887457570265556  0.0498681677728335
  0.8548886120531236  0.9428553236768453  0.0544732153308687
  0.7600960244086432  0.5552768222553457  0.0514708764606025
  0.5505759016179763  0.7726580456278129  0.0754319339545340
  0.7584528223019682  0.7734235452064756  0.0560346680771185
  0.4498882179107560  0.3917723800332903  0.0606843878270783
  0.4490784712195282  0.6062590353245429  0.0682358909735758
  0.6641581327851146  0.3922436408401841  0.0678514893421389
  0.6559923580137278  0.6642525828992980  0.0789442164309864
  0.5558145050882660  0.4960820445231883  0.0796017457643107
  0.6153821734553513  0.5693331009970682  0.1321435537423896
 
  0.00000000E+00  0.00000000E+00  0.00000000E+00
  0.00000000E+00  0.00000000E+00  0.00000000E+00
  0.00000000E+00  0.00000000E+00  0.00000000E+00
  0.00000000E+00  0.00000000E+00  0.00000000E+00
  0.00000000E+00  0.00000000E+00  0.00000000E+00
  0.00000000E+00  0.00000000E+00  0.00000000E+00
  0.00000000E+00  0.00000000E+00  0.00000000E+00
  0.00000000E+00  0.00000000E+00  0.00000000E+00
  0.00000000E+00  0.00000000E+00  0.00000000E+00
  0.00000000E+00  0.00000000E+00  0.00000000E+00
  0.00000000E+00  0.00000000E+00  0.00000000E+00
  0.00000000E+00  0.00000000E+00  0.00000000E+00
  0.00000000E+00  0.00000000E+00  0.00000000E+00
  0.00000000E+00  0.00000000E+00  0.00000000E+00
  0.00000000E+00  0.00000000E+00  0.00000000E+00
  0.00000000E+00  0.00000000E+00  0.00000000E+00
  0.00000000E+00  0.00000000E+00  0.00000000E+00
  0.00000000E+00  0.00000000E+00  0.00000000E+00
  0.00000000E+00  0.00000000E+00  0.00000000E+00
  0.00000000E+00  0.00000000E+00  0.00000000E+00
  0.00000000E+00  0.00000000E+00  0.00000000E+00
  0.00000000E+00  0.00000000E+00  0.00000000E+00
  0.00000000E+00  0.00000000E+00  0.00000000E+00
  0.00000000E+00  0.00000000E+00  0.00000000E+00
  0.00000000E+00  0.00000000E+00  0.00000000E+00
  0.00000000E+00  0.00000000E+00  0.00000000E+00
  0.00000000E+00  0.00000000E+00  0.00000000E+00
  0.00000000E+00  0.00000000E+00  0.00000000E+00
  0.00000000E+00  0.00000000E+00  0.00000000E+00
  0.00000000E+00  0.00000000E+00  0.00000000E+00
  0.00000000E+00  0.00000000E+00  0.00000000E+00
  0.00000000E+00  0.00000000E+00  0.00000000E+00
  0.00000000E+00  0.00000000E+00  0.00000000E+00
  0.00000000E+00  0.00000000E+00  0.00000000E+00
  0.00000000E+00  0.00000000E+00  0.00000000E+00
  0.00000000E+00  0.00000000E+00  0.00000000E+00
  0.00000000E+00  0.00000000E+00  0.00000000E+00
  0.00000000E+00  0.00000000E+00  0.00000000E+00
  0.00000000E+00  0.00000000E+00  0.00000000E+00
  0.00000000E+00  0.00000000E+00  0.00000000E+00
  0.00000000E+00  0.00000000E+00  0.00000000E+00
  0.00000000E+00  0.00000000E+00  0.00000000E+00
  0.00000000E+00  0.00000000E+00  0.00000000E+00
  0.00000000E+00  0.00000000E+00  0.00000000E+00
  0.00000000E+00  0.00000000E+00  0.00000000E+00
  0.00000000E+00  0.00000000E+00  0.00000000E+00
  0.00000000E+00  0.00000000E+00  0.00000000E+00
  0.00000000E+00  0.00000000E+00  0.00000000E+00
  0.00000000E+00  0.00000000E+00  0.00000000E+00
  0.00000000E+00  0.00000000E+00  0.00000000E+00
  0.00000000E+00  0.00000000E+00  0.00000000E+00
  0.00000000E+00  0.00000000E+00  0.00000000E+00
  0.00000000E+00  0.00000000E+00  0.00000000E+00
  0.00000000E+00  0.00000000E+00  0.00000000E+00
  0.00000000E+00  0.00000000E+00  0.00000000E+00
  0.00000000E+00  0.00000000E+00  0.00000000E+00
  0.00000000E+00  0.00000000E+00  0.00000000E+00
  0.00000000E+00  0.00000000E+00  0.00000000E+00
  0.00000000E+00  0.00000000E+00  0.00000000E+00
