an6                                     
   1.00000000000000     
    12.3312997818000003    0.0000000000000000    0.0000000000000000
     0.0001127485000000   12.8291997905000006    0.0000000000000000
     0.0005937186000000    0.0011528207000000   19.9943999824000009
   C    N    Fe   Ni
    55     1     1     1
Direct
  0.0562363105387299  0.0545864654093355  0.0557785379228246
  0.1561458862081475  0.1107480937486499  0.0557954619658386
  0.1571280666749136  0.2216981055764889  0.0557803959884694
  0.0572581576698374  0.2763863900311697  0.0557590284234606
  0.2560648716841347  0.0560843805571943  0.0558037501742296
  0.3564057454122438  0.1121789986979196  0.0557766219261288
  0.3576796898062127  0.2237680930991997  0.0557478531968085
  0.2572680013201182  0.2777883153457632  0.0557666277569648
  0.4555418947406599  0.0559369358464070  0.0557579918519647
  0.5566924058429962  0.1106013925916969  0.0557117061607543
  0.5572622107806385  0.2213788018264274  0.0556918213592059
  0.4582224944650118  0.2808374062801973  0.0556959507985089
  0.6570966340037758  0.0525040863306272  0.0556649113035839
  0.7569461839340874  0.1085584242012600  0.0556670853957839
  0.7580324885247788  0.2198087714031780  0.0556662701582469
  0.6584905570455772  0.2763696449278041  0.0556590323204400
  0.8559993808362181  0.0525662465348818  0.0556878080294399
  0.9563233227994576  0.1088184879188084  0.0557312538510440
  0.9575194686957438  0.2199632622315217  0.0557225360160194
  0.8580649030798636  0.2753092136088501  0.0556825699807978
  0.0579800638368571  0.3878115617585977  0.0557567822137554
  0.1570530492441849  0.4436552213876700  0.0557726489895155
  0.1565549548396576  0.5549999039610887  0.0557754863185393
  0.0560935450665939  0.6097739387847861  0.0557611281723495
  0.2573244334127831  0.3887200517142600  0.0557613993277414
  0.3570213406841330  0.4443912693518439  0.0557260224907049
  0.3581308317510076  0.5573862171124014  0.0557206053974377
  0.2565049697386373  0.6112956716595874  0.0557629866875041
  0.7603423430951596  0.4420168521151103  0.0556427688182832
  0.8598581806604434  0.3863052796096444  0.0556745685532202
  0.9581192416887750  0.4430802985355345  0.0557251723566682
  0.9561570998743153  0.5542449168570667  0.0557311924702938
  0.8541561072704095  0.6084654689343725  0.0556967438489685
  0.0550802815280782  0.7210097361852228  0.0557784490041269
  0.1537794690024891  0.7773186798336755  0.0558067333701612
  0.1549725245323010  0.8886083209109579  0.0558148132965342
  0.0553809659458171  0.9436150918798998  0.0557888094254319
  0.2534535213228905  0.7222700868475495  0.0557792022398187
  0.3512868667069414  0.7787119282789078  0.0557325163424466
  0.3541297710895665  0.8895369730263352  0.0557745132852102
  0.2547761445704728  0.9449855913133053  0.0558145838865220
  0.4504560399130997  0.7230174109869151  0.0556693753054355
  0.5538684206219221  0.8883918698863860  0.0556711799240845
  0.4542896454359023  0.9452167899963559  0.0557471655892018
  0.7557896075965342  0.8823510315902668  0.0556309323434103
  0.6563866361936349  0.9410502897247762  0.0556403295449809
  0.8553661959525902  0.7219389629134758  0.0556833274336346
  0.9551906638299142  0.7765135335010308  0.0557447053706808
  0.9557619535299510  0.8874569176855860  0.0557406404421798
  0.8551480281945605  0.9407647328941274  0.0556772710807563
  0.4574940840389894  0.3922941440880364  0.0556806424925405
  0.4587705114472223  0.6116371599290822  0.0556880225989053
  0.6620003883877738  0.3849450354745809  0.0556291584323863
  0.7543256809984882  0.5536098855324783  0.0556620319827054
  0.5477048757781791  0.7806153865233206  0.0556322427839016
  0.7577228842545285  0.7731974503263275  0.0556205424312048
  0.6382596515891079  0.6684051506183777  0.0556007104545741
  0.5702603953129564  0.4930396201036581  0.0556273927136355
 
  0.00000000E+00  0.00000000E+00  0.00000000E+00
  0.00000000E+00  0.00000000E+00  0.00000000E+00
  0.00000000E+00  0.00000000E+00  0.00000000E+00
  0.00000000E+00  0.00000000E+00  0.00000000E+00
  0.00000000E+00  0.00000000E+00  0.00000000E+00
  0.00000000E+00  0.00000000E+00  0.00000000E+00
  0.00000000E+00  0.00000000E+00  0.00000000E+00
  0.00000000E+00  0.00000000E+00  0.00000000E+00
  0.00000000E+00  0.00000000E+00  0.00000000E+00
  0.00000000E+00  0.00000000E+00  0.00000000E+00
  0.00000000E+00  0.00000000E+00  0.00000000E+00
  0.00000000E+00  0.00000000E+00  0.00000000E+00
  0.00000000E+00  0.00000000E+00  0.00000000E+00
  0.00000000E+00  0.00000000E+00  0.00000000E+00
  0.00000000E+00  0.00000000E+00  0.00000000E+00
  0.00000000E+00  0.00000000E+00  0.00000000E+00
  0.00000000E+00  0.00000000E+00  0.00000000E+00
  0.00000000E+00  0.00000000E+00  0.00000000E+00
  0.00000000E+00  0.00000000E+00  0.00000000E+00
  0.00000000E+00  0.00000000E+00  0.00000000E+00
  0.00000000E+00  0.00000000E+00  0.00000000E+00
  0.00000000E+00  0.00000000E+00  0.00000000E+00
  0.00000000E+00  0.00000000E+00  0.00000000E+00
  0.00000000E+00  0.00000000E+00  0.00000000E+00
  0.00000000E+00  0.00000000E+00  0.00000000E+00
  0.00000000E+00  0.00000000E+00  0.00000000E+00
  0.00000000E+00  0.00000000E+00  0.00000000E+00
  0.00000000E+00  0.00000000E+00  0.00000000E+00
  0.00000000E+00  0.00000000E+00  0.00000000E+00
  0.00000000E+00  0.00000000E+00  0.00000000E+00
  0.00000000E+00  0.00000000E+00  0.00000000E+00
  0.00000000E+00  0.00000000E+00  0.00000000E+00
  0.00000000E+00  0.00000000E+00  0.00000000E+00
  0.00000000E+00  0.00000000E+00  0.00000000E+00
  0.00000000E+00  0.00000000E+00  0.00000000E+00
  0.00000000E+00  0.00000000E+00  0.00000000E+00
  0.00000000E+00  0.00000000E+00  0.00000000E+00
  0.00000000E+00  0.00000000E+00  0.00000000E+00
  0.00000000E+00  0.00000000E+00  0.00000000E+00
  0.00000000E+00  0.00000000E+00  0.00000000E+00
  0.00000000E+00  0.00000000E+00  0.00000000E+00
  0.00000000E+00  0.00000000E+00  0.00000000E+00
  0.00000000E+00  0.00000000E+00  0.00000000E+00
  0.00000000E+00  0.00000000E+00  0.00000000E+00
  0.00000000E+00  0.00000000E+00  0.00000000E+00
  0.00000000E+00  0.00000000E+00  0.00000000E+00
  0.00000000E+00  0.00000000E+00  0.00000000E+00
  0.00000000E+00  0.00000000E+00  0.00000000E+00
  0.00000000E+00  0.00000000E+00  0.00000000E+00
  0.00000000E+00  0.00000000E+00  0.00000000E+00
  0.00000000E+00  0.00000000E+00  0.00000000E+00
  0.00000000E+00  0.00000000E+00  0.00000000E+00
  0.00000000E+00  0.00000000E+00  0.00000000E+00
  0.00000000E+00  0.00000000E+00  0.00000000E+00
  0.00000000E+00  0.00000000E+00  0.00000000E+00
  0.00000000E+00  0.00000000E+00  0.00000000E+00
  0.00000000E+00  0.00000000E+00  0.00000000E+00
  0.00000000E+00  0.00000000E+00  0.00000000E+00
