CONTCAR\(2)                             
   1.00000000000000     
    12.3312997818000003    0.0000000000000000    0.0000000000000000
     0.0001127485000000   12.8291997905000006    0.0000000000000000
     0.0005937186000000    0.0011528207000000   19.9943999824000009
   C    N    Fe   Ni   O    H 
    55     1     1     1     2     2
Direct
  0.0584345999488855  0.0506385769336338  0.0486424070992870
  0.1587368306772404  0.1050714147864311  0.0484925238451994
  0.1575532893648401  0.2159813258667932  0.0478585686929062
  0.0571015843239393  0.2720936800726910  0.0479444761641415
  0.2593385110126317  0.0493404588363594  0.0502356864756046
  0.3595189853819736  0.1046948383913039  0.0539943675863315
  0.3586669958207190  0.2165472366614410  0.0535903411604159
  0.2575153679233569  0.2707253470769174  0.0488283224818836
  0.4594740838383573  0.0480352565309231  0.0587159174029992
  0.5589819749539822  0.1049303469710758  0.0631170128651409
  0.5582760017713136  0.2170694355778716  0.0646711858731843
  0.4580892999178126  0.2742612497765458  0.0595806697756126
  0.6592627805809942  0.0473682520164160  0.0643265927426727
  0.7581637378981156  0.1053383686078564  0.0610479424722698
  0.7574875633908063  0.2174858734657339  0.0621694797043958
  0.6580185250346196  0.2748059549268407  0.0678740085546003
  0.8582498836329648  0.0503842055168963  0.0556782003072429
  0.9579031696499136  0.1060740237408523  0.0516156717384681
  0.9568965431158656  0.2174941565644855  0.0516752330455919
  0.8569000044139871  0.2737475954270959  0.0567182395129887
  0.0561359329626828  0.3833210648592048  0.0460475156809895
  0.1557286951510452  0.4381031564378628  0.0442225964820757
  0.1558307368231427  0.5495196132523003  0.0428068676457609
  0.0569826042018473  0.6058079336557917  0.0425145743467647
  0.2553995369310026  0.3815025458143583  0.0469113687862531
  0.3537860202926519  0.4367919529965247  0.0512887598240312
  0.3534376051701372  0.5486266878542225  0.0509339616650050
  0.2554319721616301  0.6050649052124685  0.0452029477548575
  0.7571925692690585  0.4442826873958440  0.0656830151202128
  0.8564688343440866  0.3859013883322818  0.0562175147791661
  0.9562967883704980  0.4399675021656525  0.0486762273982574
  0.9568672934777765  0.5510896805127511  0.0465202563300626
  0.8576264564490198  0.6076740621501965  0.0532818369396737
  0.0589960870018598  0.7171529372558710  0.0425102336717817
  0.1587524435653644  0.7724422095821358  0.0434327195642087
  0.1594163908585743  0.8835706214320630  0.0456720121766996
  0.0596103349768557  0.9398478389047150  0.0469815900023644
  0.2580645019525037  0.7159675183500398  0.0455816026267291
  0.3587542866820300  0.7691923258774064  0.0515709512969200
  0.3597864485961654  0.8807866395871924  0.0529803958595355
  0.2600133602305781  0.9378546250684976  0.0491369512690297
  0.4571059340965281  0.7093206582934173  0.0612261367514779
  0.5594484073809084  0.8771369575099995  0.0668979163480277
  0.4600963954101364  0.9356661960291041  0.0591082056739248
  0.7623825936142481  0.8805012654601270  0.0630236941255257
  0.6600100484001054  0.9347676364044583  0.0668272348273579
  0.8614415314942750  0.7204946799223192  0.0532924831867455
  0.9603121620325634  0.7742548398966295  0.0462672349141427
  0.9600308331630415  0.8848246009571098  0.0488299941182671
  0.8598042335944598  0.9389695681874143  0.0549812378130345
  0.4546509229353956  0.3853952291427093  0.0600984095823509
  0.4532003106750442  0.5978788390923094  0.0622892794247473
  0.6593650516485188  0.3855257988157516  0.0750268891562946
  0.7578830350345003  0.5573880626594663  0.0657092615355879
  0.5553583530662550  0.7654614621842755  0.0737163189110525
  0.7671358198096111  0.7731778347098724  0.0662682308255643
  0.6675260265158788  0.6833713879863828  0.1129001097747221
  0.5524675077446156  0.4842024823313405  0.0893801441256296
  0.6033832510703798  0.5721623260464269  0.1630457514851358
  0.6768891774055038  0.7586296689160531  0.1899556927241837
  0.6907984787967091  0.8329967444574924  0.1832070802622754
  0.5500112399905337  0.6003083135517926  0.1942279447126272
 
  0.00000000E+00  0.00000000E+00  0.00000000E+00
  0.00000000E+00  0.00000000E+00  0.00000000E+00
  0.00000000E+00  0.00000000E+00  0.00000000E+00
  0.00000000E+00  0.00000000E+00  0.00000000E+00
  0.00000000E+00  0.00000000E+00  0.00000000E+00
  0.00000000E+00  0.00000000E+00  0.00000000E+00
  0.00000000E+00  0.00000000E+00  0.00000000E+00
  0.00000000E+00  0.00000000E+00  0.00000000E+00
  0.00000000E+00  0.00000000E+00  0.00000000E+00
  0.00000000E+00  0.00000000E+00  0.00000000E+00
  0.00000000E+00  0.00000000E+00  0.00000000E+00
  0.00000000E+00  0.00000000E+00  0.00000000E+00
  0.00000000E+00  0.00000000E+00  0.00000000E+00
  0.00000000E+00  0.00000000E+00  0.00000000E+00
  0.00000000E+00  0.00000000E+00  0.00000000E+00
  0.00000000E+00  0.00000000E+00  0.00000000E+00
  0.00000000E+00  0.00000000E+00  0.00000000E+00
  0.00000000E+00  0.00000000E+00  0.00000000E+00
  0.00000000E+00  0.00000000E+00  0.00000000E+00
  0.00000000E+00  0.00000000E+00  0.00000000E+00
  0.00000000E+00  0.00000000E+00  0.00000000E+00
  0.00000000E+00  0.00000000E+00  0.00000000E+00
  0.00000000E+00  0.00000000E+00  0.00000000E+00
  0.00000000E+00  0.00000000E+00  0.00000000E+00
  0.00000000E+00  0.00000000E+00  0.00000000E+00
  0.00000000E+00  0.00000000E+00  0.00000000E+00
  0.00000000E+00  0.00000000E+00  0.00000000E+00
  0.00000000E+00  0.00000000E+00  0.00000000E+00
  0.00000000E+00  0.00000000E+00  0.00000000E+00
  0.00000000E+00  0.00000000E+00  0.00000000E+00
  0.00000000E+00  0.00000000E+00  0.00000000E+00
  0.00000000E+00  0.00000000E+00  0.00000000E+00
  0.00000000E+00  0.00000000E+00  0.00000000E+00
  0.00000000E+00  0.00000000E+00  0.00000000E+00
  0.00000000E+00  0.00000000E+00  0.00000000E+00
  0.00000000E+00  0.00000000E+00  0.00000000E+00
  0.00000000E+00  0.00000000E+00  0.00000000E+00
  0.00000000E+00  0.00000000E+00  0.00000000E+00
  0.00000000E+00  0.00000000E+00  0.00000000E+00
  0.00000000E+00  0.00000000E+00  0.00000000E+00
  0.00000000E+00  0.00000000E+00  0.00000000E+00
  0.00000000E+00  0.00000000E+00  0.00000000E+00
  0.00000000E+00  0.00000000E+00  0.00000000E+00
  0.00000000E+00  0.00000000E+00  0.00000000E+00
  0.00000000E+00  0.00000000E+00  0.00000000E+00
  0.00000000E+00  0.00000000E+00  0.00000000E+00
  0.00000000E+00  0.00000000E+00  0.00000000E+00
  0.00000000E+00  0.00000000E+00  0.00000000E+00
  0.00000000E+00  0.00000000E+00  0.00000000E+00
  0.00000000E+00  0.00000000E+00  0.00000000E+00
  0.00000000E+00  0.00000000E+00  0.00000000E+00
  0.00000000E+00  0.00000000E+00  0.00000000E+00
  0.00000000E+00  0.00000000E+00  0.00000000E+00
  0.00000000E+00  0.00000000E+00  0.00000000E+00
  0.00000000E+00  0.00000000E+00  0.00000000E+00
  0.00000000E+00  0.00000000E+00  0.00000000E+00
  0.00000000E+00  0.00000000E+00  0.00000000E+00
  0.00000000E+00  0.00000000E+00  0.00000000E+00
  0.00000000E+00  0.00000000E+00  0.00000000E+00
  0.00000000E+00  0.00000000E+00  0.00000000E+00
  0.00000000E+00  0.00000000E+00  0.00000000E+00
  0.00000000E+00  0.00000000E+00  0.00000000E+00
