CONTCAR\(4)                             
   1.00000000000000     
    12.3312997818000003    0.0000000000000000    0.0000000000000000
     0.0001127485000000   12.8291997905000006    0.0000000000000000
     0.0005937186000000    0.0011528207000000   19.9943999824000009
   C    N    Fe   Ni   O    H 
    54     2     1     1     1     1
Direct
  0.0557150021117727  0.0556557570414891  0.0493117219059093
  0.1561406645566928  0.1109444816994736  0.0495109217985197
  0.1566658088715473  0.2219432059452869  0.0486445145989335
  0.0565718686198350  0.2766586748024241  0.0477036768377780
  0.2564251469150698  0.0560473568584028  0.0514410066481630
  0.3567768568209583  0.1119345867546076  0.0541361830286635
  0.3573328520542643  0.2238788571728016  0.0537413050334997
  0.2566865007546928  0.2781315857105556  0.0499889064057075
  0.4562987136297681  0.0558660375530175  0.0576116710066780
  0.5562629263686821  0.1127155974626825  0.0600984406342010
  0.5569371260140963  0.2245179088932102  0.0612921682070745
  0.4570683114800352  0.2815637884654469  0.0580064064588558
  0.6555588906997576  0.0540338959735448  0.0595929399940687
  0.7553934869212222  0.1109094367864862  0.0563164042792812
  0.7561040057345508  0.2231281873142248  0.0565348215310858
  0.6576641153568167  0.2823316880694512  0.0620849810668065
  0.8550141870151785  0.0548673145995951  0.0529012235138940
  0.9554415469464320  0.1105882912550731  0.0503878839100340
  0.9561190241500589  0.2216813173917675  0.0496624143737927
  0.8563454928290620  0.2776246378827833  0.0520351709978057
  0.0572943587951574  0.3876807734181162  0.0463827272407731
  0.1559766952789796  0.4440338097123313  0.0466145101131659
  0.1553481742269150  0.5554030260360364  0.0462820579081797
  0.0565399391854216  0.6109460406238785  0.0456007851807893
  0.2560621864223878  0.3892909476979527  0.0490964552955273
  0.3550748992326200  0.4457897611528577  0.0528496812060813
  0.3531571156258931  0.5586751789216906  0.0540804562885936
  0.2536638407882950  0.6124445485249290  0.0490574400750582
  0.7600339971247720  0.4477651177599182  0.0555414195995083
  0.8579304933069671  0.3889432810329073  0.0503412588336652
  0.9578739887289166  0.4432410552008621  0.0467311541529468
  0.9582487371017601  0.5538664704285151  0.0460959479265300
  0.8583081055153319  0.6075177858473368  0.0482361848224977
  0.0558531663635930  0.7223954819919468  0.0464697628557241
  0.1544103763579239  0.7787396552250340  0.0478848279578741
  0.1552638059800691  0.8897972212342296  0.0489529520944078
  0.0552044116293487  0.9446067777993146  0.0488820198662974
  0.2536079965668729  0.7230793356959272  0.0498414046721692
  0.3532125718906238  0.7772966767725737  0.0540979345025158
  0.3553337839559587  0.8888059563782306  0.0545039441211860
  0.2557320905414907  0.9448745962068216  0.0512907693389556
  0.4505764992756855  0.7183186864660662  0.0611195235967941
  0.5541609904853984  0.8845653980840215  0.0630257191054221
  0.4555674972554942  0.9436497044224363  0.0584280443515147
  0.7549100406788762  0.8854269273963289  0.0565184554508704
  0.6549241970226458  0.9421439854838695  0.0607016670831539
  0.8567011415745573  0.7208360031965175  0.0492786596907589
  0.9559573582671809  0.7772204982467352  0.0478298282381287
  0.9551734503627758  0.8884202078726579  0.0493925389990793
  0.8545221239780494  0.9430035513898363  0.0524815900300449
  0.4552488863723575  0.3931497945814330  0.0583432952890027
  0.6602473470911199  0.3932487096336996  0.0660304809924436
  0.5507327963694437  0.7734925651356752  0.0680131279803233
  0.7570188202838595  0.7739376593852920  0.0558979979656919
  0.7630878914569927  0.5558880765012507  0.0526932858296327
  0.4479937949103737  0.6099451289507146  0.0623984921585067
  0.6571618742547962  0.6710907171637224  0.0836372127098079
  0.5558106033577855  0.4912730003740255  0.0822785323961870
  0.6210814230518118  0.5782961843382562  0.1549101098091574
  0.5628100704810471  0.6054071100837148  0.1828849950402730
 
  0.00000000E+00  0.00000000E+00  0.00000000E+00
  0.00000000E+00  0.00000000E+00  0.00000000E+00
  0.00000000E+00  0.00000000E+00  0.00000000E+00
  0.00000000E+00  0.00000000E+00  0.00000000E+00
  0.00000000E+00  0.00000000E+00  0.00000000E+00
  0.00000000E+00  0.00000000E+00  0.00000000E+00
  0.00000000E+00  0.00000000E+00  0.00000000E+00
  0.00000000E+00  0.00000000E+00  0.00000000E+00
  0.00000000E+00  0.00000000E+00  0.00000000E+00
  0.00000000E+00  0.00000000E+00  0.00000000E+00
  0.00000000E+00  0.00000000E+00  0.00000000E+00
  0.00000000E+00  0.00000000E+00  0.00000000E+00
  0.00000000E+00  0.00000000E+00  0.00000000E+00
  0.00000000E+00  0.00000000E+00  0.00000000E+00
  0.00000000E+00  0.00000000E+00  0.00000000E+00
  0.00000000E+00  0.00000000E+00  0.00000000E+00
  0.00000000E+00  0.00000000E+00  0.00000000E+00
  0.00000000E+00  0.00000000E+00  0.00000000E+00
  0.00000000E+00  0.00000000E+00  0.00000000E+00
  0.00000000E+00  0.00000000E+00  0.00000000E+00
  0.00000000E+00  0.00000000E+00  0.00000000E+00
  0.00000000E+00  0.00000000E+00  0.00000000E+00
  0.00000000E+00  0.00000000E+00  0.00000000E+00
  0.00000000E+00  0.00000000E+00  0.00000000E+00
  0.00000000E+00  0.00000000E+00  0.00000000E+00
  0.00000000E+00  0.00000000E+00  0.00000000E+00
  0.00000000E+00  0.00000000E+00  0.00000000E+00
  0.00000000E+00  0.00000000E+00  0.00000000E+00
  0.00000000E+00  0.00000000E+00  0.00000000E+00
  0.00000000E+00  0.00000000E+00  0.00000000E+00
  0.00000000E+00  0.00000000E+00  0.00000000E+00
  0.00000000E+00  0.00000000E+00  0.00000000E+00
  0.00000000E+00  0.00000000E+00  0.00000000E+00
  0.00000000E+00  0.00000000E+00  0.00000000E+00
  0.00000000E+00  0.00000000E+00  0.00000000E+00
  0.00000000E+00  0.00000000E+00  0.00000000E+00
  0.00000000E+00  0.00000000E+00  0.00000000E+00
  0.00000000E+00  0.00000000E+00  0.00000000E+00
  0.00000000E+00  0.00000000E+00  0.00000000E+00
  0.00000000E+00  0.00000000E+00  0.00000000E+00
  0.00000000E+00  0.00000000E+00  0.00000000E+00
  0.00000000E+00  0.00000000E+00  0.00000000E+00
  0.00000000E+00  0.00000000E+00  0.00000000E+00
  0.00000000E+00  0.00000000E+00  0.00000000E+00
  0.00000000E+00  0.00000000E+00  0.00000000E+00
  0.00000000E+00  0.00000000E+00  0.00000000E+00
  0.00000000E+00  0.00000000E+00  0.00000000E+00
  0.00000000E+00  0.00000000E+00  0.00000000E+00
  0.00000000E+00  0.00000000E+00  0.00000000E+00
  0.00000000E+00  0.00000000E+00  0.00000000E+00
  0.00000000E+00  0.00000000E+00  0.00000000E+00
  0.00000000E+00  0.00000000E+00  0.00000000E+00
  0.00000000E+00  0.00000000E+00  0.00000000E+00
  0.00000000E+00  0.00000000E+00  0.00000000E+00
  0.00000000E+00  0.00000000E+00  0.00000000E+00
  0.00000000E+00  0.00000000E+00  0.00000000E+00
  0.00000000E+00  0.00000000E+00  0.00000000E+00
  0.00000000E+00  0.00000000E+00  0.00000000E+00
  0.00000000E+00  0.00000000E+00  0.00000000E+00
  0.00000000E+00  0.00000000E+00  0.00000000E+00
