CONTCAR\(2)                             
   1.00000000000000     
    12.3312997818000003    0.0000000000000000    0.0000000000000000
     0.0001127485000000   12.8291997905000006    0.0000000000000000
     0.0005937186000000    0.0011528207000000   19.9943999824000009
   C    N    Fe   Ni   O 
    54     2     1     1     1
Direct
  0.0552420941293653  0.0547946634900184  0.0515249439171598
  0.1554762757152362  0.1102458724762346  0.0514160796642448
  0.1555923612899399  0.2210167131328063  0.0501768653562052
  0.0557319692558417  0.2761607014798474  0.0486212038680525
  0.2557737614770588  0.0556820801989250  0.0530791965077127
  0.3560526370615153  0.1113102703222873  0.0566284684120078
  0.3558871704952818  0.2229972459838692  0.0566241136374042
  0.2554733512293194  0.2766368921158722  0.0515849648966083
  0.4556333317290143  0.0556887190771398  0.0604977455465544
  0.5550470524973047  0.1124617886546489  0.0642201953356173
  0.5552136325860412  0.2250263048994304  0.0659921424518754
  0.4544663166108381  0.2814589959026164  0.0622540825696145
  0.6544311918922626  0.0529668896555684  0.0640189243594104
  0.7545812726638770  0.1098649230106426  0.0605138494927134
  0.7553186997375020  0.2221899579916782  0.0601389788936190
  0.6563790012590399  0.2813674228350860  0.0664365050755751
  0.8542473278888596  0.0534563048351601  0.0566026872710757
  0.9546407188667146  0.1095578056761254  0.0531970822114783
  0.9551501292661698  0.2209336801137270  0.0516606124732402
  0.8555601333047701  0.2772829598069664  0.0542444567333062
  0.0570267893256774  0.3872112647274646  0.0455879608702661
  0.1565526357889094  0.4431057918354008  0.0450426574159558
  0.1577770592114857  0.5545496349257616  0.0439988734894802
  0.0586872041188995  0.6100619598852494  0.0431455619759204
  0.2557713045148357  0.3874013809109751  0.0488736351416078
  0.3555948052966235  0.4418130415005660  0.0531232855222458
  0.3583266423611963  0.5554635131323934  0.0514128811658102
  0.2573830361942203  0.6100731604501346  0.0464993668276550
  0.7588307709838427  0.4476406588770283  0.0572062810592351
  0.8574818950205396  0.3887241911897671  0.0509146539570539
  0.9575684624235833  0.4428097820328580  0.0453362908568594
  0.9594753786147194  0.5537138605539849  0.0437435171140506
  0.8611314106841039  0.6094673007757965  0.0468638027629782
  0.0576008824189557  0.7216432179406537  0.0447617331808002
  0.1563277201988724  0.7772905086773245  0.0462848203563991
  0.1555601135723240  0.8886380683300015  0.0488924124420387
  0.0553603973495512  0.9438837608214522  0.0503021697808101
  0.2559449102201344  0.7212280296740524  0.0475075506856714
  0.3539926976609217  0.7777095901715717  0.0529644631073570
  0.3545932719572382  0.8889342771395828  0.0546538718150213
  0.2551457520146734  0.9445844003372977  0.0517759433121019
  0.4528607618262601  0.7221156177745299  0.0601924906335144
  0.5524231120470536  0.8845390407760840  0.0651058072977669
  0.4545252118834522  0.9437402263380120  0.0600434107626774
  0.7544334415158932  0.8823589614895725  0.0609243542526376
  0.6542695369182779  0.9402359205489016  0.0648014550317556
  0.8598781940389971  0.7213649966460440  0.0502651174847308
  0.9579389098632928  0.7774720604297033  0.0480171465362603
  0.9555018141217803  0.8881588523118877  0.0513132938577051
  0.8541222056993966  0.9413754915349157  0.0561729994718938
  0.4568238186055568  0.6101093454649182  0.0596076223569530
  0.6620002821195545  0.3914379957047351  0.0711442735221180
  0.7612367491150369  0.5588900419950178  0.0529828551007542
  0.7587279840437330  0.7705225195269599  0.0590095350750610
  0.4510631968683991  0.3898072111206966  0.0624949949427113
  0.5480153402941913  0.7777827999710593  0.0680653284373020
  0.6487164150475139  0.6627483565108439  0.0757943147423452
  0.5544944317974931  0.4889300924313362  0.0908116396681357
  0.6265570183068441  0.5793329378768149  0.1436285253128761
 
  0.00000000E+00  0.00000000E+00  0.00000000E+00
  0.00000000E+00  0.00000000E+00  0.00000000E+00
  0.00000000E+00  0.00000000E+00  0.00000000E+00
  0.00000000E+00  0.00000000E+00  0.00000000E+00
  0.00000000E+00  0.00000000E+00  0.00000000E+00
  0.00000000E+00  0.00000000E+00  0.00000000E+00
  0.00000000E+00  0.00000000E+00  0.00000000E+00
  0.00000000E+00  0.00000000E+00  0.00000000E+00
  0.00000000E+00  0.00000000E+00  0.00000000E+00
  0.00000000E+00  0.00000000E+00  0.00000000E+00
  0.00000000E+00  0.00000000E+00  0.00000000E+00
  0.00000000E+00  0.00000000E+00  0.00000000E+00
  0.00000000E+00  0.00000000E+00  0.00000000E+00
  0.00000000E+00  0.00000000E+00  0.00000000E+00
  0.00000000E+00  0.00000000E+00  0.00000000E+00
  0.00000000E+00  0.00000000E+00  0.00000000E+00
  0.00000000E+00  0.00000000E+00  0.00000000E+00
  0.00000000E+00  0.00000000E+00  0.00000000E+00
  0.00000000E+00  0.00000000E+00  0.00000000E+00
  0.00000000E+00  0.00000000E+00  0.00000000E+00
  0.00000000E+00  0.00000000E+00  0.00000000E+00
  0.00000000E+00  0.00000000E+00  0.00000000E+00
  0.00000000E+00  0.00000000E+00  0.00000000E+00
  0.00000000E+00  0.00000000E+00  0.00000000E+00
  0.00000000E+00  0.00000000E+00  0.00000000E+00
  0.00000000E+00  0.00000000E+00  0.00000000E+00
  0.00000000E+00  0.00000000E+00  0.00000000E+00
  0.00000000E+00  0.00000000E+00  0.00000000E+00
  0.00000000E+00  0.00000000E+00  0.00000000E+00
  0.00000000E+00  0.00000000E+00  0.00000000E+00
  0.00000000E+00  0.00000000E+00  0.00000000E+00
  0.00000000E+00  0.00000000E+00  0.00000000E+00
  0.00000000E+00  0.00000000E+00  0.00000000E+00
  0.00000000E+00  0.00000000E+00  0.00000000E+00
  0.00000000E+00  0.00000000E+00  0.00000000E+00
  0.00000000E+00  0.00000000E+00  0.00000000E+00
  0.00000000E+00  0.00000000E+00  0.00000000E+00
  0.00000000E+00  0.00000000E+00  0.00000000E+00
  0.00000000E+00  0.00000000E+00  0.00000000E+00
  0.00000000E+00  0.00000000E+00  0.00000000E+00
  0.00000000E+00  0.00000000E+00  0.00000000E+00
  0.00000000E+00  0.00000000E+00  0.00000000E+00
  0.00000000E+00  0.00000000E+00  0.00000000E+00
  0.00000000E+00  0.00000000E+00  0.00000000E+00
  0.00000000E+00  0.00000000E+00  0.00000000E+00
  0.00000000E+00  0.00000000E+00  0.00000000E+00
  0.00000000E+00  0.00000000E+00  0.00000000E+00
  0.00000000E+00  0.00000000E+00  0.00000000E+00
  0.00000000E+00  0.00000000E+00  0.00000000E+00
  0.00000000E+00  0.00000000E+00  0.00000000E+00
  0.00000000E+00  0.00000000E+00  0.00000000E+00
  0.00000000E+00  0.00000000E+00  0.00000000E+00
  0.00000000E+00  0.00000000E+00  0.00000000E+00
  0.00000000E+00  0.00000000E+00  0.00000000E+00
  0.00000000E+00  0.00000000E+00  0.00000000E+00
  0.00000000E+00  0.00000000E+00  0.00000000E+00
  0.00000000E+00  0.00000000E+00  0.00000000E+00
  0.00000000E+00  0.00000000E+00  0.00000000E+00
  0.00000000E+00  0.00000000E+00  0.00000000E+00
