1h\(2)                                  
   1.00000000000000     
    12.3312997818000003    0.0000000000000000    0.0000000000000000
     0.0001127485000000   12.8291997905000006    0.0000000000000000
     0.0005937186000000    0.0011528207000000   19.9943999824000009
   C    N    Fe   Ni
    53     3     1     1
Direct
  0.0563764801584105  0.0541210860376272  0.0551557339531653
  0.1563853044490332  0.1100269425390974  0.0551504518405951
  0.1565568918562212  0.2209736573616308  0.0547326158812932
  0.0568971197328456  0.2763439991052427  0.0544009682301053
  0.2568991476561335  0.0556197041934498  0.0557738377534901
  0.3569940628384429  0.1122737465639217  0.0563020648787296
  0.3569766350016062  0.2239097192018093  0.0560498132284477
  0.2560549278669083  0.2769832411361686  0.0550710324878484
  0.4569331887108700  0.0571281463756561  0.0570693748686389
  0.5570597983329896  0.1141388245298855  0.0573221027404472
  0.5572529711949425  0.2272842923488816  0.0572795164042640
  0.4558515121903972  0.2834685086206956  0.0568132573623004
  0.6567385957983489  0.0543931862991794  0.0572519187073760
  0.7565269119263563  0.1104368975934561  0.0565582733042753
  0.7578835592916882  0.2221321426950718  0.0564109249375639
  0.6597466537556926  0.2823932728520215  0.0571405474114359
  0.8554882361107423  0.0532849554425573  0.0559599944227395
  0.9561410153020877  0.1088049415937513  0.0552627946253289
  0.9573719700519695  0.2200890005014569  0.0549066436927254
  0.8582673299050010  0.2763083594824596  0.0554709009593089
  0.0574096942621986  0.3878091174844129  0.0541148194342706
  0.1561100035262829  0.4438161732471415  0.0541661725236655
  0.1561535956478202  0.5548785682779307  0.0543548677357540
  0.0561796563025479  0.6102733769414531  0.0544144235782268
  0.2553493294162128  0.3876983000103073  0.0547800871181290
  0.3543089503153655  0.4421082986096100  0.0557713871535512
  0.3566924358146524  0.5546445441956298  0.0559668472862766
  0.2560656353215987  0.6101338871444958  0.0551618141437307
  0.7615996748881454  0.4431613642893033  0.0564657728929349
  0.8600862731560321  0.3872981426113060  0.0553367053935039
  0.9582800603698728  0.4438201554604825  0.0545054441008424
  0.9565821838902155  0.5547933502712930  0.0546875044973389
  0.8549352317480762  0.6090890814763263  0.0556681844279908
  0.0557837254466853  0.7212437632053352  0.0547727288245972
  0.1551647198080233  0.7769593391391664  0.0550854395459262
  0.1560952721818007  0.8881595240674860  0.0553398392430691
  0.0559840802498343  0.9432231109193568  0.0552494798501030
  0.2550907693043477  0.7212313272173967  0.0555176032727327
  0.3541407360628776  0.7768667632637165  0.0565465204781395
  0.3560563107752410  0.8886282350554157  0.0566616558323439
  0.2562333823051375  0.9441466023306054  0.0558999020147349
  0.4539234842034230  0.7196426838225825  0.0574982664357140
  0.5550271222900678  0.8881709074185180  0.0578957367783269
  0.4558203881636302  0.9454897849393434  0.0573326688265741
  0.7558198654992436  0.8820908658125320  0.0568707858914619
  0.6566335949459695  0.9419638987145866  0.0574785876017243
  0.8557612035061279  0.7219370509931968  0.0558833740535232
  0.9555804504925521  0.7767097707064023  0.0552847495513144
  0.9560333196556703  0.8875976039911914  0.0554969764188563
  0.8549347195913198  0.9409629066185781  0.0561035183094650
  0.4580220622431693  0.6067070446674565  0.0572506631385096
  0.7548958185309630  0.5548171146013098  0.0566513126304767
  0.5504769208631026  0.7796553370973005  0.0582442139774287
  0.4513341786819862  0.3912704349099329  0.0568695509115768
  0.6653373416635694  0.3885121328222568  0.0573798221429048
  0.7572162763583280  0.7721290321883866  0.0568225490658662
  0.6347924507924230  0.6634981021658872  0.0577280700300501
  0.5648968135948031  0.4960579168383227  0.0577591821982944
 
  0.00000000E+00  0.00000000E+00  0.00000000E+00
  0.00000000E+00  0.00000000E+00  0.00000000E+00
  0.00000000E+00  0.00000000E+00  0.00000000E+00
  0.00000000E+00  0.00000000E+00  0.00000000E+00
  0.00000000E+00  0.00000000E+00  0.00000000E+00
  0.00000000E+00  0.00000000E+00  0.00000000E+00
  0.00000000E+00  0.00000000E+00  0.00000000E+00
  0.00000000E+00  0.00000000E+00  0.00000000E+00
  0.00000000E+00  0.00000000E+00  0.00000000E+00
  0.00000000E+00  0.00000000E+00  0.00000000E+00
  0.00000000E+00  0.00000000E+00  0.00000000E+00
  0.00000000E+00  0.00000000E+00  0.00000000E+00
  0.00000000E+00  0.00000000E+00  0.00000000E+00
  0.00000000E+00  0.00000000E+00  0.00000000E+00
  0.00000000E+00  0.00000000E+00  0.00000000E+00
  0.00000000E+00  0.00000000E+00  0.00000000E+00
  0.00000000E+00  0.00000000E+00  0.00000000E+00
  0.00000000E+00  0.00000000E+00  0.00000000E+00
  0.00000000E+00  0.00000000E+00  0.00000000E+00
  0.00000000E+00  0.00000000E+00  0.00000000E+00
  0.00000000E+00  0.00000000E+00  0.00000000E+00
  0.00000000E+00  0.00000000E+00  0.00000000E+00
  0.00000000E+00  0.00000000E+00  0.00000000E+00
  0.00000000E+00  0.00000000E+00  0.00000000E+00
  0.00000000E+00  0.00000000E+00  0.00000000E+00
  0.00000000E+00  0.00000000E+00  0.00000000E+00
  0.00000000E+00  0.00000000E+00  0.00000000E+00
  0.00000000E+00  0.00000000E+00  0.00000000E+00
  0.00000000E+00  0.00000000E+00  0.00000000E+00
  0.00000000E+00  0.00000000E+00  0.00000000E+00
  0.00000000E+00  0.00000000E+00  0.00000000E+00
  0.00000000E+00  0.00000000E+00  0.00000000E+00
  0.00000000E+00  0.00000000E+00  0.00000000E+00
  0.00000000E+00  0.00000000E+00  0.00000000E+00
  0.00000000E+00  0.00000000E+00  0.00000000E+00
  0.00000000E+00  0.00000000E+00  0.00000000E+00
  0.00000000E+00  0.00000000E+00  0.00000000E+00
  0.00000000E+00  0.00000000E+00  0.00000000E+00
  0.00000000E+00  0.00000000E+00  0.00000000E+00
  0.00000000E+00  0.00000000E+00  0.00000000E+00
  0.00000000E+00  0.00000000E+00  0.00000000E+00
  0.00000000E+00  0.00000000E+00  0.00000000E+00
  0.00000000E+00  0.00000000E+00  0.00000000E+00
  0.00000000E+00  0.00000000E+00  0.00000000E+00
  0.00000000E+00  0.00000000E+00  0.00000000E+00
  0.00000000E+00  0.00000000E+00  0.00000000E+00
  0.00000000E+00  0.00000000E+00  0.00000000E+00
  0.00000000E+00  0.00000000E+00  0.00000000E+00
  0.00000000E+00  0.00000000E+00  0.00000000E+00
  0.00000000E+00  0.00000000E+00  0.00000000E+00
  0.00000000E+00  0.00000000E+00  0.00000000E+00
  0.00000000E+00  0.00000000E+00  0.00000000E+00
  0.00000000E+00  0.00000000E+00  0.00000000E+00
  0.00000000E+00  0.00000000E+00  0.00000000E+00
  0.00000000E+00  0.00000000E+00  0.00000000E+00
  0.00000000E+00  0.00000000E+00  0.00000000E+00
  0.00000000E+00  0.00000000E+00  0.00000000E+00
  0.00000000E+00  0.00000000E+00  0.00000000E+00
