CONTCAR\(2)                             
   1.00000000000000     
    12.3312997818000003    0.0000000000000000    0.0000000000000000
     0.0001127485000000   12.8291997905000006    0.0000000000000000
     0.0005937186000000    0.0011528207000000   19.9943999824000009
   C    N    Fe   Ni   O    H 
    53     3     1     1     1     1
Direct
  0.0559151424873723  0.0546920728464521  0.0492407766493827
  0.1564673061705338  0.1101497087384629  0.0492177061969282
  0.1565167910016463  0.2209354456716845  0.0471953152838870
  0.0562182666683417  0.2762215285630488  0.0459847064512711
  0.2572702649883640  0.0557223757462679  0.0520915469837011
  0.3575474300873314  0.1121908314519049  0.0555030600117744
  0.3576865943563697  0.2241403975708008  0.0538940676978720
  0.2562857913153302  0.2768744426464801  0.0481049845028026
  0.4574805226457073  0.0563741483046894  0.0605772974435561
  0.5579169881319753  0.1136817238100055  0.0632191413934458
  0.5584778444572368  0.2270722230411411  0.0638187658791480
  0.4574089525933581  0.2835311954799688  0.0590293697703757
  0.6567473739145354  0.0536319689069106  0.0625211016728275
  0.7558448672848609  0.1105873427779795  0.0584105061954195
  0.7569362239558335  0.2230561921718626  0.0586889523042430
  0.6601993732515689  0.2839320248131179  0.0646708827417951
  0.8552795848153555  0.0540720690882466  0.0541718772533714
  0.9557460657388487  0.1094870165966722  0.0507631766724430
  0.9565076416901001  0.2208451360058299  0.0494964967393663
  0.8572503985610415  0.2771014895614761  0.0529556558526423
  0.0558127177083698  0.3874801096784407  0.0434048281461512
  0.1544817142316622  0.4436265952952534  0.0423304620550558
  0.1541025203493056  0.5550828716130519  0.0419322828786568
  0.0552724090425360  0.6109545304995362  0.0419467945676755
  0.2537513056708226  0.3877171616463799  0.0453872478292178
  0.3510851069132866  0.4440455864597072  0.0501057438940114
  0.3504989196838170  0.5556598813119792  0.0521345082808189
  0.2528785567613718  0.6115970762755314  0.0459084980752171
  0.7601535332036399  0.4457426826048015  0.0579320592552543
  0.8582634726700471  0.3882246452689337  0.0507879531928455
  0.9568408402365142  0.4434462448034263  0.0448996117031910
  0.9563358993941627  0.5548037372395658  0.0438334493798182
  0.8561740377251011  0.6077332904504221  0.0482902718191626
  0.0555716941816573  0.7219293296255449  0.0436977972461848
  0.1549266255716467  0.7782291034415197  0.0459924516339939
  0.1560337166334113  0.8889954044505284  0.0483511410561739
  0.0556949108367793  0.9437975781187820  0.0484187178883530
  0.2541107998021444  0.7225757298370657  0.0483728526447982
  0.3538040694835927  0.7763582295443288  0.0559912554464109
  0.3561144975259648  0.8881096337595807  0.0569237606631990
  0.2566843380555787  0.9442223702979674  0.0521103635077786
  0.4514659338977149  0.7170882271193190  0.0664625519082109
  0.5550431319113343  0.8848110789507176  0.0681804703471847
  0.4564680741472560  0.9440342800266844  0.0622808235699944
  0.7565353224277863  0.8832276950960858  0.0581058121214240
  0.6562867691401660  0.9404161899943138  0.0640476753229699
  0.8561766403631433  0.7213765734397236  0.0489502879398735
  0.9558209377549193  0.7766657329901899  0.0463906267203325
  0.9558386211966883  0.8879989813754406  0.0489325369644914
  0.8552877696306340  0.9420049159078177  0.0533957794767555
  0.4520687658796304  0.3948297447410789  0.0581961108130024
  0.4497473336432864  0.6047180824184781  0.0661412480745687
  0.5500383282400965  0.7743675673908953  0.0754221999108566
  0.6649269661816057  0.3926063715979945  0.0685917496162588
  0.7603833967343430  0.5538141658857607  0.0551276661955186
  0.7590607245695580  0.7742455747124548  0.0559445254824376
  0.6559125732939182  0.6720573908717066  0.0830180583074279
  0.5542564751018096  0.4947279351994696  0.0832408426810656
  0.6151795017751741  0.5865312476771225  0.1549279874732450
  0.5514878483138442  0.6151672405893974  0.1773856152141376
 
  0.00000000E+00  0.00000000E+00  0.00000000E+00
  0.00000000E+00  0.00000000E+00  0.00000000E+00
  0.00000000E+00  0.00000000E+00  0.00000000E+00
  0.00000000E+00  0.00000000E+00  0.00000000E+00
  0.00000000E+00  0.00000000E+00  0.00000000E+00
  0.00000000E+00  0.00000000E+00  0.00000000E+00
  0.00000000E+00  0.00000000E+00  0.00000000E+00
  0.00000000E+00  0.00000000E+00  0.00000000E+00
  0.00000000E+00  0.00000000E+00  0.00000000E+00
  0.00000000E+00  0.00000000E+00  0.00000000E+00
  0.00000000E+00  0.00000000E+00  0.00000000E+00
  0.00000000E+00  0.00000000E+00  0.00000000E+00
  0.00000000E+00  0.00000000E+00  0.00000000E+00
  0.00000000E+00  0.00000000E+00  0.00000000E+00
  0.00000000E+00  0.00000000E+00  0.00000000E+00
  0.00000000E+00  0.00000000E+00  0.00000000E+00
  0.00000000E+00  0.00000000E+00  0.00000000E+00
  0.00000000E+00  0.00000000E+00  0.00000000E+00
  0.00000000E+00  0.00000000E+00  0.00000000E+00
  0.00000000E+00  0.00000000E+00  0.00000000E+00
  0.00000000E+00  0.00000000E+00  0.00000000E+00
  0.00000000E+00  0.00000000E+00  0.00000000E+00
  0.00000000E+00  0.00000000E+00  0.00000000E+00
  0.00000000E+00  0.00000000E+00  0.00000000E+00
  0.00000000E+00  0.00000000E+00  0.00000000E+00
  0.00000000E+00  0.00000000E+00  0.00000000E+00
  0.00000000E+00  0.00000000E+00  0.00000000E+00
  0.00000000E+00  0.00000000E+00  0.00000000E+00
  0.00000000E+00  0.00000000E+00  0.00000000E+00
  0.00000000E+00  0.00000000E+00  0.00000000E+00
  0.00000000E+00  0.00000000E+00  0.00000000E+00
  0.00000000E+00  0.00000000E+00  0.00000000E+00
  0.00000000E+00  0.00000000E+00  0.00000000E+00
  0.00000000E+00  0.00000000E+00  0.00000000E+00
  0.00000000E+00  0.00000000E+00  0.00000000E+00
  0.00000000E+00  0.00000000E+00  0.00000000E+00
  0.00000000E+00  0.00000000E+00  0.00000000E+00
  0.00000000E+00  0.00000000E+00  0.00000000E+00
  0.00000000E+00  0.00000000E+00  0.00000000E+00
  0.00000000E+00  0.00000000E+00  0.00000000E+00
  0.00000000E+00  0.00000000E+00  0.00000000E+00
  0.00000000E+00  0.00000000E+00  0.00000000E+00
  0.00000000E+00  0.00000000E+00  0.00000000E+00
  0.00000000E+00  0.00000000E+00  0.00000000E+00
  0.00000000E+00  0.00000000E+00  0.00000000E+00
  0.00000000E+00  0.00000000E+00  0.00000000E+00
  0.00000000E+00  0.00000000E+00  0.00000000E+00
  0.00000000E+00  0.00000000E+00  0.00000000E+00
  0.00000000E+00  0.00000000E+00  0.00000000E+00
  0.00000000E+00  0.00000000E+00  0.00000000E+00
  0.00000000E+00  0.00000000E+00  0.00000000E+00
  0.00000000E+00  0.00000000E+00  0.00000000E+00
  0.00000000E+00  0.00000000E+00  0.00000000E+00
  0.00000000E+00  0.00000000E+00  0.00000000E+00
  0.00000000E+00  0.00000000E+00  0.00000000E+00
  0.00000000E+00  0.00000000E+00  0.00000000E+00
  0.00000000E+00  0.00000000E+00  0.00000000E+00
  0.00000000E+00  0.00000000E+00  0.00000000E+00
  0.00000000E+00  0.00000000E+00  0.00000000E+00
  0.00000000E+00  0.00000000E+00  0.00000000E+00
