CONTCAR\(4)                             
   1.00000000000000     
    12.3312997818000003    0.0000000000000000    0.0000000000000000
     0.0001127485000000   12.8291997905000006    0.0000000000000000
     0.0005937186000000    0.0011528207000000   19.9943999824000009
   C    N    Fe   Ni   O    H 
    53     3     1     1     1     1
Direct
  0.0569312497523880  0.0556544763035358  0.0497895387640482
  0.1572785685191088  0.1108769173933798  0.0497467375540400
  0.1571055463526516  0.2219021308065001  0.0485800854935112
  0.0567128597465094  0.2769588144141747  0.0477018196783981
  0.2578370434468830  0.0556496399637176  0.0515461889230461
  0.3582175520740070  0.1115523279780182  0.0541902823254597
  0.3581558763042237  0.2237527798409702  0.0534032597536297
  0.2570895689800519  0.2777427972504606  0.0493646432424914
  0.4579656300976448  0.0550830298812819  0.0579755343351747
  0.5580260243050548  0.1121433928973310  0.0607223403267439
  0.5581231859895954  0.2250141220093937  0.0611959266228392
  0.4579446178987842  0.2821725106505946  0.0574405019457253
  0.6570645712025904  0.0524947955848945  0.0608529290009128
  0.7561466605235458  0.1101932138555083  0.0574481691535734
  0.7570576267599899  0.2225663512977467  0.0574346185844849
  0.6589381954129740  0.2822162242465260  0.0619958868030042
  0.8560554846635323  0.0546736033728512  0.0538646519640913
  0.9564420146686342  0.1102600982292523  0.0510569242305318
  0.9568821501375696  0.2213020968923052  0.0501308643495845
  0.8571890648401082  0.2770996307916092  0.0527572954315740
  0.0560699565699331  0.3881991632596923  0.0459445192414417
  0.1550794674229257  0.4438394951964321  0.0453436684032581
  0.1545909657963868  0.5551044905822556  0.0449887784980318
  0.0556730459243361  0.6109112143730191  0.0448415558526129
  0.2550044520212246  0.3887026221545590  0.0475724233989273
  0.3535492920761137  0.4452063848906344  0.0505863077973501
  0.3522806714432951  0.5572897314828096  0.0515249384853046
  0.2532325697837445  0.6118390159516590  0.0474959835543208
  0.7583579272080363  0.4449786083795618  0.0571041558646263
  0.8574375253651296  0.3883377480607270  0.0512623994266570
  0.9563595137756346  0.4442731864027337  0.0468338088134249
  0.9560756917410053  0.5554063138479830  0.0460030458841975
  0.8556687037037040  0.6101495176138825  0.0496755130388101
  0.0565563355006869  0.7221614728924880  0.0459144833825464
  0.1554444589011300  0.7783859481649468  0.0471372090416302
  0.1568152078475714  0.8894237682009613  0.0488067969050861
  0.0569257062806599  0.9448166453860579  0.0491674125545118
  0.2544401889006422  0.7223972666855998  0.0486666554085324
  0.3546902500920273  0.7756454871701927  0.0536021564556779
  0.3570360755356921  0.8875189447533118  0.0546066892913717
  0.2573990941477822  0.9441646788224121  0.0513239655522125
  0.4520528650705154  0.7156734167032527  0.0605981197514055
  0.5554401536830675  0.8821675175416600  0.0647976154500090
  0.4572949313515823  0.9424493880043009  0.0589076789169521
  0.7579023676220776  0.8842066823585722  0.0581671571751996
  0.6567612995789796  0.9394793502597494  0.0626075619238922
  0.8583468945601623  0.7234873598972598  0.0506971073461774
  0.9573250807972657  0.7782242531360600  0.0481718208601971
  0.9572069037074635  0.8891846670688842  0.0499302377194656
  0.8564268400591778  0.9429342147577621  0.0534560765540727
  0.4536695769983239  0.3935945758539994  0.0564669129467501
  0.7558099065425284  0.5567754901506686  0.0567820870714908
  0.5507912793915291  0.7711161661498475  0.0707894981554496
  0.6623356553346075  0.3896943214661803  0.0645116389769148
  0.7617997336910193  0.7758380509187384  0.0580112229903691
  0.4486733825826433  0.6065681217764461  0.0587869122940513
  0.6633173595286271  0.6746524577231328  0.0921372770656050
  0.5581484128463046  0.4932251955213993  0.0735517742521609
  0.6039424316700478  0.5855515212005282  0.1554892104486144
  0.5393143942705548  0.6153765825796021  0.1761894277678370
 
  0.00000000E+00  0.00000000E+00  0.00000000E+00
  0.00000000E+00  0.00000000E+00  0.00000000E+00
  0.00000000E+00  0.00000000E+00  0.00000000E+00
  0.00000000E+00  0.00000000E+00  0.00000000E+00
  0.00000000E+00  0.00000000E+00  0.00000000E+00
  0.00000000E+00  0.00000000E+00  0.00000000E+00
  0.00000000E+00  0.00000000E+00  0.00000000E+00
  0.00000000E+00  0.00000000E+00  0.00000000E+00
  0.00000000E+00  0.00000000E+00  0.00000000E+00
  0.00000000E+00  0.00000000E+00  0.00000000E+00
  0.00000000E+00  0.00000000E+00  0.00000000E+00
  0.00000000E+00  0.00000000E+00  0.00000000E+00
  0.00000000E+00  0.00000000E+00  0.00000000E+00
  0.00000000E+00  0.00000000E+00  0.00000000E+00
  0.00000000E+00  0.00000000E+00  0.00000000E+00
  0.00000000E+00  0.00000000E+00  0.00000000E+00
  0.00000000E+00  0.00000000E+00  0.00000000E+00
  0.00000000E+00  0.00000000E+00  0.00000000E+00
  0.00000000E+00  0.00000000E+00  0.00000000E+00
  0.00000000E+00  0.00000000E+00  0.00000000E+00
  0.00000000E+00  0.00000000E+00  0.00000000E+00
  0.00000000E+00  0.00000000E+00  0.00000000E+00
  0.00000000E+00  0.00000000E+00  0.00000000E+00
  0.00000000E+00  0.00000000E+00  0.00000000E+00
  0.00000000E+00  0.00000000E+00  0.00000000E+00
  0.00000000E+00  0.00000000E+00  0.00000000E+00
  0.00000000E+00  0.00000000E+00  0.00000000E+00
  0.00000000E+00  0.00000000E+00  0.00000000E+00
  0.00000000E+00  0.00000000E+00  0.00000000E+00
  0.00000000E+00  0.00000000E+00  0.00000000E+00
  0.00000000E+00  0.00000000E+00  0.00000000E+00
  0.00000000E+00  0.00000000E+00  0.00000000E+00
  0.00000000E+00  0.00000000E+00  0.00000000E+00
  0.00000000E+00  0.00000000E+00  0.00000000E+00
  0.00000000E+00  0.00000000E+00  0.00000000E+00
  0.00000000E+00  0.00000000E+00  0.00000000E+00
  0.00000000E+00  0.00000000E+00  0.00000000E+00
  0.00000000E+00  0.00000000E+00  0.00000000E+00
  0.00000000E+00  0.00000000E+00  0.00000000E+00
  0.00000000E+00  0.00000000E+00  0.00000000E+00
  0.00000000E+00  0.00000000E+00  0.00000000E+00
  0.00000000E+00  0.00000000E+00  0.00000000E+00
  0.00000000E+00  0.00000000E+00  0.00000000E+00
  0.00000000E+00  0.00000000E+00  0.00000000E+00
  0.00000000E+00  0.00000000E+00  0.00000000E+00
  0.00000000E+00  0.00000000E+00  0.00000000E+00
  0.00000000E+00  0.00000000E+00  0.00000000E+00
  0.00000000E+00  0.00000000E+00  0.00000000E+00
  0.00000000E+00  0.00000000E+00  0.00000000E+00
  0.00000000E+00  0.00000000E+00  0.00000000E+00
  0.00000000E+00  0.00000000E+00  0.00000000E+00
  0.00000000E+00  0.00000000E+00  0.00000000E+00
  0.00000000E+00  0.00000000E+00  0.00000000E+00
  0.00000000E+00  0.00000000E+00  0.00000000E+00
  0.00000000E+00  0.00000000E+00  0.00000000E+00
  0.00000000E+00  0.00000000E+00  0.00000000E+00
  0.00000000E+00  0.00000000E+00  0.00000000E+00
  0.00000000E+00  0.00000000E+00  0.00000000E+00
  0.00000000E+00  0.00000000E+00  0.00000000E+00
  0.00000000E+00  0.00000000E+00  0.00000000E+00
