CONTCAR\(2)\(3)                         
   1.00000000000000     
    12.3312997818000003    0.0000000000000000    0.0000000000000000
     0.0001127485000000   12.8291997905000006    0.0000000000000000
     0.0005937186000000    0.0011528207000000   19.9943999824000009
   C    N    Fe   Ni   O 
    53     3     1     1     1
Direct
  0.0556385404857945  0.0553238303069689  0.0503010384989407
  0.1560554053252731  0.1108040438615165  0.0502529656172591
  0.1561580330224650  0.2216487764710124  0.0487788239723624
  0.0558634695068492  0.2764919580905912  0.0474297794703705
  0.2561896612487799  0.0559777393950268  0.0522908114891709
  0.3565380485251438  0.1113702403106962  0.0561953668062307
  0.3562528720150767  0.2232302444829905  0.0555464527009846
  0.2560652098705111  0.2774092625055385  0.0500129411490054
  0.4560854694466068  0.0549724355935681  0.0606655119499918
  0.5552299937927786  0.1120350489537519  0.0647449169523487
  0.5555505885824360  0.2250706284910764  0.0663922627437128
  0.4549334446323237  0.2820029060248648  0.0611454730223410
  0.6542134600807477  0.0520939065121909  0.0650953311026381
  0.7544714031886915  0.1094734431750886  0.0615209154613321
  0.7554029200489965  0.2218602262810888  0.0619020625701207
  0.6565593209707051  0.2811961849881195  0.0686811864943127
  0.8546489922023794  0.0537545114220689  0.0566265389466359
  0.9548947460546264  0.1099043754979032  0.0526378591308108
  0.9553577945873525  0.2212201181480662  0.0514134326938750
  0.8557284808335007  0.2771847464870451  0.0554430460066314
  0.0568519570075792  0.3873145856937730  0.0439837000479467
  0.1565885860155081  0.4434859692701759  0.0426883467386299
  0.1570758380007628  0.5545453925310985  0.0411147500244140
  0.0582466157402219  0.6104598408638452  0.0405552690655950
  0.2562223283929298  0.3887558676246330  0.0470730541684350
  0.3560926602780298  0.4438061982082451  0.0515434733095366
  0.3562825097343413  0.5576654035615874  0.0508559401348283
  0.2560227002708167  0.6106230002751273  0.0445004369844715
  0.7596820720093025  0.4475575379195031  0.0620818183864782
  0.8576814010616260  0.3886608974953131  0.0528758436652724
  0.9574599301886288  0.4428327554269437  0.0450899899723435
  0.9591708031300151  0.5540365633218878  0.0429572183195137
  0.8616521909724612  0.6100005174427899  0.0483428334787602
  0.0576279624446117  0.7218862407677749  0.0421006843540869
  0.1562154499214566  0.7779895736075564  0.0438651004518283
  0.1558772622761834  0.8891876096177436  0.0471448287746554
  0.0557515558811781  0.9446300173415150  0.0486659900849857
  0.2550928562622271  0.7219257592155645  0.0458162068923105
  0.3533207531467052  0.7774100118787802  0.0523708143809885
  0.3547911369996763  0.8885225988830276  0.0543817968854518
  0.2555880209109182  0.9446685581105581  0.0508762989177236
  0.4508519164799551  0.7196852465667688  0.0599931109936187
  0.5521808253400321  0.8819613030868240  0.0659889851390077
  0.4551583364573020  0.9426173563506303  0.0604444212248492
  0.7554734288320721  0.8825747631061365  0.0622922555649997
  0.6537682559550102  0.9386820656844708  0.0662144355598580
  0.8610174095386777  0.7218374011852818  0.0511019589202329
  0.9585182148684210  0.7780077712009558  0.0463683185844797
  0.9559659155425418  0.8887706263208269  0.0499271012327769
  0.8547518297094834  0.9419277561327082  0.0559083117211322
  0.6623722353718562  0.3915720128804839  0.0746383275375857
  0.7622425451457611  0.5592824120919623  0.0588663576932458
  0.7608615335309531  0.7717715373394305  0.0619847561201927
  0.4519521587265754  0.3901720790003302  0.0602704953068638
  0.5468973629199365  0.7730071083015821  0.0686111267896797
  0.4508555635053176  0.6120182680523170  0.0595648267291826
  0.6559786814511679  0.6630174062717872  0.0844321622105066
  0.5535224283538209  0.4865468223238909  0.0890854118406602
  0.6182388262048897  0.5755884610470219  0.1470365370138078
 
  0.00000000E+00  0.00000000E+00  0.00000000E+00
  0.00000000E+00  0.00000000E+00  0.00000000E+00
  0.00000000E+00  0.00000000E+00  0.00000000E+00
  0.00000000E+00  0.00000000E+00  0.00000000E+00
  0.00000000E+00  0.00000000E+00  0.00000000E+00
  0.00000000E+00  0.00000000E+00  0.00000000E+00
  0.00000000E+00  0.00000000E+00  0.00000000E+00
  0.00000000E+00  0.00000000E+00  0.00000000E+00
  0.00000000E+00  0.00000000E+00  0.00000000E+00
  0.00000000E+00  0.00000000E+00  0.00000000E+00
  0.00000000E+00  0.00000000E+00  0.00000000E+00
  0.00000000E+00  0.00000000E+00  0.00000000E+00
  0.00000000E+00  0.00000000E+00  0.00000000E+00
  0.00000000E+00  0.00000000E+00  0.00000000E+00
  0.00000000E+00  0.00000000E+00  0.00000000E+00
  0.00000000E+00  0.00000000E+00  0.00000000E+00
  0.00000000E+00  0.00000000E+00  0.00000000E+00
  0.00000000E+00  0.00000000E+00  0.00000000E+00
  0.00000000E+00  0.00000000E+00  0.00000000E+00
  0.00000000E+00  0.00000000E+00  0.00000000E+00
  0.00000000E+00  0.00000000E+00  0.00000000E+00
  0.00000000E+00  0.00000000E+00  0.00000000E+00
  0.00000000E+00  0.00000000E+00  0.00000000E+00
  0.00000000E+00  0.00000000E+00  0.00000000E+00
  0.00000000E+00  0.00000000E+00  0.00000000E+00
  0.00000000E+00  0.00000000E+00  0.00000000E+00
  0.00000000E+00  0.00000000E+00  0.00000000E+00
  0.00000000E+00  0.00000000E+00  0.00000000E+00
  0.00000000E+00  0.00000000E+00  0.00000000E+00
  0.00000000E+00  0.00000000E+00  0.00000000E+00
  0.00000000E+00  0.00000000E+00  0.00000000E+00
  0.00000000E+00  0.00000000E+00  0.00000000E+00
  0.00000000E+00  0.00000000E+00  0.00000000E+00
  0.00000000E+00  0.00000000E+00  0.00000000E+00
  0.00000000E+00  0.00000000E+00  0.00000000E+00
  0.00000000E+00  0.00000000E+00  0.00000000E+00
  0.00000000E+00  0.00000000E+00  0.00000000E+00
  0.00000000E+00  0.00000000E+00  0.00000000E+00
  0.00000000E+00  0.00000000E+00  0.00000000E+00
  0.00000000E+00  0.00000000E+00  0.00000000E+00
  0.00000000E+00  0.00000000E+00  0.00000000E+00
  0.00000000E+00  0.00000000E+00  0.00000000E+00
  0.00000000E+00  0.00000000E+00  0.00000000E+00
  0.00000000E+00  0.00000000E+00  0.00000000E+00
  0.00000000E+00  0.00000000E+00  0.00000000E+00
  0.00000000E+00  0.00000000E+00  0.00000000E+00
  0.00000000E+00  0.00000000E+00  0.00000000E+00
  0.00000000E+00  0.00000000E+00  0.00000000E+00
  0.00000000E+00  0.00000000E+00  0.00000000E+00
  0.00000000E+00  0.00000000E+00  0.00000000E+00
  0.00000000E+00  0.00000000E+00  0.00000000E+00
  0.00000000E+00  0.00000000E+00  0.00000000E+00
  0.00000000E+00  0.00000000E+00  0.00000000E+00
  0.00000000E+00  0.00000000E+00  0.00000000E+00
  0.00000000E+00  0.00000000E+00  0.00000000E+00
  0.00000000E+00  0.00000000E+00  0.00000000E+00
  0.00000000E+00  0.00000000E+00  0.00000000E+00
  0.00000000E+00  0.00000000E+00  0.00000000E+00
  0.00000000E+00  0.00000000E+00  0.00000000E+00
