CONTCAR                                 
   1.00000000000000     
    12.3312997818000003    0.0000000000000000    0.0000000000000000
     0.0001127485000000   12.8291997905000006    0.0000000000000000
     0.0005937186000000    0.0011528207000000   19.9943999824000009
   C    N    Fe   Ni   H 
    55     1     1     1     2
Direct
  0.0558512880960482  0.0543131417680944  0.0543851852751277
  0.1560108755911124  0.1102602820729415  0.0542147230536419
  0.1566142265243293  0.2211480419332444  0.0539535060392839
  0.0566125730721213  0.2759789292577722  0.0532077080942063
  0.2559860780277914  0.0555639603827198  0.0544212866710640
  0.3565262582791244  0.1112967872903608  0.0555906848398444
  0.3573101326501473  0.2227747245597509  0.0561706729771278
  0.2567249759734966  0.2768897647791955  0.0546706646823793
  0.4559371670719955  0.0548662819034929  0.0564264426455567
  0.5567670071634423  0.1099432278750310  0.0581282222523617
  0.5572205069021547  0.2213008775558014  0.0589934179537078
  0.4577747551560001  0.2800501680742367  0.0580918003331353
  0.6569033039764014  0.0514279339081236  0.0584174402945547
  0.7564198369207740  0.1082826955512240  0.0572822393325693
  0.7572116240784554  0.2199544457133437  0.0568511873924684
  0.6580206530600146  0.2773977683763529  0.0591961717785920
  0.8554025064893318  0.0520133837939157  0.0561516444578001
  0.9556383758696240  0.1084562519916914  0.0547710830846873
  0.9566156147419970  0.2198567673416985  0.0538790644918997
  0.8572242986432130  0.2756315095928096  0.0543584475885557
  0.0572320870633080  0.3873094160636707  0.0525007641868293
  0.1565057859884935  0.4431159961647552  0.0528551827485510
  0.1562750767763730  0.5545566878981381  0.0524197159415649
  0.0563522299158087  0.6098438968934536  0.0520690594233977
  0.2563325908467281  0.3878580640270771  0.0541494669357262
  0.3557619367143944  0.4436647739561594  0.0555627693922107
  0.3564200908632663  0.5564697429901482  0.0547418107969228
  0.2554184175604644  0.6109222904659389  0.0529672439572164
  0.7598249398490182  0.4439634532621480  0.0560664969801311
  0.8588397759575301  0.3871045789611795  0.0531064352789370
  0.9577591906359892  0.4429321976079921  0.0520835830947504
  0.9568417632171456  0.5542403102899932  0.0522124086664689
  0.8565771902041133  0.6096142171405707  0.0538361693757830
  0.0553833225216946  0.7208996773152146  0.0524960793365441
  0.1539963413676697  0.7772370978204419  0.0524732848388289
  0.1550947131821955  0.8884418963178655  0.0532343447217070
  0.0554714277152551  0.9435566713829452  0.0541359762485875
  0.2531918026996917  0.7219012742350184  0.0524361848729600
  0.3514122665353707  0.7780466456760087  0.0531309301188148
  0.3542297378908459  0.8888219030067778  0.0538516813672495
  0.2549851798965820  0.9444472081446647  0.0536858270917062
  0.4499014674658731  0.7218214104150834  0.0557143552160244
  0.5542606877603056  0.8861005026242729  0.0581694749566365
  0.4549965305407491  0.9437488573201150  0.0556483699242663
  0.7558302624757410  0.8803560324512962  0.0583827356421092
  0.6562662786292514  0.9394300600792654  0.0589692437801395
  0.8567205747159401  0.7219085680592133  0.0552126934816675
  0.9558271330861230  0.7767406325884123  0.0538475697635150
  0.9559029277745622  0.8873863005626146  0.0548089114019398
  0.8548541146326811  0.9398587569569620  0.0565092371615158
  0.4562219759099960  0.3913695011950383  0.0582508298223013
  0.4559566263932099  0.6109321291245987  0.0568256196734760
  0.6613007130745042  0.3869562218089027  0.0606095692882671
  0.7565415671798692  0.5565407837699295  0.0563199641698295
  0.5491152363650449  0.7770021740470591  0.0598653301421821
  0.7578637736355525  0.7707413906132707  0.0583265232206502
  0.6394303125239620  0.6643231859745264  0.0671887058608439
  0.5654379141676761  0.4933804847314335  0.0637661445420700
  0.6351675344288621  0.5764340438510501  0.1196903318200046
  0.6285264355505887  0.6918840894849790  0.1383373745191032
 
  0.00000000E+00  0.00000000E+00  0.00000000E+00
  0.00000000E+00  0.00000000E+00  0.00000000E+00
  0.00000000E+00  0.00000000E+00  0.00000000E+00
  0.00000000E+00  0.00000000E+00  0.00000000E+00
  0.00000000E+00  0.00000000E+00  0.00000000E+00
  0.00000000E+00  0.00000000E+00  0.00000000E+00
  0.00000000E+00  0.00000000E+00  0.00000000E+00
  0.00000000E+00  0.00000000E+00  0.00000000E+00
  0.00000000E+00  0.00000000E+00  0.00000000E+00
  0.00000000E+00  0.00000000E+00  0.00000000E+00
  0.00000000E+00  0.00000000E+00  0.00000000E+00
  0.00000000E+00  0.00000000E+00  0.00000000E+00
  0.00000000E+00  0.00000000E+00  0.00000000E+00
  0.00000000E+00  0.00000000E+00  0.00000000E+00
  0.00000000E+00  0.00000000E+00  0.00000000E+00
  0.00000000E+00  0.00000000E+00  0.00000000E+00
  0.00000000E+00  0.00000000E+00  0.00000000E+00
  0.00000000E+00  0.00000000E+00  0.00000000E+00
  0.00000000E+00  0.00000000E+00  0.00000000E+00
  0.00000000E+00  0.00000000E+00  0.00000000E+00
  0.00000000E+00  0.00000000E+00  0.00000000E+00
  0.00000000E+00  0.00000000E+00  0.00000000E+00
  0.00000000E+00  0.00000000E+00  0.00000000E+00
  0.00000000E+00  0.00000000E+00  0.00000000E+00
  0.00000000E+00  0.00000000E+00  0.00000000E+00
  0.00000000E+00  0.00000000E+00  0.00000000E+00
  0.00000000E+00  0.00000000E+00  0.00000000E+00
  0.00000000E+00  0.00000000E+00  0.00000000E+00
  0.00000000E+00  0.00000000E+00  0.00000000E+00
  0.00000000E+00  0.00000000E+00  0.00000000E+00
  0.00000000E+00  0.00000000E+00  0.00000000E+00
  0.00000000E+00  0.00000000E+00  0.00000000E+00
  0.00000000E+00  0.00000000E+00  0.00000000E+00
  0.00000000E+00  0.00000000E+00  0.00000000E+00
  0.00000000E+00  0.00000000E+00  0.00000000E+00
  0.00000000E+00  0.00000000E+00  0.00000000E+00
  0.00000000E+00  0.00000000E+00  0.00000000E+00
  0.00000000E+00  0.00000000E+00  0.00000000E+00
  0.00000000E+00  0.00000000E+00  0.00000000E+00
  0.00000000E+00  0.00000000E+00  0.00000000E+00
  0.00000000E+00  0.00000000E+00  0.00000000E+00
  0.00000000E+00  0.00000000E+00  0.00000000E+00
  0.00000000E+00  0.00000000E+00  0.00000000E+00
  0.00000000E+00  0.00000000E+00  0.00000000E+00
  0.00000000E+00  0.00000000E+00  0.00000000E+00
  0.00000000E+00  0.00000000E+00  0.00000000E+00
  0.00000000E+00  0.00000000E+00  0.00000000E+00
  0.00000000E+00  0.00000000E+00  0.00000000E+00
  0.00000000E+00  0.00000000E+00  0.00000000E+00
  0.00000000E+00  0.00000000E+00  0.00000000E+00
  0.00000000E+00  0.00000000E+00  0.00000000E+00
  0.00000000E+00  0.00000000E+00  0.00000000E+00
  0.00000000E+00  0.00000000E+00  0.00000000E+00
  0.00000000E+00  0.00000000E+00  0.00000000E+00
  0.00000000E+00  0.00000000E+00  0.00000000E+00
  0.00000000E+00  0.00000000E+00  0.00000000E+00
  0.00000000E+00  0.00000000E+00  0.00000000E+00
  0.00000000E+00  0.00000000E+00  0.00000000E+00
  0.00000000E+00  0.00000000E+00  0.00000000E+00
  0.00000000E+00  0.00000000E+00  0.00000000E+00
