POSCAR\(2)\(2)                          
   1.00000000000000     
    12.3312997818000003    0.0000000000000000    0.0000000000000000
     0.0001127485000000   12.8291997905000006    0.0000000000000000
     0.0005937186000000    0.0011528207000000   19.9943999824000009
   C    N    Fe   Ni   O    H 
    51     5     1     1     2     2
Direct
  0.0550987053544458  0.0512048668504592  0.0470439329526176
  0.1556685385898871  0.1062282624118032  0.0464571982312230
  0.1547077418545795  0.2171191999935130  0.0447438249357096
  0.0545069911074735  0.2731127189224349  0.0449116534791096
  0.2565401253813329  0.0510668798515186  0.0483744001182749
  0.3567598373501033  0.1071499901747790  0.0515215321127871
  0.3554143475305309  0.2192079003731436  0.0498209792010544
  0.2543769630156718  0.2727253476216330  0.0445608377028294
  0.4570784844475868  0.0512070745482955  0.0565653275804255
  0.5561731103781478  0.1101286300410252  0.0601082816113703
  0.5561349451776426  0.2248588350206573  0.0601174453152587
  0.4536556801171894  0.2797574706518076  0.0543840336920897
  0.6549127167735198  0.0501502655752978  0.0613397562765435
  0.7542400730850121  0.1077392392223251  0.0580326030755910
  0.7547689025666240  0.2202108127140315  0.0587280758706990
  0.6573988219391351  0.2815343485519453  0.0628071119174458
  0.8543869522221610  0.0516211106353570  0.0532583827282672
  0.9547015104671561  0.1067309434044808  0.0496683394169499
  0.9546157466196382  0.2181652397581295  0.0493101763237685
  0.8552665800046951  0.2745902582811244  0.0539123734264685
  0.0541455954517554  0.3841197795757181  0.0423219502540258
  0.1532241212637737  0.4398704435422928  0.0393781209024302
  0.1532582100110891  0.5507775004109168  0.0389206275748995
  0.0542970407944970  0.6073842281592965  0.0395992906045404
  0.2523848193152540  0.3837810762348654  0.0413037116594051
  0.3509162960814333  0.4385928562153694  0.0455895107750551
  0.3511112872445186  0.5508546045923524  0.0482118870785803
  0.2526262693863035  0.6062412769287281  0.0424662250514969
  0.7582804109487574  0.4445455749277447  0.0594601322750849
  0.8563356431839360  0.3860015989096069  0.0527522684361322
  0.9552028833052671  0.4405872411181434  0.0453437364289113
  0.9546692208828473  0.5519379151610784  0.0433216296909332
  0.8545328261656611  0.6056660120076854  0.0490884282322152
  0.0552440662339726  0.7181195026567024  0.0405579967978176
  0.1552241273948261  0.7738071900923094  0.0424551636521298
  0.1560159806667013  0.8847520684159346  0.0449379445943576
  0.0556346698082306  0.9403130836621868  0.0457761100804810
  0.2542422761103747  0.7175573482382885  0.0447263236330750
  0.3548889008561922  0.7705142653867716  0.0515082024352373
  0.3566088966852602  0.8826288862413062  0.0523819911650828
  0.2566567179964212  0.9393150868477739  0.0481978590068426
  0.4523287891253655  0.7094777879510786  0.0603610124105408
  0.5550480975534922  0.8773997035260778  0.0646089856183455
  0.4568415362980808  0.9381953700813761  0.0576965720292331
  0.7572774147359148  0.8811406449786501  0.0587482814371362
  0.6553741369795046  0.9362779414384491  0.0635782165342997
  0.8561095404468364  0.7190957221419507  0.0493414943350631
  0.9557356762514648  0.7735835899810128  0.0439531161964247
  0.9555996326916473  0.8850068205274699  0.0468291476198893
  0.8555248537226027  0.9398435475137698  0.0520366484900292
  0.5509317275137835  0.7651573705821487  0.0704640056120967
  0.4474907295958742  0.3869322878938361  0.0534153237406208
  0.6623620413082704  0.3904843717008022  0.0667089601688960
  0.7579493641980587  0.5525510023198345  0.0569405518734376
  0.7614591965881946  0.7736951553439891  0.0608130871965932
  0.4475889442750921  0.6000708724944369  0.0591328858821079
  0.6654200671170488  0.6813460957973513  0.1059238614149536
  0.5483750632541655  0.4877639536647484  0.0800651073659417
  0.6076517773787855  0.5679128708370541  0.1520409373264485
  0.6697443226538168  0.7535311609052221  0.1829229629770127
  0.6742265815951061  0.8288709220019838  0.1756025270645855
  0.5506934729472928  0.5895857873899343  0.1830309434090843
 
  0.00000000E+00  0.00000000E+00  0.00000000E+00
  0.00000000E+00  0.00000000E+00  0.00000000E+00
  0.00000000E+00  0.00000000E+00  0.00000000E+00
  0.00000000E+00  0.00000000E+00  0.00000000E+00
  0.00000000E+00  0.00000000E+00  0.00000000E+00
  0.00000000E+00  0.00000000E+00  0.00000000E+00
  0.00000000E+00  0.00000000E+00  0.00000000E+00
  0.00000000E+00  0.00000000E+00  0.00000000E+00
  0.00000000E+00  0.00000000E+00  0.00000000E+00
  0.00000000E+00  0.00000000E+00  0.00000000E+00
  0.00000000E+00  0.00000000E+00  0.00000000E+00
  0.00000000E+00  0.00000000E+00  0.00000000E+00
  0.00000000E+00  0.00000000E+00  0.00000000E+00
  0.00000000E+00  0.00000000E+00  0.00000000E+00
  0.00000000E+00  0.00000000E+00  0.00000000E+00
  0.00000000E+00  0.00000000E+00  0.00000000E+00
  0.00000000E+00  0.00000000E+00  0.00000000E+00
  0.00000000E+00  0.00000000E+00  0.00000000E+00
  0.00000000E+00  0.00000000E+00  0.00000000E+00
  0.00000000E+00  0.00000000E+00  0.00000000E+00
  0.00000000E+00  0.00000000E+00  0.00000000E+00
  0.00000000E+00  0.00000000E+00  0.00000000E+00
  0.00000000E+00  0.00000000E+00  0.00000000E+00
  0.00000000E+00  0.00000000E+00  0.00000000E+00
  0.00000000E+00  0.00000000E+00  0.00000000E+00
  0.00000000E+00  0.00000000E+00  0.00000000E+00
  0.00000000E+00  0.00000000E+00  0.00000000E+00
  0.00000000E+00  0.00000000E+00  0.00000000E+00
  0.00000000E+00  0.00000000E+00  0.00000000E+00
  0.00000000E+00  0.00000000E+00  0.00000000E+00
  0.00000000E+00  0.00000000E+00  0.00000000E+00
  0.00000000E+00  0.00000000E+00  0.00000000E+00
  0.00000000E+00  0.00000000E+00  0.00000000E+00
  0.00000000E+00  0.00000000E+00  0.00000000E+00
  0.00000000E+00  0.00000000E+00  0.00000000E+00
  0.00000000E+00  0.00000000E+00  0.00000000E+00
  0.00000000E+00  0.00000000E+00  0.00000000E+00
  0.00000000E+00  0.00000000E+00  0.00000000E+00
  0.00000000E+00  0.00000000E+00  0.00000000E+00
  0.00000000E+00  0.00000000E+00  0.00000000E+00
  0.00000000E+00  0.00000000E+00  0.00000000E+00
  0.00000000E+00  0.00000000E+00  0.00000000E+00
  0.00000000E+00  0.00000000E+00  0.00000000E+00
  0.00000000E+00  0.00000000E+00  0.00000000E+00
  0.00000000E+00  0.00000000E+00  0.00000000E+00
  0.00000000E+00  0.00000000E+00  0.00000000E+00
  0.00000000E+00  0.00000000E+00  0.00000000E+00
  0.00000000E+00  0.00000000E+00  0.00000000E+00
  0.00000000E+00  0.00000000E+00  0.00000000E+00
  0.00000000E+00  0.00000000E+00  0.00000000E+00
  0.00000000E+00  0.00000000E+00  0.00000000E+00
  0.00000000E+00  0.00000000E+00  0.00000000E+00
  0.00000000E+00  0.00000000E+00  0.00000000E+00
  0.00000000E+00  0.00000000E+00  0.00000000E+00
  0.00000000E+00  0.00000000E+00  0.00000000E+00
  0.00000000E+00  0.00000000E+00  0.00000000E+00
  0.00000000E+00  0.00000000E+00  0.00000000E+00
  0.00000000E+00  0.00000000E+00  0.00000000E+00
  0.00000000E+00  0.00000000E+00  0.00000000E+00
  0.00000000E+00  0.00000000E+00  0.00000000E+00
  0.00000000E+00  0.00000000E+00  0.00000000E+00
  0.00000000E+00  0.00000000E+00  0.00000000E+00
