CONTCAR\(2)\(3)                         
   1.00000000000000     
    12.3312997818000003    0.0000000000000000    0.0000000000000000
     0.0001127485000000   12.8291997905000006    0.0000000000000000
     0.0005937186000000    0.0011528207000000   19.9943999824000009
   C    N    Fe   Ni   O    H 
    54     2     1     1     1     1
Direct
  0.0555039738123374  0.0549800686082841  0.0489328010756199
  0.1558597320059602  0.1101591094735777  0.0488542509386005
  0.1559738526003266  0.2210010009918063  0.0478891913488843
  0.0558642647804191  0.2762292324162793  0.0473045319376226
  0.2563478613699797  0.0553524457158909  0.0505103618108203
  0.3567327623045528  0.1110789384300912  0.0537064588192968
  0.3569893317522140  0.2227748178064191  0.0533563315400186
  0.2560981848505900  0.2764822502376153  0.0488642873837517
  0.4564165828118465  0.0550471835054440  0.0578076048495820
  0.5567838056787305  0.1114361821139495  0.0612363068501550
  0.5570352693846023  0.2234863419969038  0.0628586867066116
  0.4568558493590718  0.2805587496659354  0.0587375828155616
  0.6565596456503122  0.0526725929435318  0.0611602284687840
  0.7556399970224075  0.1103290467887719  0.0580127261293153
  0.7559811016053984  0.2226880105734723  0.0584903223491541
  0.6575099724374625  0.2818495648197298  0.0643579173739150
  0.8550084800740466  0.0540476266870745  0.0542236447850271
  0.9552481376294125  0.1098423371507354  0.0509578257324552
  0.9556519599228249  0.2212682414296287  0.0503526477697297
  0.8560322473756068  0.2775619833942190  0.0538317930317130
  0.0563444167384837  0.3874826525241937  0.0453197404248332
  0.1553793005885960  0.4431574948596856  0.0441760940639029
  0.1552262956975412  0.5547473631201156  0.0432012977409992
  0.0561331621437794  0.6105387922913368  0.0429171096695278
  0.2550889875736384  0.3873683027147496  0.0468443298715291
  0.3537143855022826  0.4431332484833730  0.0507414075512782
  0.3534180015378618  0.5556625747538951  0.0506295211746720
  0.2541069306425088  0.6109485070413807  0.0455195605914186
  0.7592900684882706  0.4483074224632621  0.0590410338488784
  0.8574021378532839  0.3892330743499102  0.0525137783255054
  0.9569701552088044  0.4434930488814458  0.0469517930458724
  0.9573777645239978  0.5546165337065265  0.0454041777296879
  0.8573535365852701  0.6085814332767867  0.0497367998645262
  0.0557214870508700  0.7216659699326363  0.0436716804994039
  0.1546431840657642  0.7776978396004360  0.0446645585986937
  0.1555411264495481  0.8888371938145262  0.0467242069541691
  0.0554680158400064  0.9440108595792627  0.0477482104386355
  0.2540115467295856  0.7219565138927668  0.0462825864070724
  0.3530653738253170  0.7768180410884284  0.0519484460845118
  0.3553814274317812  0.8880586327851318  0.0531790308583084
  0.2557776210849745  0.9441437980352838  0.0496350161171837
  0.4509970198264147  0.7188452140580801  0.0610019506696352
  0.5547898390610250  0.8846981667739399  0.0646203581379463
  0.4556972426028530  0.9432232417459838  0.0584879765600815
  0.7566259103459353  0.8830643470835156  0.0584129463082203
  0.6564048285005123  0.9401611539495860  0.0625278600673868
  0.8568147163601032  0.7223303549825925  0.0502130767696608
  0.9560489441811582  0.7770118380714469  0.0467612839203190
  0.9558401728166880  0.8882435535316535  0.0490423589558241
  0.8552743060453040  0.9418923204197686  0.0537060202651796
  0.4539159524544378  0.3918520908502205  0.0591086633844164
  0.6597755381963046  0.3928374420695128  0.0699434778844319
  0.5490129773149763  0.7750615459808290  0.0705949390946103
  0.4519820707460234  0.6073246908617903  0.0611038814855188
  0.7623747966887308  0.5566812032866222  0.0567425314694084
  0.7596772840626844  0.7739417008537774  0.0577659764947008
  0.6534369049678906  0.6711002775411563  0.0822736603066985
  0.5536146377102074  0.4918081118488295  0.0869482181141308
  0.6160539996762636  0.5871774012459672  0.1566954324127996
  0.5546548264521886  0.6157903489002499  0.1814535201217704
 
  0.00000000E+00  0.00000000E+00  0.00000000E+00
  0.00000000E+00  0.00000000E+00  0.00000000E+00
  0.00000000E+00  0.00000000E+00  0.00000000E+00
  0.00000000E+00  0.00000000E+00  0.00000000E+00
  0.00000000E+00  0.00000000E+00  0.00000000E+00
  0.00000000E+00  0.00000000E+00  0.00000000E+00
  0.00000000E+00  0.00000000E+00  0.00000000E+00
  0.00000000E+00  0.00000000E+00  0.00000000E+00
  0.00000000E+00  0.00000000E+00  0.00000000E+00
  0.00000000E+00  0.00000000E+00  0.00000000E+00
  0.00000000E+00  0.00000000E+00  0.00000000E+00
  0.00000000E+00  0.00000000E+00  0.00000000E+00
  0.00000000E+00  0.00000000E+00  0.00000000E+00
  0.00000000E+00  0.00000000E+00  0.00000000E+00
  0.00000000E+00  0.00000000E+00  0.00000000E+00
  0.00000000E+00  0.00000000E+00  0.00000000E+00
  0.00000000E+00  0.00000000E+00  0.00000000E+00
  0.00000000E+00  0.00000000E+00  0.00000000E+00
  0.00000000E+00  0.00000000E+00  0.00000000E+00
  0.00000000E+00  0.00000000E+00  0.00000000E+00
  0.00000000E+00  0.00000000E+00  0.00000000E+00
  0.00000000E+00  0.00000000E+00  0.00000000E+00
  0.00000000E+00  0.00000000E+00  0.00000000E+00
  0.00000000E+00  0.00000000E+00  0.00000000E+00
  0.00000000E+00  0.00000000E+00  0.00000000E+00
  0.00000000E+00  0.00000000E+00  0.00000000E+00
  0.00000000E+00  0.00000000E+00  0.00000000E+00
  0.00000000E+00  0.00000000E+00  0.00000000E+00
  0.00000000E+00  0.00000000E+00  0.00000000E+00
  0.00000000E+00  0.00000000E+00  0.00000000E+00
  0.00000000E+00  0.00000000E+00  0.00000000E+00
  0.00000000E+00  0.00000000E+00  0.00000000E+00
  0.00000000E+00  0.00000000E+00  0.00000000E+00
  0.00000000E+00  0.00000000E+00  0.00000000E+00
  0.00000000E+00  0.00000000E+00  0.00000000E+00
  0.00000000E+00  0.00000000E+00  0.00000000E+00
  0.00000000E+00  0.00000000E+00  0.00000000E+00
  0.00000000E+00  0.00000000E+00  0.00000000E+00
  0.00000000E+00  0.00000000E+00  0.00000000E+00
  0.00000000E+00  0.00000000E+00  0.00000000E+00
  0.00000000E+00  0.00000000E+00  0.00000000E+00
  0.00000000E+00  0.00000000E+00  0.00000000E+00
  0.00000000E+00  0.00000000E+00  0.00000000E+00
  0.00000000E+00  0.00000000E+00  0.00000000E+00
  0.00000000E+00  0.00000000E+00  0.00000000E+00
  0.00000000E+00  0.00000000E+00  0.00000000E+00
  0.00000000E+00  0.00000000E+00  0.00000000E+00
  0.00000000E+00  0.00000000E+00  0.00000000E+00
  0.00000000E+00  0.00000000E+00  0.00000000E+00
  0.00000000E+00  0.00000000E+00  0.00000000E+00
  0.00000000E+00  0.00000000E+00  0.00000000E+00
  0.00000000E+00  0.00000000E+00  0.00000000E+00
  0.00000000E+00  0.00000000E+00  0.00000000E+00
  0.00000000E+00  0.00000000E+00  0.00000000E+00
  0.00000000E+00  0.00000000E+00  0.00000000E+00
  0.00000000E+00  0.00000000E+00  0.00000000E+00
  0.00000000E+00  0.00000000E+00  0.00000000E+00
  0.00000000E+00  0.00000000E+00  0.00000000E+00
  0.00000000E+00  0.00000000E+00  0.00000000E+00
  0.00000000E+00  0.00000000E+00  0.00000000E+00
