CONTCAR                                 
   1.00000000000000     
    12.3312997818000003    0.0000000000000000    0.0000000000000000
     0.0001127485000000   12.8291997905000006    0.0000000000000000
     0.0005937186000000    0.0011528207000000   19.9943999824000009
   C    N    Fe   Ni   O 
    53     3     1     1     1
Direct
  0.0562176549865200  0.0559717111002653  0.0508783699355832
  0.1566012914603597  0.1113606514358405  0.0498990079515458
  0.1567899068353726  0.2223818496386724  0.0491400946210033
  0.0561952523369929  0.2769984104642721  0.0498957049654289
  0.2567379305617105  0.0559116246552721  0.0506242580696455
  0.3573479773833301  0.1108430174229002  0.0537104108063103
  0.3576178729706872  0.2228328531259701  0.0530780501318778
  0.2572670427719833  0.2779560239865625  0.0489087904715756
  0.4568717082118471  0.0538866477505438  0.0577621544616227
  0.5569186652928565  0.1094524169248879  0.0626434999763031
  0.5570001770470180  0.2219350495783390  0.0641293455778923
  0.4574348002806672  0.2799119461968652  0.0579649260339225
  0.6559085891872624  0.0498763681747092  0.0642466485758439
  0.7552728311582314  0.1084149327041993  0.0624627619793623
  0.7558488409153344  0.2211255745666175  0.0637183861923705
  0.6568153841745369  0.2792579472826520  0.0684044198451028
  0.8554531172770147  0.0537030657013362  0.0579791828243622
  0.9555712788327601  0.1101474107465776  0.0541577100872508
  0.9558529374861101  0.2215214844047412  0.0540244392773960
  0.8560056497605133  0.2770930026704225  0.0588079640807166
  0.0564312509746165  0.3881756790107988  0.0479191768731570
  0.1562326825283960  0.4437596477946618  0.0448464346963866
  0.1559687596212895  0.5548412428517936  0.0433538169775755
  0.0569850114313306  0.6106906938685202  0.0444460512946362
  0.2567340951359318  0.3893313208043986  0.0462656389653021
  0.3567173346726272  0.4456787636783410  0.0479236627359024
  0.3552972662809634  0.5590229233437177  0.0467217993460137
  0.2548090855859409  0.6117546620549931  0.0437849557951899
  0.7584122253364305  0.4467484711005701  0.0672161735492378
  0.8571474109598061  0.3889573242125651  0.0582875769311223
  0.9568045730548322  0.4438676295917969  0.0510556409311749
  0.9575713889865936  0.5552104063006971  0.0490140130142178
  0.8593570022782592  0.6116094307311906  0.0557106732338644
  0.0570584046028636  0.7219106454750974  0.0447274447291170
  0.1555195722884629  0.7784057903103400  0.0442534949838503
  0.1560219096864875  0.8894465387917915  0.0468153457360740
  0.0563876479324050  0.9451292814116353  0.0492719883486956
  0.2543407737822830  0.7224654820581268  0.0443674685517509
  0.3532228017490304  0.7774070933916359  0.0487935258664564
  0.3551968621494931  0.8882880880874613  0.0513007168965370
  0.2560336284061869  0.9447013719660946  0.0490929796307966
  0.4508554697988295  0.7196564388459480  0.0545626451739192
  0.5526708260976915  0.8801569175189985  0.0627372290013644
  0.4558680141873998  0.9416823823187619  0.0569804388967265
  0.7580364171786694  0.8816969611135030  0.0629685032398143
  0.6553577084139042  0.9359232557177803  0.0649316274901344
  0.8605218311171459  0.7237455242015139  0.0557075596300602
  0.9584586679651903  0.7784727294160863  0.0492064611460753
  0.9570966825573971  0.8891613221480092  0.0516022332525535
  0.8560297669455593  0.9419676481460620  0.0573232262855378
  0.4560769438030692  0.3913613828526456  0.0558629820580410
  0.6592255573258757  0.3902715065261682  0.0737734088912465
  0.7607597947581954  0.5592196481668185  0.0682884506152911
  0.4507279481760956  0.6124444554218647  0.0516704261617742
  0.5467266280600088  0.7720676987292967  0.0645465093002834
  0.7639563466836643  0.7741505031295091  0.0648306696263710
  0.6583529422623874  0.6644963764929025  0.0932626345072068
  0.5554561264532221  0.4906346769823270  0.0809516678220131
  0.5993336008403528  0.5816160589039319  0.1493186289494058
 
  0.00000000E+00  0.00000000E+00  0.00000000E+00
  0.00000000E+00  0.00000000E+00  0.00000000E+00
  0.00000000E+00  0.00000000E+00  0.00000000E+00
  0.00000000E+00  0.00000000E+00  0.00000000E+00
  0.00000000E+00  0.00000000E+00  0.00000000E+00
  0.00000000E+00  0.00000000E+00  0.00000000E+00
  0.00000000E+00  0.00000000E+00  0.00000000E+00
  0.00000000E+00  0.00000000E+00  0.00000000E+00
  0.00000000E+00  0.00000000E+00  0.00000000E+00
  0.00000000E+00  0.00000000E+00  0.00000000E+00
  0.00000000E+00  0.00000000E+00  0.00000000E+00
  0.00000000E+00  0.00000000E+00  0.00000000E+00
  0.00000000E+00  0.00000000E+00  0.00000000E+00
  0.00000000E+00  0.00000000E+00  0.00000000E+00
  0.00000000E+00  0.00000000E+00  0.00000000E+00
  0.00000000E+00  0.00000000E+00  0.00000000E+00
  0.00000000E+00  0.00000000E+00  0.00000000E+00
  0.00000000E+00  0.00000000E+00  0.00000000E+00
  0.00000000E+00  0.00000000E+00  0.00000000E+00
  0.00000000E+00  0.00000000E+00  0.00000000E+00
  0.00000000E+00  0.00000000E+00  0.00000000E+00
  0.00000000E+00  0.00000000E+00  0.00000000E+00
  0.00000000E+00  0.00000000E+00  0.00000000E+00
  0.00000000E+00  0.00000000E+00  0.00000000E+00
  0.00000000E+00  0.00000000E+00  0.00000000E+00
  0.00000000E+00  0.00000000E+00  0.00000000E+00
  0.00000000E+00  0.00000000E+00  0.00000000E+00
  0.00000000E+00  0.00000000E+00  0.00000000E+00
  0.00000000E+00  0.00000000E+00  0.00000000E+00
  0.00000000E+00  0.00000000E+00  0.00000000E+00
  0.00000000E+00  0.00000000E+00  0.00000000E+00
  0.00000000E+00  0.00000000E+00  0.00000000E+00
  0.00000000E+00  0.00000000E+00  0.00000000E+00
  0.00000000E+00  0.00000000E+00  0.00000000E+00
  0.00000000E+00  0.00000000E+00  0.00000000E+00
  0.00000000E+00  0.00000000E+00  0.00000000E+00
  0.00000000E+00  0.00000000E+00  0.00000000E+00
  0.00000000E+00  0.00000000E+00  0.00000000E+00
  0.00000000E+00  0.00000000E+00  0.00000000E+00
  0.00000000E+00  0.00000000E+00  0.00000000E+00
  0.00000000E+00  0.00000000E+00  0.00000000E+00
  0.00000000E+00  0.00000000E+00  0.00000000E+00
  0.00000000E+00  0.00000000E+00  0.00000000E+00
  0.00000000E+00  0.00000000E+00  0.00000000E+00
  0.00000000E+00  0.00000000E+00  0.00000000E+00
  0.00000000E+00  0.00000000E+00  0.00000000E+00
  0.00000000E+00  0.00000000E+00  0.00000000E+00
  0.00000000E+00  0.00000000E+00  0.00000000E+00
  0.00000000E+00  0.00000000E+00  0.00000000E+00
  0.00000000E+00  0.00000000E+00  0.00000000E+00
  0.00000000E+00  0.00000000E+00  0.00000000E+00
  0.00000000E+00  0.00000000E+00  0.00000000E+00
  0.00000000E+00  0.00000000E+00  0.00000000E+00
  0.00000000E+00  0.00000000E+00  0.00000000E+00
  0.00000000E+00  0.00000000E+00  0.00000000E+00
  0.00000000E+00  0.00000000E+00  0.00000000E+00
  0.00000000E+00  0.00000000E+00  0.00000000E+00
  0.00000000E+00  0.00000000E+00  0.00000000E+00
  0.00000000E+00  0.00000000E+00  0.00000000E+00
