an6                                     
   1.00000000000000     
    12.3312997818000003    0.0000000000000000    0.0000000000000000
     0.0001127485000000   12.8291997905000006    0.0000000000000000
     0.0005937186000000    0.0011528207000000   19.9943999824000009
   C    Fe   Ni
    56     1     1
Direct
  0.0562623238230524  0.0541812861936509  0.0557725237776594
  0.1562554771319111  0.1105306192542211  0.0557946123793374
  0.1571335411793973  0.2213776639349581  0.0557830237499157
  0.0572319736390155  0.2761988349413003  0.0557572769913774
  0.2561675217201118  0.0560420361451206  0.0558032534113380
  0.3561243401537665  0.1125140128866702  0.0557702186499313
  0.3573440905450999  0.2239587770378586  0.0557470113024574
  0.2569546284001652  0.2777688211379175  0.0557699933605768
  0.4553387519334761  0.0563012939655997  0.0557544652768975
  0.5560671144525982  0.1114785208810863  0.0557266026184516
  0.5568926904868663  0.2220459444253116  0.0557014580351498
  0.4579188232611767  0.2814557336927761  0.0556964211591884
  0.6562088085974248  0.0540677562506556  0.0556953393697488
  0.7569413163119001  0.1090328717286663  0.0556814386667434
  0.7579788814123831  0.2196408409871499  0.0556684079343195
  0.6582520056153935  0.2761195205274777  0.0556598463149917
  0.8562701886130494  0.0527181371999893  0.0556907905224968
  0.9564307585309274  0.1087484026914482  0.0557265427473375
  0.9575416015165878  0.2197917516457107  0.0557152290060384
  0.8582088333604844  0.2750932588927383  0.0556729657130507
  0.0577969542234798  0.3873714079091534  0.0557452861046482
  0.1568678613013973  0.4437792909541629  0.0557690107828842
  0.1562957632951226  0.5550285844677643  0.0557743513484227
  0.0560107768451085  0.6098830713020229  0.0557593244046317
  0.2567709739381169  0.3887544810535443  0.0557654998215734
  0.3562068488360354  0.4447046336292017  0.0557278745563854
  0.3571653481938342  0.5573912332686725  0.0557284368380783
  0.2561925870827929  0.6114282191418046  0.0557724843692207
  0.7601550424338496  0.4412066682607421  0.0556172995501815
  0.8599312772718555  0.3858006693901104  0.0556536785989272
  0.9581744836344943  0.4422988391504370  0.0556987379098009
  0.9560788728662549  0.5534324213530042  0.0557143938881599
  0.8550917935108716  0.6074529270463421  0.0556640631336171
  0.0554395170470820  0.7210925190302093  0.0557770992109828
  0.1545992477444549  0.7774355128977541  0.0558087482512947
  0.1552219972045411  0.8885365131681739  0.0558172677710345
  0.0552660396970405  0.9433483010353551  0.0557860265623393
  0.2542788382685605  0.7223971432757831  0.0557912887885982
  0.3529300318979728  0.7783489928157409  0.0557637411879420
  0.3544585668618004  0.8893940508959457  0.0557829786414502
  0.2550578684769811  0.9448221812205360  0.0558175771870217
  0.4527258645926551  0.7221364511981205  0.0556941277120134
  0.5539131464580092  0.8895704879273951  0.0556906959562700
  0.4542363001717961  0.9457691837953500  0.0557482069818101
  0.7544675089956162  0.8843283468327814  0.0556465231210857
  0.6554266687864213  0.9434517018674403  0.0556754649952154
  0.8559337389237666  0.7202740113169370  0.0556760784367221
  0.9553776276100034  0.7761019898675452  0.0557377097114909
  0.9553295347973698  0.8871874136183091  0.0557399663278901
  0.8550601009262414  0.9413741367263115  0.0556843103891577
  0.4568754870608396  0.3925478859401511  0.0556668976960911
  0.4587731158720001  0.6101757450303773  0.0556740465063147
  0.6619112410355277  0.3846066742292525  0.0556171330538033
  0.7539720068865212  0.5526154179647926  0.0556146547536543
  0.5502064325414067  0.7813302420673961  0.0556451669103149
  0.7550379840168771  0.7732422189852229  0.0556312646033560
  0.6414441002287932  0.6689866672909546  0.0556103826091316
  0.5691248227797369  0.4918676276548762  0.0556147923414424
 
  0.00000000E+00  0.00000000E+00  0.00000000E+00
  0.00000000E+00  0.00000000E+00  0.00000000E+00
  0.00000000E+00  0.00000000E+00  0.00000000E+00
  0.00000000E+00  0.00000000E+00  0.00000000E+00
  0.00000000E+00  0.00000000E+00  0.00000000E+00
  0.00000000E+00  0.00000000E+00  0.00000000E+00
  0.00000000E+00  0.00000000E+00  0.00000000E+00
  0.00000000E+00  0.00000000E+00  0.00000000E+00
  0.00000000E+00  0.00000000E+00  0.00000000E+00
  0.00000000E+00  0.00000000E+00  0.00000000E+00
  0.00000000E+00  0.00000000E+00  0.00000000E+00
  0.00000000E+00  0.00000000E+00  0.00000000E+00
  0.00000000E+00  0.00000000E+00  0.00000000E+00
  0.00000000E+00  0.00000000E+00  0.00000000E+00
  0.00000000E+00  0.00000000E+00  0.00000000E+00
  0.00000000E+00  0.00000000E+00  0.00000000E+00
  0.00000000E+00  0.00000000E+00  0.00000000E+00
  0.00000000E+00  0.00000000E+00  0.00000000E+00
  0.00000000E+00  0.00000000E+00  0.00000000E+00
  0.00000000E+00  0.00000000E+00  0.00000000E+00
  0.00000000E+00  0.00000000E+00  0.00000000E+00
  0.00000000E+00  0.00000000E+00  0.00000000E+00
  0.00000000E+00  0.00000000E+00  0.00000000E+00
  0.00000000E+00  0.00000000E+00  0.00000000E+00
  0.00000000E+00  0.00000000E+00  0.00000000E+00
  0.00000000E+00  0.00000000E+00  0.00000000E+00
  0.00000000E+00  0.00000000E+00  0.00000000E+00
  0.00000000E+00  0.00000000E+00  0.00000000E+00
  0.00000000E+00  0.00000000E+00  0.00000000E+00
  0.00000000E+00  0.00000000E+00  0.00000000E+00
  0.00000000E+00  0.00000000E+00  0.00000000E+00
  0.00000000E+00  0.00000000E+00  0.00000000E+00
  0.00000000E+00  0.00000000E+00  0.00000000E+00
  0.00000000E+00  0.00000000E+00  0.00000000E+00
  0.00000000E+00  0.00000000E+00  0.00000000E+00
  0.00000000E+00  0.00000000E+00  0.00000000E+00
  0.00000000E+00  0.00000000E+00  0.00000000E+00
  0.00000000E+00  0.00000000E+00  0.00000000E+00
  0.00000000E+00  0.00000000E+00  0.00000000E+00
  0.00000000E+00  0.00000000E+00  0.00000000E+00
  0.00000000E+00  0.00000000E+00  0.00000000E+00
  0.00000000E+00  0.00000000E+00  0.00000000E+00
  0.00000000E+00  0.00000000E+00  0.00000000E+00
  0.00000000E+00  0.00000000E+00  0.00000000E+00
  0.00000000E+00  0.00000000E+00  0.00000000E+00
  0.00000000E+00  0.00000000E+00  0.00000000E+00
  0.00000000E+00  0.00000000E+00  0.00000000E+00
  0.00000000E+00  0.00000000E+00  0.00000000E+00
  0.00000000E+00  0.00000000E+00  0.00000000E+00
  0.00000000E+00  0.00000000E+00  0.00000000E+00
  0.00000000E+00  0.00000000E+00  0.00000000E+00
  0.00000000E+00  0.00000000E+00  0.00000000E+00
  0.00000000E+00  0.00000000E+00  0.00000000E+00
  0.00000000E+00  0.00000000E+00  0.00000000E+00
  0.00000000E+00  0.00000000E+00  0.00000000E+00
  0.00000000E+00  0.00000000E+00  0.00000000E+00
  0.00000000E+00  0.00000000E+00  0.00000000E+00
  0.00000000E+00  0.00000000E+00  0.00000000E+00
