CONTCAR\(2)                             
   1.00000000000000     
    12.3312997818000003    0.0000000000000000    0.0000000000000000
     0.0001127485000000   12.8291997905000006    0.0000000000000000
     0.0005937186000000    0.0011528207000000   19.9943999824000009
   C    N    Fe   Ni   O 
    52     4     1     1     1
Direct
  0.0565306719579508  0.0551560576439153  0.0536039465022410
  0.1569190074661473  0.1100201348869103  0.0521809968782341
  0.1560045487334204  0.2208912365856227  0.0506534792531627
  0.0557046680841374  0.2766301345131333  0.0502415842166514
  0.2577870447457147  0.0547824013467151  0.0526551682750305
  0.3581424826036115  0.1105528317807164  0.0548905617631755
  0.3567845719567392  0.2227487365412615  0.0544056740673458
  0.2555853655809988  0.2762479584311391  0.0505433430349490
  0.4585045831180906  0.0542860091712766  0.0580267098651047
  0.5572818813421656  0.1130131867049648  0.0616925606469976
  0.5567613687112791  0.2278133948579056  0.0626608699698445
  0.4549243633443428  0.2831866521315045  0.0586476418513114
  0.6563221713575165  0.0529243009216012  0.0630851947984824
  0.7553450337890477  0.1109672096030676  0.0616089372182418
  0.7558750684702540  0.2238987347780628  0.0609611756316730
  0.6577796865848954  0.2851125599042867  0.0640790459927671
  0.8553878025241488  0.0546155253540616  0.0591142700540564
  0.9556911416333822  0.1101317011491437  0.0556264419475989
  0.9557844446952202  0.2215278755073831  0.0539254493034161
  0.8561619553998892  0.2782807119830775  0.0564502823223761
  0.0554836361300491  0.3877989655344992  0.0473593029227810
  0.1545319197123789  0.4432892788287326  0.0453426460388150
  0.1548360405422097  0.5542911545588560  0.0444564245900785
  0.0563292451033043  0.6109912219677279  0.0456734804363592
  0.2538034809457360  0.3872294991145326  0.0477494334453517
  0.3523874369458929  0.4418861582567039  0.0507267811559077
  0.3524487242727287  0.5542865757498147  0.0493492098121890
  0.2537129360375622  0.6098688833514734  0.0457634346594523
  0.7580668126557455  0.4475402344242680  0.0589941993155652
  0.8570905695260440  0.3898758625686641  0.0541401382477632
  0.9563539344280755  0.4445936851881427  0.0487433083014823
  0.9570685620638711  0.5558087713473867  0.0476944642421811
  0.8580923172882513  0.6119445920660427  0.0524668304750235
  0.0570136107117808  0.7219708215906404  0.0475611222057765
  0.1561494480331422  0.7775357707615460  0.0478666392070622
  0.1573601060331047  0.8886383845589246  0.0504588183076753
  0.0572058687641848  0.9444317328241557  0.0530090038498559
  0.2550919571597095  0.7209629483997225  0.0474660367540111
  0.3553558633643865  0.7742295917785184  0.0510522601241113
  0.3579543305088245  0.8861807723632174  0.0527434629533665
  0.2579007343233126  0.9431205921264966  0.0515754541167738
  0.4532841966077803  0.7137744635425788  0.0546303933404263
  0.5572128476776185  0.8798886359624181  0.0605982857305937
  0.4586182900187637  0.9408836248016942  0.0568878525229081
  0.7581693245807316  0.8825127544689183  0.0642543431832321
  0.6568494848930945  0.9386589305159474  0.0638327307211924
  0.8593784613221250  0.7240732265762325  0.0564047026439560
  0.9578570292420381  0.7784523187470606  0.0522866455482797
  0.9575080951959208  0.8892260303886304  0.0552926276497224
  0.8563770254688893  0.9424192635560052  0.0597193268716980
  0.7583451858919494  0.5602248103956788  0.0579588473181524
  0.5538636318314929  0.7668224580292716  0.0608453541225605
  0.4493517593457954  0.3910673136988477  0.0581912487684337
  0.4489980685077831  0.6048919005711477  0.0542898871008054
  0.6622690819176592  0.3934615281214836  0.0657972124595135
  0.7618779824513625  0.7736128932222598  0.0663648317321867
  0.6549460973282745  0.6637425072304721  0.0906206897276163
  0.5527841391993280  0.4990727943586692  0.0752493864950135
  0.6063137258701433  0.5846516886568488  0.1476498803094664
 
  0.00000000E+00  0.00000000E+00  0.00000000E+00
  0.00000000E+00  0.00000000E+00  0.00000000E+00
  0.00000000E+00  0.00000000E+00  0.00000000E+00
  0.00000000E+00  0.00000000E+00  0.00000000E+00
  0.00000000E+00  0.00000000E+00  0.00000000E+00
  0.00000000E+00  0.00000000E+00  0.00000000E+00
  0.00000000E+00  0.00000000E+00  0.00000000E+00
  0.00000000E+00  0.00000000E+00  0.00000000E+00
  0.00000000E+00  0.00000000E+00  0.00000000E+00
  0.00000000E+00  0.00000000E+00  0.00000000E+00
  0.00000000E+00  0.00000000E+00  0.00000000E+00
  0.00000000E+00  0.00000000E+00  0.00000000E+00
  0.00000000E+00  0.00000000E+00  0.00000000E+00
  0.00000000E+00  0.00000000E+00  0.00000000E+00
  0.00000000E+00  0.00000000E+00  0.00000000E+00
  0.00000000E+00  0.00000000E+00  0.00000000E+00
  0.00000000E+00  0.00000000E+00  0.00000000E+00
  0.00000000E+00  0.00000000E+00  0.00000000E+00
  0.00000000E+00  0.00000000E+00  0.00000000E+00
  0.00000000E+00  0.00000000E+00  0.00000000E+00
  0.00000000E+00  0.00000000E+00  0.00000000E+00
  0.00000000E+00  0.00000000E+00  0.00000000E+00
  0.00000000E+00  0.00000000E+00  0.00000000E+00
  0.00000000E+00  0.00000000E+00  0.00000000E+00
  0.00000000E+00  0.00000000E+00  0.00000000E+00
  0.00000000E+00  0.00000000E+00  0.00000000E+00
  0.00000000E+00  0.00000000E+00  0.00000000E+00
  0.00000000E+00  0.00000000E+00  0.00000000E+00
  0.00000000E+00  0.00000000E+00  0.00000000E+00
  0.00000000E+00  0.00000000E+00  0.00000000E+00
  0.00000000E+00  0.00000000E+00  0.00000000E+00
  0.00000000E+00  0.00000000E+00  0.00000000E+00
  0.00000000E+00  0.00000000E+00  0.00000000E+00
  0.00000000E+00  0.00000000E+00  0.00000000E+00
  0.00000000E+00  0.00000000E+00  0.00000000E+00
  0.00000000E+00  0.00000000E+00  0.00000000E+00
  0.00000000E+00  0.00000000E+00  0.00000000E+00
  0.00000000E+00  0.00000000E+00  0.00000000E+00
  0.00000000E+00  0.00000000E+00  0.00000000E+00
  0.00000000E+00  0.00000000E+00  0.00000000E+00
  0.00000000E+00  0.00000000E+00  0.00000000E+00
  0.00000000E+00  0.00000000E+00  0.00000000E+00
  0.00000000E+00  0.00000000E+00  0.00000000E+00
  0.00000000E+00  0.00000000E+00  0.00000000E+00
  0.00000000E+00  0.00000000E+00  0.00000000E+00
  0.00000000E+00  0.00000000E+00  0.00000000E+00
  0.00000000E+00  0.00000000E+00  0.00000000E+00
  0.00000000E+00  0.00000000E+00  0.00000000E+00
  0.00000000E+00  0.00000000E+00  0.00000000E+00
  0.00000000E+00  0.00000000E+00  0.00000000E+00
  0.00000000E+00  0.00000000E+00  0.00000000E+00
  0.00000000E+00  0.00000000E+00  0.00000000E+00
  0.00000000E+00  0.00000000E+00  0.00000000E+00
  0.00000000E+00  0.00000000E+00  0.00000000E+00
  0.00000000E+00  0.00000000E+00  0.00000000E+00
  0.00000000E+00  0.00000000E+00  0.00000000E+00
  0.00000000E+00  0.00000000E+00  0.00000000E+00
  0.00000000E+00  0.00000000E+00  0.00000000E+00
  0.00000000E+00  0.00000000E+00  0.00000000E+00
