CONTCAR\(2)                             
   1.00000000000000     
    12.3312997818000003    0.0000000000000000    0.0000000000000000
     0.0001127485000000   12.8291997905000006    0.0000000000000000
     0.0005937186000000    0.0011528207000000   19.9943999824000009
   C    N    Fe   Ni   O    H 
    53     3     1     1     2     2
Direct
  0.0564496897152398  0.0521191456754608  0.0464026426435753
  0.1567158027772119  0.1074585837202654  0.0456915337788123
  0.1567054851909491  0.2184158006716886  0.0446102649065224
  0.0562559202638083  0.2735347767954855  0.0452145698541351
  0.2573869052861512  0.0524231924884729  0.0468820170786471
  0.3578967970324667  0.1083668760832267  0.0502758393699468
  0.3580048581615786  0.2204639891814978  0.0489603037066297
  0.2567316213326205  0.2740012518181205  0.0442386223360660
  0.4574607042938696  0.0519628166432148  0.0551899094618292
  0.5575260745320697  0.1087423951413991  0.0604765902941896
  0.5575587006571391  0.2217362310506548  0.0611715548766211
  0.4578253201565185  0.2791252059352564  0.0536164820525509
  0.6563543658463269  0.0481987350838059  0.0623084104128349
  0.7558051298059553  0.1059735914045040  0.0593858522533809
  0.7571680995886407  0.2184857624953616  0.0603275339345091
  0.6594196787846234  0.2784031283856084  0.0653945740174810
  0.8557350839459552  0.0509545320671624  0.0539747095071729
  0.9560073688109441  0.1067751043156145  0.0497260763564691
  0.9566559253113400  0.2178896446639559  0.0495412870884511
  0.8569010309912989  0.2735998945297597  0.0547930944440450
  0.0556142561529992  0.3849232643280694  0.0429038830451658
  0.1544823261868308  0.4404465843349133  0.0396417810395370
  0.1543547676185551  0.5520141058733745  0.0378984145492430
  0.0550853829203927  0.6074184610757294  0.0388672648514207
  0.2545517614891182  0.3848902705953592  0.0412462966233345
  0.3525569449657748  0.4412644158585323  0.0429404815963356
  0.3529751156275415  0.5537163920187228  0.0432055980450546
  0.2536707419211595  0.6085095078977675  0.0390222307769890
  0.7585389749728156  0.4411682646912250  0.0643835160472226
  0.8572882997354119  0.3851385332503627  0.0543883463929177
  0.9559403040711597  0.4408424271785228  0.0463151663072010
  0.9556002982201797  0.5518380468501923  0.0439822404340242
  0.8556544259302823  0.6068535092413845  0.0517963162914101
  0.0565107757437849  0.7189517817776967  0.0391525040225208
  0.1556978731469096  0.7748386186625800  0.0395181061632115
  0.1562677822367425  0.8859588059967655  0.0424123700140137
  0.0564232024666992  0.9413130050075790  0.0445447534574385
  0.2552296162595584  0.7190538118087854  0.0403388536573893
  0.3552435419234500  0.7731016091134539  0.0463857172421881
  0.3562288253578547  0.8846110452466377  0.0486323108183926
  0.2566041598349517  0.9411676613371637  0.0454593123759833
  0.4545656089545606  0.7157389108844805  0.0544265205273364
  0.5533183750071851  0.8781426906117913  0.0623631686153175
  0.4561265060843100  0.9395282789945566  0.0549470163895646
  0.7582365318289258  0.8801587231002702  0.0599716544922957
  0.6561602301046944  0.9347476841709271  0.0637201605290407
  0.8588717826971783  0.7205836895007472  0.0506231146961922
  0.9576278380417470  0.7750408373000690  0.0435796581560479
  0.9567436679351506  0.8857170742810622  0.0465100597442610
  0.8561843025718345  0.9393302476725885  0.0529128962212042
  0.4534422256890064  0.3911012188687514  0.0497245782107265
  0.4536462084753293  0.6029680349018738  0.0524908532832181
  0.7568483685965816  0.5545049386637054  0.0658917305535517
  0.6631354363418727  0.3851523776884753  0.0706479190775335
  0.5486547656233450  0.7718288292053770  0.0656936079222006
  0.7644403369641951  0.7725769603813097  0.0617708084197366
  0.6720048008855605  0.6734229182431983  0.1109174200567802
  0.5565565217530909  0.4903847180844622  0.0725579741417501
  0.5912567848960069  0.5705722511950144  0.1565645192110196
  0.7125613435168031  0.7440355024989660  0.1880276172496637
  0.6925143417569725  0.7027061748362916  0.2271468015479483
  0.5242801660087895  0.6010571356207881  0.1738145998297526
 
  0.00000000E+00  0.00000000E+00  0.00000000E+00
  0.00000000E+00  0.00000000E+00  0.00000000E+00
  0.00000000E+00  0.00000000E+00  0.00000000E+00
  0.00000000E+00  0.00000000E+00  0.00000000E+00
  0.00000000E+00  0.00000000E+00  0.00000000E+00
  0.00000000E+00  0.00000000E+00  0.00000000E+00
  0.00000000E+00  0.00000000E+00  0.00000000E+00
  0.00000000E+00  0.00000000E+00  0.00000000E+00
  0.00000000E+00  0.00000000E+00  0.00000000E+00
  0.00000000E+00  0.00000000E+00  0.00000000E+00
  0.00000000E+00  0.00000000E+00  0.00000000E+00
  0.00000000E+00  0.00000000E+00  0.00000000E+00
  0.00000000E+00  0.00000000E+00  0.00000000E+00
  0.00000000E+00  0.00000000E+00  0.00000000E+00
  0.00000000E+00  0.00000000E+00  0.00000000E+00
  0.00000000E+00  0.00000000E+00  0.00000000E+00
  0.00000000E+00  0.00000000E+00  0.00000000E+00
  0.00000000E+00  0.00000000E+00  0.00000000E+00
  0.00000000E+00  0.00000000E+00  0.00000000E+00
  0.00000000E+00  0.00000000E+00  0.00000000E+00
  0.00000000E+00  0.00000000E+00  0.00000000E+00
  0.00000000E+00  0.00000000E+00  0.00000000E+00
  0.00000000E+00  0.00000000E+00  0.00000000E+00
  0.00000000E+00  0.00000000E+00  0.00000000E+00
  0.00000000E+00  0.00000000E+00  0.00000000E+00
  0.00000000E+00  0.00000000E+00  0.00000000E+00
  0.00000000E+00  0.00000000E+00  0.00000000E+00
  0.00000000E+00  0.00000000E+00  0.00000000E+00
  0.00000000E+00  0.00000000E+00  0.00000000E+00
  0.00000000E+00  0.00000000E+00  0.00000000E+00
  0.00000000E+00  0.00000000E+00  0.00000000E+00
  0.00000000E+00  0.00000000E+00  0.00000000E+00
  0.00000000E+00  0.00000000E+00  0.00000000E+00
  0.00000000E+00  0.00000000E+00  0.00000000E+00
  0.00000000E+00  0.00000000E+00  0.00000000E+00
  0.00000000E+00  0.00000000E+00  0.00000000E+00
  0.00000000E+00  0.00000000E+00  0.00000000E+00
  0.00000000E+00  0.00000000E+00  0.00000000E+00
  0.00000000E+00  0.00000000E+00  0.00000000E+00
  0.00000000E+00  0.00000000E+00  0.00000000E+00
  0.00000000E+00  0.00000000E+00  0.00000000E+00
  0.00000000E+00  0.00000000E+00  0.00000000E+00
  0.00000000E+00  0.00000000E+00  0.00000000E+00
  0.00000000E+00  0.00000000E+00  0.00000000E+00
  0.00000000E+00  0.00000000E+00  0.00000000E+00
  0.00000000E+00  0.00000000E+00  0.00000000E+00
  0.00000000E+00  0.00000000E+00  0.00000000E+00
  0.00000000E+00  0.00000000E+00  0.00000000E+00
  0.00000000E+00  0.00000000E+00  0.00000000E+00
  0.00000000E+00  0.00000000E+00  0.00000000E+00
  0.00000000E+00  0.00000000E+00  0.00000000E+00
  0.00000000E+00  0.00000000E+00  0.00000000E+00
  0.00000000E+00  0.00000000E+00  0.00000000E+00
  0.00000000E+00  0.00000000E+00  0.00000000E+00
  0.00000000E+00  0.00000000E+00  0.00000000E+00
  0.00000000E+00  0.00000000E+00  0.00000000E+00
  0.00000000E+00  0.00000000E+00  0.00000000E+00
  0.00000000E+00  0.00000000E+00  0.00000000E+00
  0.00000000E+00  0.00000000E+00  0.00000000E+00
  0.00000000E+00  0.00000000E+00  0.00000000E+00
  0.00000000E+00  0.00000000E+00  0.00000000E+00
  0.00000000E+00  0.00000000E+00  0.00000000E+00
