CONTCAR\(3)                             
   1.00000000000000     
    12.3312997818000003    0.0000000000000000    0.0000000000000000
     0.0001127485000000   12.8291997905000006    0.0000000000000000
     0.0005937186000000    0.0011528207000000   19.9943999824000009
   C    N    Fe   Ni   O 
    55     1     1     1     1
Direct
  0.0554344489994242  0.0543473495044850  0.0514834652312645
  0.1557081561551471  0.1096639997746160  0.0520652154903048
  0.1560393465964774  0.2204625910988735  0.0512834679785526
  0.0561873889640595  0.2757325302344510  0.0495109681586366
  0.2561106312467649  0.0548679570326350  0.0538376084333619
  0.3562377131224856  0.1108661039772734  0.0569347520924671
  0.3564893597983292  0.2223029858015729  0.0573377019238042
  0.2560567698711030  0.2762592515994656  0.0530738996886466
  0.4560629311649896  0.0553974576821599  0.0598947980978198
  0.5563815326655378  0.1120883888072221  0.0620640046947537
  0.5567027290205255  0.2234371011757818  0.0636000915490567
  0.4562540775277821  0.2798690420453546  0.0625202366708443
  0.6560912073146759  0.0540219924147307  0.0610108900212548
  0.7555641297845258  0.1107656433751748  0.0577325540978073
  0.7557133102446273  0.2229876633706923  0.0569917751301849
  0.6567361537699341  0.2820854628018895  0.0618326605704154
  0.8549397963714699  0.0538912629856749  0.0548406957904017
  0.9552479741027213  0.1095704968154025  0.0523221668178445
  0.9557662008308614  0.2208794740865720  0.0511791157815129
  0.8559746265053645  0.2774041429703837  0.0526822183799215
  0.0571363628924473  0.3868290551646696  0.0474743539047035
  0.1562726464311624  0.4428260906165798  0.0476915496915145
  0.1568369365764697  0.5543648545128020  0.0470411438035361
  0.0576050204657769  0.6099453348656096  0.0460744517120503
  0.2557918628187919  0.3870594855013203  0.0510480433175195
  0.3550221557166331  0.4424755568138263  0.0551459217547413
  0.3561478868594879  0.5550351167053119  0.0530132151759952
  0.2562755700301831  0.6105940456132908  0.0491291370950123
  0.7589655487583243  0.4481833023239961  0.0529963324390879
  0.8574822979213386  0.3886746411859999  0.0501980078305939
  0.9577787994533640  0.4425575266329545  0.0469962757410921
  0.9588733885038593  0.5532060273664364  0.0460869138051015
  0.8589652059232187  0.6069947894858417  0.0473856830911733
  0.0564308489687191  0.7213223605340052  0.0469249099152152
  0.1554509501023627  0.7771823405765949  0.0484674360066209
  0.1555532086217423  0.8882944497201352  0.0502550548549985
  0.0553000225069536  0.9432948776247256  0.0506583550118588
  0.2553791664050964  0.7215394444589938  0.0498431241158629
  0.3543303961721985  0.7768517763190057  0.0543228934450915
  0.3556276246113692  0.8882247527039384  0.0556217194233843
  0.2557758953627154  0.9438282109721944  0.0529216065150019
  0.4538245012614925  0.7198181510703616  0.0602049794306349
  0.5551694858505284  0.8865524700605933  0.0636981765522900
  0.4555437145003470  0.9439345556019985  0.0598364002567577
  0.7548891444161110  0.8839381767871356  0.0586688144636219
  0.6558767290913640  0.9425342037089910  0.0620192129445137
  0.8566179218464671  0.7199487378754338  0.0506141219472023
  0.9562007117791532  0.7761641655912660  0.0488949105744824
  0.9552909338969192  0.8873131984436857  0.0511550459692896
  0.8545921629679434  0.9417366189457784  0.0547324531270750
  0.4540238114108447  0.3902899894448896  0.0646322537292447
  0.6594833388712360  0.3933133875108449  0.0642614850074483
  0.5518991141705015  0.7771423755706096  0.0671092850841212
  0.7561131439622304  0.7719648170333904  0.0576846186899871
  0.4547859269922356  0.6082671674456718  0.0596601234823753
  0.7632324043404433  0.5556781242822950  0.0491979340079136
  0.6476388504145231  0.6648447706158599  0.0755704997455781
  0.5563263781448575  0.4906409003296497  0.0928586955774553
  0.6174714759238009  0.5877431864288960  0.1464165851609829
 
  0.00000000E+00  0.00000000E+00  0.00000000E+00
  0.00000000E+00  0.00000000E+00  0.00000000E+00
  0.00000000E+00  0.00000000E+00  0.00000000E+00
  0.00000000E+00  0.00000000E+00  0.00000000E+00
  0.00000000E+00  0.00000000E+00  0.00000000E+00
  0.00000000E+00  0.00000000E+00  0.00000000E+00
  0.00000000E+00  0.00000000E+00  0.00000000E+00
  0.00000000E+00  0.00000000E+00  0.00000000E+00
  0.00000000E+00  0.00000000E+00  0.00000000E+00
  0.00000000E+00  0.00000000E+00  0.00000000E+00
  0.00000000E+00  0.00000000E+00  0.00000000E+00
  0.00000000E+00  0.00000000E+00  0.00000000E+00
  0.00000000E+00  0.00000000E+00  0.00000000E+00
  0.00000000E+00  0.00000000E+00  0.00000000E+00
  0.00000000E+00  0.00000000E+00  0.00000000E+00
  0.00000000E+00  0.00000000E+00  0.00000000E+00
  0.00000000E+00  0.00000000E+00  0.00000000E+00
  0.00000000E+00  0.00000000E+00  0.00000000E+00
  0.00000000E+00  0.00000000E+00  0.00000000E+00
  0.00000000E+00  0.00000000E+00  0.00000000E+00
  0.00000000E+00  0.00000000E+00  0.00000000E+00
  0.00000000E+00  0.00000000E+00  0.00000000E+00
  0.00000000E+00  0.00000000E+00  0.00000000E+00
  0.00000000E+00  0.00000000E+00  0.00000000E+00
  0.00000000E+00  0.00000000E+00  0.00000000E+00
  0.00000000E+00  0.00000000E+00  0.00000000E+00
  0.00000000E+00  0.00000000E+00  0.00000000E+00
  0.00000000E+00  0.00000000E+00  0.00000000E+00
  0.00000000E+00  0.00000000E+00  0.00000000E+00
  0.00000000E+00  0.00000000E+00  0.00000000E+00
  0.00000000E+00  0.00000000E+00  0.00000000E+00
  0.00000000E+00  0.00000000E+00  0.00000000E+00
  0.00000000E+00  0.00000000E+00  0.00000000E+00
  0.00000000E+00  0.00000000E+00  0.00000000E+00
  0.00000000E+00  0.00000000E+00  0.00000000E+00
  0.00000000E+00  0.00000000E+00  0.00000000E+00
  0.00000000E+00  0.00000000E+00  0.00000000E+00
  0.00000000E+00  0.00000000E+00  0.00000000E+00
  0.00000000E+00  0.00000000E+00  0.00000000E+00
  0.00000000E+00  0.00000000E+00  0.00000000E+00
  0.00000000E+00  0.00000000E+00  0.00000000E+00
  0.00000000E+00  0.00000000E+00  0.00000000E+00
  0.00000000E+00  0.00000000E+00  0.00000000E+00
  0.00000000E+00  0.00000000E+00  0.00000000E+00
  0.00000000E+00  0.00000000E+00  0.00000000E+00
  0.00000000E+00  0.00000000E+00  0.00000000E+00
  0.00000000E+00  0.00000000E+00  0.00000000E+00
  0.00000000E+00  0.00000000E+00  0.00000000E+00
  0.00000000E+00  0.00000000E+00  0.00000000E+00
  0.00000000E+00  0.00000000E+00  0.00000000E+00
  0.00000000E+00  0.00000000E+00  0.00000000E+00
  0.00000000E+00  0.00000000E+00  0.00000000E+00
  0.00000000E+00  0.00000000E+00  0.00000000E+00
  0.00000000E+00  0.00000000E+00  0.00000000E+00
  0.00000000E+00  0.00000000E+00  0.00000000E+00
  0.00000000E+00  0.00000000E+00  0.00000000E+00
  0.00000000E+00  0.00000000E+00  0.00000000E+00
  0.00000000E+00  0.00000000E+00  0.00000000E+00
  0.00000000E+00  0.00000000E+00  0.00000000E+00
