CONTCAR\(3)                             
   1.00000000000000     
    12.3312997818000003    0.0000000000000000    0.0000000000000000
     0.0001127485000000   12.8291997905000006    0.0000000000000000
     0.0005937186000000    0.0011528207000000   19.9943999824000009
   C    N    Fe   Ni   H 
    54     2     1     1     2
Direct
  0.0566748666409074  0.0532218772651827  0.0520967229035771
  0.1568753672153161  0.1090880406723348  0.0519362243638620
  0.1574779779228210  0.2202175867449679  0.0516615290314837
  0.0575952497941855  0.2748262809115317  0.0510054804466524
  0.2571361606760592  0.0544337323275438  0.0525348810541174
  0.3574210157046211  0.1109424179031875  0.0535958528405631
  0.3581816532541959  0.2231247323872328  0.0536692409796849
  0.2573073165974909  0.2768612418764893  0.0524279674409743
  0.4567990873903319  0.0548273230438450  0.0550409375594525
  0.5569194286970754  0.1116249363203829  0.0561413357801919
  0.5577115421693213  0.2234542647135148  0.0557414747691983
  0.4583292985912762  0.2815229936307497  0.0548675497305320
  0.6558896184190639  0.0526552603229566  0.0570558094486236
  0.7562971231480845  0.1083973326213472  0.0551480758502644
  0.7578155176495290  0.2198472927929893  0.0541159453934863
  0.6592232537663181  0.2788710638179058  0.0555417950557958
  0.8559798482422166  0.0526363133219669  0.0541316947870246
  0.9565993689890672  0.1079158474404642  0.0524585023571443
  0.9578234224174482  0.2186069176043990  0.0515876608482527
  0.8583857083848139  0.2737932127410530  0.0519575549523086
  0.0574570543909395  0.3860564751010741  0.0506362223999896
  0.1559414298458008  0.4424197267253953  0.0511665579776971
  0.1549190757135175  0.5537968396435441  0.0510710570851606
  0.0551490982018897  0.6086236325362647  0.0512242868295691
  0.2558900117053088  0.3878406286510642  0.0523058802175858
  0.3550388499467209  0.4445359794771264  0.0535873059901296
  0.3545108131244432  0.5570126616789685  0.0538094136217850
  0.2540706342529990  0.6106530524021844  0.0519302127440018
  0.7605233252752377  0.4393001346812056  0.0537922258647100
  0.8594972002467138  0.3843998189991293  0.0511202701478881
  0.9576874501325471  0.4412958151068282  0.0506492345422580
  0.9554918213304144  0.5520061099061521  0.0515727568894989
  0.8535324860185582  0.6052252587070357  0.0531968895849310
  0.0552812491371315  0.7201141401392450  0.0515277242612420
  0.1542917291458160  0.7764261596927757  0.0511546296430181
  0.1556342105065719  0.8875961635211103  0.0516056257712541
  0.0556778659662484  0.9422535180081288  0.0522089221101176
  0.2538326089085606  0.7211266612949645  0.0516255886868840
  0.3539993774276006  0.7752010947248866  0.0532573357095008
  0.3558114133507789  0.8870251959242853  0.0536337285657208
  0.2560944976678385  0.9429693209354343  0.0523395702138444
  0.4523689928302376  0.7166027537273850  0.0564054814212774
  0.5540762639307150  0.8842164852178326  0.0594616474874460
  0.4556834192447160  0.9426874045348246  0.0555265989867324
  0.7549021533865901  0.8845780532330620  0.0587307181528937
  0.6550238109165695  0.9413496836446676  0.0593980146270345
  0.8555455101006018  0.7191170263806519  0.0549471384751632
  0.9551610415005148  0.7750114940306898  0.0531182985610884
  0.9554408874041272  0.8863207930771341  0.0534892680624397
  0.8551406782638786  0.9411458448901031  0.0552608770887329
  0.4548384515373837  0.3930025825802515  0.0546337235446273
  0.7537668875202924  0.5494986165868763  0.0553832493340759
  0.5511343784026239  0.7740110512128845  0.0634611303976209
  0.7568066183781971  0.7735334171634554  0.0604581588205296
  0.4518980161568862  0.6070971812798733  0.0561734521205703
  0.6637610390564542  0.3849569088492582  0.0561818038958348
  0.6529280687995028  0.6705633310448192  0.0813509402938137
  0.5661835655490260  0.4919452032613395  0.0566116641241392
  0.6339449303852098  0.6252518626703447  0.1643454399331223
  0.6114604066706959  0.6855831812976981  0.1645207152228796
 
  0.00000000E+00  0.00000000E+00  0.00000000E+00
  0.00000000E+00  0.00000000E+00  0.00000000E+00
  0.00000000E+00  0.00000000E+00  0.00000000E+00
  0.00000000E+00  0.00000000E+00  0.00000000E+00
  0.00000000E+00  0.00000000E+00  0.00000000E+00
  0.00000000E+00  0.00000000E+00  0.00000000E+00
  0.00000000E+00  0.00000000E+00  0.00000000E+00
  0.00000000E+00  0.00000000E+00  0.00000000E+00
  0.00000000E+00  0.00000000E+00  0.00000000E+00
  0.00000000E+00  0.00000000E+00  0.00000000E+00
  0.00000000E+00  0.00000000E+00  0.00000000E+00
  0.00000000E+00  0.00000000E+00  0.00000000E+00
  0.00000000E+00  0.00000000E+00  0.00000000E+00
  0.00000000E+00  0.00000000E+00  0.00000000E+00
  0.00000000E+00  0.00000000E+00  0.00000000E+00
  0.00000000E+00  0.00000000E+00  0.00000000E+00
  0.00000000E+00  0.00000000E+00  0.00000000E+00
  0.00000000E+00  0.00000000E+00  0.00000000E+00
  0.00000000E+00  0.00000000E+00  0.00000000E+00
  0.00000000E+00  0.00000000E+00  0.00000000E+00
  0.00000000E+00  0.00000000E+00  0.00000000E+00
  0.00000000E+00  0.00000000E+00  0.00000000E+00
  0.00000000E+00  0.00000000E+00  0.00000000E+00
  0.00000000E+00  0.00000000E+00  0.00000000E+00
  0.00000000E+00  0.00000000E+00  0.00000000E+00
  0.00000000E+00  0.00000000E+00  0.00000000E+00
  0.00000000E+00  0.00000000E+00  0.00000000E+00
  0.00000000E+00  0.00000000E+00  0.00000000E+00
  0.00000000E+00  0.00000000E+00  0.00000000E+00
  0.00000000E+00  0.00000000E+00  0.00000000E+00
  0.00000000E+00  0.00000000E+00  0.00000000E+00
  0.00000000E+00  0.00000000E+00  0.00000000E+00
  0.00000000E+00  0.00000000E+00  0.00000000E+00
  0.00000000E+00  0.00000000E+00  0.00000000E+00
  0.00000000E+00  0.00000000E+00  0.00000000E+00
  0.00000000E+00  0.00000000E+00  0.00000000E+00
  0.00000000E+00  0.00000000E+00  0.00000000E+00
  0.00000000E+00  0.00000000E+00  0.00000000E+00
  0.00000000E+00  0.00000000E+00  0.00000000E+00
  0.00000000E+00  0.00000000E+00  0.00000000E+00
  0.00000000E+00  0.00000000E+00  0.00000000E+00
  0.00000000E+00  0.00000000E+00  0.00000000E+00
  0.00000000E+00  0.00000000E+00  0.00000000E+00
  0.00000000E+00  0.00000000E+00  0.00000000E+00
  0.00000000E+00  0.00000000E+00  0.00000000E+00
  0.00000000E+00  0.00000000E+00  0.00000000E+00
  0.00000000E+00  0.00000000E+00  0.00000000E+00
  0.00000000E+00  0.00000000E+00  0.00000000E+00
  0.00000000E+00  0.00000000E+00  0.00000000E+00
  0.00000000E+00  0.00000000E+00  0.00000000E+00
  0.00000000E+00  0.00000000E+00  0.00000000E+00
  0.00000000E+00  0.00000000E+00  0.00000000E+00
  0.00000000E+00  0.00000000E+00  0.00000000E+00
  0.00000000E+00  0.00000000E+00  0.00000000E+00
  0.00000000E+00  0.00000000E+00  0.00000000E+00
  0.00000000E+00  0.00000000E+00  0.00000000E+00
  0.00000000E+00  0.00000000E+00  0.00000000E+00
  0.00000000E+00  0.00000000E+00  0.00000000E+00
  0.00000000E+00  0.00000000E+00  0.00000000E+00
  0.00000000E+00  0.00000000E+00  0.00000000E+00
