124                                     
   1.00000000000000     
    12.3312997818000003    0.0000000000000000    0.0000000000000000
     0.0001127485000000   12.8291997905000006    0.0000000000000000
     0.0005937186000000    0.0011528207000000   19.9943999824000009
   C    N    Fe   Ni   O    H 
    53     3     1     1     1     1
Direct
  0.0567104093675442  0.0554495925823281  0.0498525040594302
  0.1570389028798293  0.1103433254601206  0.0500418361225461
  0.1564929553500148  0.2212012612191844  0.0488342641201921
  0.0561846065879595  0.2767189178570189  0.0477465186813389
  0.2574818764018306  0.0549683718234381  0.0522402437329597
  0.3577447606924244  0.1105475953927933  0.0560083066087946
  0.3570065191290037  0.2226397025639145  0.0552186186291073
  0.2563273204787412  0.2765209458318221  0.0500736841443914
  0.4572799312697914  0.0538544743972908  0.0605447364971786
  0.5565745354183435  0.1115225629842383  0.0642133784774892
  0.5562610623044779  0.2243012626251186  0.0653578597695055
  0.4557172314703689  0.2815588922837985  0.0600864987071354
  0.6566281114254841  0.0522447766271597  0.0644144649579209
  0.7559151657403951  0.1101653210496012  0.0605678361643959
  0.7561647237102794  0.2224670295843585  0.0612963986686526
  0.6570182622355766  0.2811753174285987  0.0679587221260128
  0.8558617480820461  0.0545846925513151  0.0556389307333532
  0.9560765091391141  0.1103604660492565  0.0519707071583317
  0.9560013376877086  0.2216369162008654  0.0511920418351182
  0.8561459470111910  0.2778557141322414  0.0552628163453756
  0.0564882879894489  0.3878166627701649  0.0450571609038314
  0.1559602347443061  0.4432984637094749  0.0439270803982822
  0.1559602953123872  0.5542260854297618  0.0425268236159120
  0.0571018868425464  0.6106285615823844  0.0419878112263054
  0.2557832905689154  0.3875768795452689  0.0476876229065233
  0.3550329675955881  0.4421216732423730  0.0518395041707857
  0.3542040193077418  0.5552500066284062  0.0528581031503425
  0.2547738855017864  0.6098905989165149  0.0460695057785273
  0.7590656042017128  0.4480048234586162  0.0629535008410871
  0.8573827074482129  0.3893530756443248  0.0535401946195357
  0.9568118279760669  0.4441482575287010  0.0463843661561706
  0.9576830920389346  0.5554570372613336  0.0443965049719154
  0.8585587796441211  0.6117563190805323  0.0497952371672632
  0.0575567159672825  0.7218146771299526  0.0432606213191417
  0.1564617983405134  0.7775701709498994  0.0451100023275680
  0.1572497307268793  0.8887338306321151  0.0476537629275919
  0.0572873410003934  0.9446764156419118  0.0484570316610399
  0.2554037674930930  0.7209833041641265  0.0475292247749365
  0.3548219874313022  0.7748815412197964  0.0542519596979640
  0.3569892241623521  0.8866009552193274  0.0554947406590610
  0.2574475415459704  0.9434587151276150  0.0513434338028484
  0.4518468373115737  0.7151803953505480  0.0637341218163444
  0.5554426532561731  0.8812484410474781  0.0677976707788827
  0.4571160956481747  0.9415320021096981  0.0612188126509608
  0.7583719213349316  0.8839205746285830  0.0607148763845510
  0.6568371484154294  0.9390984652511232  0.0658781327680141
  0.8600789531758086  0.7243209208703932  0.0508241926232703
  0.9585439078505661  0.7786729452332972  0.0466696827905396
  0.9576878166839428  0.8893924619048724  0.0495082840964218
  0.8566363904278261  0.9428997745096467  0.0547433124975977
  0.6617292693768944  0.3911436928789904  0.0740727034196293
  0.7598609112603952  0.5600486048891139  0.0613265448561582
  0.5509405712069819  0.7702964175068884  0.0740524634148049
  0.4524660175312585  0.3900434775068124  0.0584799350507130
  0.4486324921958484  0.6064762540232742  0.0637383396920329
  0.7633048316532454  0.7755981036749350  0.0605019669333129
  0.6651641608115895  0.6735970811896489  0.0949669964183253
  0.5543056115821481  0.4891632806969478  0.0832678427873452
  0.6098258238394986  0.5775118989962150  0.1569915457958856
  0.5457914242160250  0.6050900882045017  0.1796680066093259
 
  0.00000000E+00  0.00000000E+00  0.00000000E+00
  0.00000000E+00  0.00000000E+00  0.00000000E+00
  0.00000000E+00  0.00000000E+00  0.00000000E+00
  0.00000000E+00  0.00000000E+00  0.00000000E+00
  0.00000000E+00  0.00000000E+00  0.00000000E+00
  0.00000000E+00  0.00000000E+00  0.00000000E+00
  0.00000000E+00  0.00000000E+00  0.00000000E+00
  0.00000000E+00  0.00000000E+00  0.00000000E+00
  0.00000000E+00  0.00000000E+00  0.00000000E+00
  0.00000000E+00  0.00000000E+00  0.00000000E+00
  0.00000000E+00  0.00000000E+00  0.00000000E+00
  0.00000000E+00  0.00000000E+00  0.00000000E+00
  0.00000000E+00  0.00000000E+00  0.00000000E+00
  0.00000000E+00  0.00000000E+00  0.00000000E+00
  0.00000000E+00  0.00000000E+00  0.00000000E+00
  0.00000000E+00  0.00000000E+00  0.00000000E+00
  0.00000000E+00  0.00000000E+00  0.00000000E+00
  0.00000000E+00  0.00000000E+00  0.00000000E+00
  0.00000000E+00  0.00000000E+00  0.00000000E+00
  0.00000000E+00  0.00000000E+00  0.00000000E+00
  0.00000000E+00  0.00000000E+00  0.00000000E+00
  0.00000000E+00  0.00000000E+00  0.00000000E+00
  0.00000000E+00  0.00000000E+00  0.00000000E+00
  0.00000000E+00  0.00000000E+00  0.00000000E+00
  0.00000000E+00  0.00000000E+00  0.00000000E+00
  0.00000000E+00  0.00000000E+00  0.00000000E+00
  0.00000000E+00  0.00000000E+00  0.00000000E+00
  0.00000000E+00  0.00000000E+00  0.00000000E+00
  0.00000000E+00  0.00000000E+00  0.00000000E+00
  0.00000000E+00  0.00000000E+00  0.00000000E+00
  0.00000000E+00  0.00000000E+00  0.00000000E+00
  0.00000000E+00  0.00000000E+00  0.00000000E+00
  0.00000000E+00  0.00000000E+00  0.00000000E+00
  0.00000000E+00  0.00000000E+00  0.00000000E+00
  0.00000000E+00  0.00000000E+00  0.00000000E+00
  0.00000000E+00  0.00000000E+00  0.00000000E+00
  0.00000000E+00  0.00000000E+00  0.00000000E+00
  0.00000000E+00  0.00000000E+00  0.00000000E+00
  0.00000000E+00  0.00000000E+00  0.00000000E+00
  0.00000000E+00  0.00000000E+00  0.00000000E+00
  0.00000000E+00  0.00000000E+00  0.00000000E+00
  0.00000000E+00  0.00000000E+00  0.00000000E+00
  0.00000000E+00  0.00000000E+00  0.00000000E+00
  0.00000000E+00  0.00000000E+00  0.00000000E+00
  0.00000000E+00  0.00000000E+00  0.00000000E+00
  0.00000000E+00  0.00000000E+00  0.00000000E+00
  0.00000000E+00  0.00000000E+00  0.00000000E+00
  0.00000000E+00  0.00000000E+00  0.00000000E+00
  0.00000000E+00  0.00000000E+00  0.00000000E+00
  0.00000000E+00  0.00000000E+00  0.00000000E+00
  0.00000000E+00  0.00000000E+00  0.00000000E+00
  0.00000000E+00  0.00000000E+00  0.00000000E+00
  0.00000000E+00  0.00000000E+00  0.00000000E+00
  0.00000000E+00  0.00000000E+00  0.00000000E+00
  0.00000000E+00  0.00000000E+00  0.00000000E+00
  0.00000000E+00  0.00000000E+00  0.00000000E+00
  0.00000000E+00  0.00000000E+00  0.00000000E+00
  0.00000000E+00  0.00000000E+00  0.00000000E+00
  0.00000000E+00  0.00000000E+00  0.00000000E+00
  0.00000000E+00  0.00000000E+00  0.00000000E+00
