CONTCAR\(7)                             
   1.00000000000000     
    12.3312997818000003    0.0000000000000000    0.0000000000000000
     0.0001127485000000   12.8291997905000006    0.0000000000000000
     0.0005937186000000    0.0011528207000000   19.9943999824000009
   C    N    Fe   Ni   O 
    53     3     1     1     2
Direct
  0.0554239468822289  0.0562313347265437  0.0500137177320172
  0.1554955244473082  0.1117702333468481  0.0495630851311140
  0.1556212456259529  0.2226514818475490  0.0490843753405760
  0.0556524717620705  0.2777793622896456  0.0488113655481157
  0.2557659532560340  0.0569362334638168  0.0505545665209149
  0.3562692763740973  0.1123435847151487  0.0533555540570018
  0.3562595597371069  0.2241049546035998  0.0536990241190025
  0.2556863821907861  0.2780550597483517  0.0502438373830024
  0.4557215610925742  0.0561975975431993  0.0562981523968731
  0.5555277708671780  0.1122555826046716  0.0599931058636299
  0.5555027569651224  0.2247914240585270  0.0621814276835956
  0.4551920086691232  0.2821307028305324  0.0582482145064277
  0.6551619039388787  0.0524883220477435  0.0602986776802701
  0.7548374098840638  0.1100528085139810  0.0579880227812323
  0.7556970344816297  0.2223262672832125  0.0585802880248746
  0.6566583693190883  0.2807695534684420  0.0646782983485760
  0.8545641905926366  0.0543311361072446  0.0548148817466268
  0.9547818160359085  0.1107550777002897  0.0518137161300724
  0.9552815082813416  0.2222068773063736  0.0512378057793507
  0.8555778979813008  0.2781958819794318  0.0543252424625543
  0.0567430606152850  0.3890507164510042  0.0476320405442061
  0.1563084046340270  0.4445693943461265  0.0472019960610647
  0.1570889775672897  0.5558498197349634  0.0465954953465646
  0.0575767492625960  0.6113516552812104  0.0465745656736000
  0.2560742023008835  0.3889046342131140  0.0492740688498753
  0.3559375044473769  0.4433590723060036  0.0524137495241478
  0.3585243809021563  0.5570472189463905  0.0528241261652106
  0.2568474071329887  0.6112782185725714  0.0482018135040125
  0.7585633140745139  0.4482797337871073  0.0608708094972122
  0.8571821658877239  0.3900564952132929  0.0534425219599259
  0.9570037148764072  0.4449354832725384  0.0489087747017697
  0.9579446484235471  0.5559377430031388  0.0484721015672637
  0.8583733527589702  0.6116643800351744  0.0523809360479726
  0.0568321277457132  0.7225497748616321  0.0470044362161955
  0.1553993094210386  0.7783158124478818  0.0471043099317666
  0.1554267242448960  0.8897769455544479  0.0482162016517320
  0.0556532185485483  0.9453185632469603  0.0495071452055257
  0.2547758293011881  0.7222517345266828  0.0481078033970618
  0.3528599435926175  0.7788383689220152  0.0511152460223299
  0.3543709957636746  0.8899211183957241  0.0516017896958345
  0.2550016292894802  0.9458298251080797  0.0496302044807459
  0.4511823776053496  0.7232104526780256  0.0576622255022646
  0.5523963669873710  0.8846788180005090  0.0598534345055547
  0.4545208437502709  0.9444913479985834  0.0556049809359097
  0.7564411083668118  0.8823713300917940  0.0595097599408626
  0.6551294803180616  0.9391385131860204  0.0609863980896397
  0.8590502958229391  0.7242569971251845  0.0535578523429077
  0.9574156268052785  0.7788961270951595  0.0498019523461250
  0.9561558185331793  0.8895112948860592  0.0513880813889556
  0.8549259154080330  0.9422594950144669  0.0551882552610024
  0.4577269363976496  0.6115734008660518  0.0604777953346937
  0.6618591545834919  0.3898147051059752  0.0713081235961707
  0.7586992130760445  0.5602894322947402  0.0589774338534918
  0.4524380506504446  0.3908704958031800  0.0579344184914228
  0.5466478508602186  0.7787519919250345  0.0621639888898048
  0.7614332252498264  0.7736942688468078  0.0603523578796154
  0.6482094421509363  0.6680639476858098  0.0740968278198682
  0.5569471508460145  0.4878827582358219  0.0869468132549333
  0.6467823225840392  0.6406115771369081  0.1596539343722308
  0.6115325168286836  0.5380528456126615  0.1674918829146738
 
  0.00000000E+00  0.00000000E+00  0.00000000E+00
  0.00000000E+00  0.00000000E+00  0.00000000E+00
  0.00000000E+00  0.00000000E+00  0.00000000E+00
  0.00000000E+00  0.00000000E+00  0.00000000E+00
  0.00000000E+00  0.00000000E+00  0.00000000E+00
  0.00000000E+00  0.00000000E+00  0.00000000E+00
  0.00000000E+00  0.00000000E+00  0.00000000E+00
  0.00000000E+00  0.00000000E+00  0.00000000E+00
  0.00000000E+00  0.00000000E+00  0.00000000E+00
  0.00000000E+00  0.00000000E+00  0.00000000E+00
  0.00000000E+00  0.00000000E+00  0.00000000E+00
  0.00000000E+00  0.00000000E+00  0.00000000E+00
  0.00000000E+00  0.00000000E+00  0.00000000E+00
  0.00000000E+00  0.00000000E+00  0.00000000E+00
  0.00000000E+00  0.00000000E+00  0.00000000E+00
  0.00000000E+00  0.00000000E+00  0.00000000E+00
  0.00000000E+00  0.00000000E+00  0.00000000E+00
  0.00000000E+00  0.00000000E+00  0.00000000E+00
  0.00000000E+00  0.00000000E+00  0.00000000E+00
  0.00000000E+00  0.00000000E+00  0.00000000E+00
  0.00000000E+00  0.00000000E+00  0.00000000E+00
  0.00000000E+00  0.00000000E+00  0.00000000E+00
  0.00000000E+00  0.00000000E+00  0.00000000E+00
  0.00000000E+00  0.00000000E+00  0.00000000E+00
  0.00000000E+00  0.00000000E+00  0.00000000E+00
  0.00000000E+00  0.00000000E+00  0.00000000E+00
  0.00000000E+00  0.00000000E+00  0.00000000E+00
  0.00000000E+00  0.00000000E+00  0.00000000E+00
  0.00000000E+00  0.00000000E+00  0.00000000E+00
  0.00000000E+00  0.00000000E+00  0.00000000E+00
  0.00000000E+00  0.00000000E+00  0.00000000E+00
  0.00000000E+00  0.00000000E+00  0.00000000E+00
  0.00000000E+00  0.00000000E+00  0.00000000E+00
  0.00000000E+00  0.00000000E+00  0.00000000E+00
  0.00000000E+00  0.00000000E+00  0.00000000E+00
  0.00000000E+00  0.00000000E+00  0.00000000E+00
  0.00000000E+00  0.00000000E+00  0.00000000E+00
  0.00000000E+00  0.00000000E+00  0.00000000E+00
  0.00000000E+00  0.00000000E+00  0.00000000E+00
  0.00000000E+00  0.00000000E+00  0.00000000E+00
  0.00000000E+00  0.00000000E+00  0.00000000E+00
  0.00000000E+00  0.00000000E+00  0.00000000E+00
  0.00000000E+00  0.00000000E+00  0.00000000E+00
  0.00000000E+00  0.00000000E+00  0.00000000E+00
  0.00000000E+00  0.00000000E+00  0.00000000E+00
  0.00000000E+00  0.00000000E+00  0.00000000E+00
  0.00000000E+00  0.00000000E+00  0.00000000E+00
  0.00000000E+00  0.00000000E+00  0.00000000E+00
  0.00000000E+00  0.00000000E+00  0.00000000E+00
  0.00000000E+00  0.00000000E+00  0.00000000E+00
  0.00000000E+00  0.00000000E+00  0.00000000E+00
  0.00000000E+00  0.00000000E+00  0.00000000E+00
  0.00000000E+00  0.00000000E+00  0.00000000E+00
  0.00000000E+00  0.00000000E+00  0.00000000E+00
  0.00000000E+00  0.00000000E+00  0.00000000E+00
  0.00000000E+00  0.00000000E+00  0.00000000E+00
  0.00000000E+00  0.00000000E+00  0.00000000E+00
  0.00000000E+00  0.00000000E+00  0.00000000E+00
  0.00000000E+00  0.00000000E+00  0.00000000E+00
  0.00000000E+00  0.00000000E+00  0.00000000E+00
