CONTCAR\(2)\(3)                         
   1.00000000000000     
    12.3312997818000003    0.0000000000000000    0.0000000000000000
     0.0001127485000000   12.8291997905000006    0.0000000000000000
     0.0005937186000000    0.0011528207000000   19.9943999824000009
   C    N    Fe   Ni   O    H 
    53     3     1     1     2     2
Direct
  0.0538863374195791  0.0561817185076117  0.0449605285515925
  0.1542169102474474  0.1117393261196802  0.0438340211670690
  0.1543748210721133  0.2227763861850059  0.0438148976921966
  0.0542484937177123  0.2777170333018081  0.0451550212038129
  0.2542600384412174  0.0565415627196893  0.0440895613547945
  0.3547599259731185  0.1114288544997969  0.0464793572589737
  0.3544397254761460  0.2230648612952425  0.0470335957328632
  0.2546370330563226  0.2784103136140113  0.0444056620569813
  0.4544762753300591  0.0553722513911824  0.0495587030374668
  0.5537441524410623  0.1120195688792609  0.0541418210785549
  0.5539379054662122  0.2240814848803585  0.0580317095691810
  0.4529745410075005  0.2805546388360796  0.0535144814039987
  0.6528735589398809  0.0526946752978285  0.0550759751152911
  0.7531720862235586  0.1096936703978789  0.0539208079920299
  0.7540733126146997  0.2218063902662215  0.0559977324049858
  0.6551266826182315  0.2795345016938185  0.0627614378636416
  0.8531533038987533  0.0541116955804508  0.0505512108323162
  0.9532350256174212  0.1108683433018099  0.0475857193089769
  0.9535005718623413  0.2225089748383153  0.0480993123548084
  0.8537623919929046  0.2785262043436973  0.0528617300027682
  0.0553201247706906  0.3886821034010324  0.0450536813208608
  0.1554661783176463  0.4444977821449229  0.0432245602143150
  0.1563180108165683  0.5554527732255065  0.0433461514404893
  0.0568066941296159  0.6109313898860418  0.0451108215800655
  0.2556411256005836  0.3898710339418813  0.0438970646532251
  0.3568858832755893  0.4444217155532580  0.0474238334248367
  0.3589912238900101  0.5593469029876674  0.0468425577275895
  0.2562966322802440  0.6111923058646532  0.0437578978863889
  0.7558483282385713  0.4492711827468506  0.0645796141089441
  0.8548346787420513  0.3905512462625305  0.0542748903477279
  0.9556060860969343  0.4441754372774482  0.0490981220935016
  0.9571518745630306  0.5549707271010745  0.0496501686329931
  0.8586848761661031  0.6107147450090279  0.0566456851243847
  0.0560612901472077  0.7222661460673012  0.0446622338937883
  0.1546080321661981  0.7782961220750101  0.0430154993371970
  0.1541299837313322  0.8896216774629371  0.0432097485839387
  0.0540838668649491  0.9451007315246466  0.0447300573285533
  0.2539090039758942  0.7223857518605570  0.0434045623724758
  0.3521508315537310  0.7786412548443740  0.0451700573788421
  0.3532016420637817  0.8896146233129375  0.0452387085696960
  0.2537853097033616  0.9453769848549024  0.0435597472385677
  0.4502253348053113  0.7215767729910949  0.0492084344879584
  0.5513336435149178  0.8830898629738951  0.0528274287794368
  0.4538126279259856  0.9433936282602305  0.0487126899080488
  0.7533958847695698  0.8835616067506492  0.0563323969279363
  0.6524570050912391  0.9398434103546247  0.0556890017399949
  0.8593034979723804  0.7223119679261908  0.0547380029640364
  0.9568042972158507  0.7781775022646314  0.0477849538574162
  0.9545665633163608  0.8890776577003188  0.0475362764378205
  0.8532016446735640  0.9422452707901023  0.0510857880571243
  0.6604716809774439  0.3885480399988980  0.0734027190777037
  0.7577104185410444  0.5618712661250207  0.0670984542038361
  0.7588127259550599  0.7726122922071815  0.0612967477951540
  0.4504872454809329  0.3883335725001629  0.0562378709490767
  0.5476242928569968  0.7746591333957770  0.0538196512783811
  0.4538650921800820  0.6151214952031281  0.0502240217944719
  0.6536244188070226  0.6753317408312638  0.0890077029154343
  0.5487969752736450  0.4614403032202556  0.1065583614800077
  0.5762885334170448  0.4962087594851692  0.1899778214442035
  0.6871748627857023  0.6802155028779058  0.1754740236740621
  0.7637108775027882  0.6801800971360925  0.1879646203533668
  0.6121575584266754  0.5644849736531204  0.1953741006338591
 
  0.00000000E+00  0.00000000E+00  0.00000000E+00
  0.00000000E+00  0.00000000E+00  0.00000000E+00
  0.00000000E+00  0.00000000E+00  0.00000000E+00
  0.00000000E+00  0.00000000E+00  0.00000000E+00
  0.00000000E+00  0.00000000E+00  0.00000000E+00
  0.00000000E+00  0.00000000E+00  0.00000000E+00
  0.00000000E+00  0.00000000E+00  0.00000000E+00
  0.00000000E+00  0.00000000E+00  0.00000000E+00
  0.00000000E+00  0.00000000E+00  0.00000000E+00
  0.00000000E+00  0.00000000E+00  0.00000000E+00
  0.00000000E+00  0.00000000E+00  0.00000000E+00
  0.00000000E+00  0.00000000E+00  0.00000000E+00
  0.00000000E+00  0.00000000E+00  0.00000000E+00
  0.00000000E+00  0.00000000E+00  0.00000000E+00
  0.00000000E+00  0.00000000E+00  0.00000000E+00
  0.00000000E+00  0.00000000E+00  0.00000000E+00
  0.00000000E+00  0.00000000E+00  0.00000000E+00
  0.00000000E+00  0.00000000E+00  0.00000000E+00
  0.00000000E+00  0.00000000E+00  0.00000000E+00
  0.00000000E+00  0.00000000E+00  0.00000000E+00
  0.00000000E+00  0.00000000E+00  0.00000000E+00
  0.00000000E+00  0.00000000E+00  0.00000000E+00
  0.00000000E+00  0.00000000E+00  0.00000000E+00
  0.00000000E+00  0.00000000E+00  0.00000000E+00
  0.00000000E+00  0.00000000E+00  0.00000000E+00
  0.00000000E+00  0.00000000E+00  0.00000000E+00
  0.00000000E+00  0.00000000E+00  0.00000000E+00
  0.00000000E+00  0.00000000E+00  0.00000000E+00
  0.00000000E+00  0.00000000E+00  0.00000000E+00
  0.00000000E+00  0.00000000E+00  0.00000000E+00
  0.00000000E+00  0.00000000E+00  0.00000000E+00
  0.00000000E+00  0.00000000E+00  0.00000000E+00
  0.00000000E+00  0.00000000E+00  0.00000000E+00
  0.00000000E+00  0.00000000E+00  0.00000000E+00
  0.00000000E+00  0.00000000E+00  0.00000000E+00
  0.00000000E+00  0.00000000E+00  0.00000000E+00
  0.00000000E+00  0.00000000E+00  0.00000000E+00
  0.00000000E+00  0.00000000E+00  0.00000000E+00
  0.00000000E+00  0.00000000E+00  0.00000000E+00
  0.00000000E+00  0.00000000E+00  0.00000000E+00
  0.00000000E+00  0.00000000E+00  0.00000000E+00
  0.00000000E+00  0.00000000E+00  0.00000000E+00
  0.00000000E+00  0.00000000E+00  0.00000000E+00
  0.00000000E+00  0.00000000E+00  0.00000000E+00
  0.00000000E+00  0.00000000E+00  0.00000000E+00
  0.00000000E+00  0.00000000E+00  0.00000000E+00
  0.00000000E+00  0.00000000E+00  0.00000000E+00
  0.00000000E+00  0.00000000E+00  0.00000000E+00
  0.00000000E+00  0.00000000E+00  0.00000000E+00
  0.00000000E+00  0.00000000E+00  0.00000000E+00
  0.00000000E+00  0.00000000E+00  0.00000000E+00
  0.00000000E+00  0.00000000E+00  0.00000000E+00
  0.00000000E+00  0.00000000E+00  0.00000000E+00
  0.00000000E+00  0.00000000E+00  0.00000000E+00
  0.00000000E+00  0.00000000E+00  0.00000000E+00
  0.00000000E+00  0.00000000E+00  0.00000000E+00
  0.00000000E+00  0.00000000E+00  0.00000000E+00
  0.00000000E+00  0.00000000E+00  0.00000000E+00
  0.00000000E+00  0.00000000E+00  0.00000000E+00
  0.00000000E+00  0.00000000E+00  0.00000000E+00
  0.00000000E+00  0.00000000E+00  0.00000000E+00
  0.00000000E+00  0.00000000E+00  0.00000000E+00
