CONTCAR\(2)                             
   1.00000000000000     
    12.3312997818000003    0.0000000000000000    0.0000000000000000
     0.0001127485000000   12.8291997905000006    0.0000000000000000
     0.0005937186000000    0.0011528207000000   19.9943999824000009
   C    N    Fe   Ni   H 
    53     3     1     1     2
Direct
  0.0565852052413730  0.0539895739101466  0.0514124029988799
  0.1571586071521010  0.1096603267203271  0.0521440023214295
  0.1575667638518451  0.2206609761927595  0.0514743356255001
  0.0575474310931051  0.2754470472396201  0.0501444162739482
  0.2577079470636122  0.0552179045312511  0.0538659596001691
  0.3580369355346648  0.1117153250938133  0.0560827157868740
  0.3584459867567218  0.2238337551560459  0.0556124633374306
  0.2573668111051875  0.2772925965167666  0.0526522708417029
  0.4578753947236377  0.0559166798407733  0.0586194960523215
  0.5580248208864400  0.1133758125086123  0.0598698222489676
  0.5590122930367424  0.2263438959058133  0.0598368387092469
  0.4583262320405321  0.2827938603549964  0.0578544178479485
  0.6564251291749899  0.0536422120592489  0.0593111624309632
  0.7561976499363142  0.1099300705570504  0.0561834921669706
  0.7573781850272306  0.2224011625758269  0.0559772719852059
  0.6601598867573131  0.2829165566326277  0.0595430205878608
  0.8557126604580307  0.0533403021290973  0.0535165680808083
  0.9564008589570118  0.1087415266528817  0.0518178947087291
  0.9574475263164205  0.2198860397145075  0.0511415555371080
  0.8582103801861826  0.2759027551494879  0.0523795535903801
  0.0576832533008980  0.3865698881700244  0.0490537812756624
  0.1561394177640617  0.4432596068901273  0.0494245939552361
  0.1554602034677042  0.5545947103622815  0.0490377954611907
  0.0566327865821822  0.6100445078602345  0.0484337835393715
  0.2556074258895015  0.3883657652449666  0.0514543535610002
  0.3541286723986155  0.4453086549310049  0.0536197026067749
  0.3533407908391515  0.5574726950291113  0.0542238907042546
  0.2542037208508369  0.6116971009128843  0.0510191541330229
  0.7618944293067919  0.4442257471660633  0.0543696104755206
  0.8597580879376651  0.3868434850584503  0.0507364776756419
  0.9587046888406808  0.4420894941016605  0.0487481379834323
  0.9576978852067669  0.5528960677843081  0.0485848043960416
  0.8575993628510882  0.6055127860393144  0.0497470176196792
  0.0561869415985423  0.7211378201421978  0.0489062932065261
  0.1553161092035130  0.7776491306790380  0.0501527458728787
  0.1562483629811962  0.8885485383035312  0.0511533288980752
  0.0559260206975762  0.9429527683402827  0.0508211635553210
  0.2545739248163204  0.7222246145168790  0.0516586136234261
  0.3550010782515806  0.7759008746128776  0.0553081851796108
  0.3567711614871902  0.8878692520618705  0.0562069896690573
  0.2570834835560763  0.9437525828072973  0.0535450662818771
  0.4526333944237620  0.7165009224907610  0.0602844107622981
  0.5552483046893226  0.8840345232181316  0.0633600745623876
  0.4569942775316344  0.9433299869290938  0.0594667115517436
  0.7550717320104502  0.8835302445024422  0.0566630202182712
  0.6555889719494180  0.9412400234293876  0.0607776649014470
  0.8560513085977998  0.7184757393525834  0.0505456546626890
  0.9558712533984181  0.7752725007306965  0.0495867898597622
  0.9555620877615401  0.8866682881101037  0.0507901927590764
  0.8549198275074595  0.9413194303146115  0.0532070217055887
  0.4538746089930019  0.3937216332781526  0.0570253805967046
  0.5528094855248740  0.7725864649103780  0.0682360120941639
  0.7558896545441334  0.7717062441094820  0.0558054184102388
  0.4503350559142968  0.6074021761853972  0.0596724875154016
  0.6650932050531112  0.3919796174795901  0.0611867720019518
  0.7607009577163034  0.5518137670594286  0.0527652111196490
  0.6537216543536409  0.6680404846683399  0.0827386400619897
  0.5605176607960728  0.4948099709061774  0.0674452170157879
  0.6120457742631270  0.6515725912931774  0.1582825036404333
  0.6046963268442052  0.5836808585759747  0.1414656541543524
 
  0.00000000E+00  0.00000000E+00  0.00000000E+00
  0.00000000E+00  0.00000000E+00  0.00000000E+00
  0.00000000E+00  0.00000000E+00  0.00000000E+00
  0.00000000E+00  0.00000000E+00  0.00000000E+00
  0.00000000E+00  0.00000000E+00  0.00000000E+00
  0.00000000E+00  0.00000000E+00  0.00000000E+00
  0.00000000E+00  0.00000000E+00  0.00000000E+00
  0.00000000E+00  0.00000000E+00  0.00000000E+00
  0.00000000E+00  0.00000000E+00  0.00000000E+00
  0.00000000E+00  0.00000000E+00  0.00000000E+00
  0.00000000E+00  0.00000000E+00  0.00000000E+00
  0.00000000E+00  0.00000000E+00  0.00000000E+00
  0.00000000E+00  0.00000000E+00  0.00000000E+00
  0.00000000E+00  0.00000000E+00  0.00000000E+00
  0.00000000E+00  0.00000000E+00  0.00000000E+00
  0.00000000E+00  0.00000000E+00  0.00000000E+00
  0.00000000E+00  0.00000000E+00  0.00000000E+00
  0.00000000E+00  0.00000000E+00  0.00000000E+00
  0.00000000E+00  0.00000000E+00  0.00000000E+00
  0.00000000E+00  0.00000000E+00  0.00000000E+00
  0.00000000E+00  0.00000000E+00  0.00000000E+00
  0.00000000E+00  0.00000000E+00  0.00000000E+00
  0.00000000E+00  0.00000000E+00  0.00000000E+00
  0.00000000E+00  0.00000000E+00  0.00000000E+00
  0.00000000E+00  0.00000000E+00  0.00000000E+00
  0.00000000E+00  0.00000000E+00  0.00000000E+00
  0.00000000E+00  0.00000000E+00  0.00000000E+00
  0.00000000E+00  0.00000000E+00  0.00000000E+00
  0.00000000E+00  0.00000000E+00  0.00000000E+00
  0.00000000E+00  0.00000000E+00  0.00000000E+00
  0.00000000E+00  0.00000000E+00  0.00000000E+00
  0.00000000E+00  0.00000000E+00  0.00000000E+00
  0.00000000E+00  0.00000000E+00  0.00000000E+00
  0.00000000E+00  0.00000000E+00  0.00000000E+00
  0.00000000E+00  0.00000000E+00  0.00000000E+00
  0.00000000E+00  0.00000000E+00  0.00000000E+00
  0.00000000E+00  0.00000000E+00  0.00000000E+00
  0.00000000E+00  0.00000000E+00  0.00000000E+00
  0.00000000E+00  0.00000000E+00  0.00000000E+00
  0.00000000E+00  0.00000000E+00  0.00000000E+00
  0.00000000E+00  0.00000000E+00  0.00000000E+00
  0.00000000E+00  0.00000000E+00  0.00000000E+00
  0.00000000E+00  0.00000000E+00  0.00000000E+00
  0.00000000E+00  0.00000000E+00  0.00000000E+00
  0.00000000E+00  0.00000000E+00  0.00000000E+00
  0.00000000E+00  0.00000000E+00  0.00000000E+00
  0.00000000E+00  0.00000000E+00  0.00000000E+00
  0.00000000E+00  0.00000000E+00  0.00000000E+00
  0.00000000E+00  0.00000000E+00  0.00000000E+00
  0.00000000E+00  0.00000000E+00  0.00000000E+00
  0.00000000E+00  0.00000000E+00  0.00000000E+00
  0.00000000E+00  0.00000000E+00  0.00000000E+00
  0.00000000E+00  0.00000000E+00  0.00000000E+00
  0.00000000E+00  0.00000000E+00  0.00000000E+00
  0.00000000E+00  0.00000000E+00  0.00000000E+00
  0.00000000E+00  0.00000000E+00  0.00000000E+00
  0.00000000E+00  0.00000000E+00  0.00000000E+00
  0.00000000E+00  0.00000000E+00  0.00000000E+00
  0.00000000E+00  0.00000000E+00  0.00000000E+00
  0.00000000E+00  0.00000000E+00  0.00000000E+00
