CONTCAR                                 
   1.00000000000000     
    12.3312997818000003    0.0000000000000000    0.0000000000000000
     0.0001127485000000   12.8291997905000006    0.0000000000000000
     0.0005937186000000    0.0011528207000000   19.9943999824000009
   C    N    Fe   Ni   O 
    53     3     1     1     1
Direct
  0.0556813483816637  0.0544481304783181  0.0509675886353921
  0.1559936917502329  0.1099712523442220  0.0517815447852216
  0.1561150702630336  0.2207465895600436  0.0502889777515053
  0.0562740200052221  0.2759017398976323  0.0479016558233638
  0.2565123270962665  0.0556895905570555  0.0547413269734095
  0.3567506757647220  0.1118580776130518  0.0586091368037267
  0.3565372518533188  0.2237609334517062  0.0579268738715824
  0.2555927717164260  0.2765984958018781  0.0524002009610492
  0.4565644783772995  0.0565341562007112  0.0630042157359223
  0.5559887110042619  0.1142361341806014  0.0653210504720657
  0.5564624812803222  0.2280811241903580  0.0661671900284894
  0.4548679477920342  0.2837025511356778  0.0631873429500438
  0.6545846525007731  0.0536356660846987  0.0638433840215207
  0.7547711616548080  0.1100988714526057  0.0591530474135724
  0.7562893020268986  0.2224618908955932  0.0583448312582580
  0.6590603214262650  0.2838971733913893  0.0645916976126249
  0.8545079769473629  0.0536669491149210  0.0550460112888680
  0.9551180312505109  0.1092977105799386  0.0520061234689437
  0.9561794949498182  0.2204198173596381  0.0504611494592306
  0.8567424435057568  0.2766187066125148  0.0526364615247013
  0.0569037164905577  0.3869429671266155  0.0448221829338270
  0.1556465218375213  0.4432072675477883  0.0453613191513355
  0.1564568181007518  0.5546352426391589  0.0445672493873965
  0.0575727256052508  0.6101451041827937  0.0425671868287309
  0.2545888658832895  0.3873348672151369  0.0501453987824135
  0.3527755332659981  0.4423229770167625  0.0562201671747545
  0.3544851334736044  0.5551677923572884  0.0571908672084594
  0.2553955042086788  0.6104164214245235  0.0496182690861699
  0.7593721940527166  0.4445827818692261  0.0545076491296017
  0.8582458370581327  0.3876638287861933  0.0493136800248169
  0.9576357425768256  0.4426622771501060  0.0441252930327349
  0.9588349109438227  0.5533782790563595  0.0423461555030402
  0.8594110326950939  0.6080552222701487  0.0439356883533008
  0.0573430273624217  0.7217239727327587  0.0442097611405455
  0.1560781455383750  0.7773733868075957  0.0475833761535899
  0.1558682349734197  0.8886818381525340  0.0500380945664247
  0.0554900465611909  0.9436402804771239  0.0497925517319735
  0.2554894397120561  0.7214381944985062  0.0510337098412352
  0.3541010704934259  0.7769593533865952  0.0582712573434626
  0.3551646202992735  0.8886013856609224  0.0588017455927793
  0.2556311324499875  0.9443774858219485  0.0542223854911973
  0.4526985728330544  0.7205733195511247  0.0677292630956020
  0.5526441479072132  0.8841363132114611  0.0681874641474689
  0.4550163565138081  0.9439776681570375  0.0637210739495630
  0.7544717221303154  0.8830211014358160  0.0583577807401967
  0.6543399585469536  0.9403596807119778  0.0647285100115719
  0.8592363123292329  0.7208719125531410  0.0468061771731682
  0.9574609850997108  0.7771135934999011  0.0460558747636410
  0.9554087333368467  0.8879893419272233  0.0495243385838230
  0.8542503674188220  0.9416650544996641  0.0539603880972966
  0.4531668369694292  0.6073761792635981  0.0690324310206095
  0.7601235667338856  0.5557491578039131  0.0489391624003619
  0.7588463885385917  0.7713608612547640  0.0546066451962272
  0.4492953949797229  0.3919996056031866  0.0641992258868245
  0.6642517340840609  0.3907532004165447  0.0666919604969249
  0.5482087155874539  0.7770920136975941  0.0734228251244312
  0.6520638644843078  0.6631482551607369  0.0741506550595171
  0.5548160506730927  0.4955853235056097  0.0862812476565417
  0.6281159047041084  0.5829609216640674  0.1426511912989303
 
  0.00000000E+00  0.00000000E+00  0.00000000E+00
  0.00000000E+00  0.00000000E+00  0.00000000E+00
  0.00000000E+00  0.00000000E+00  0.00000000E+00
  0.00000000E+00  0.00000000E+00  0.00000000E+00
  0.00000000E+00  0.00000000E+00  0.00000000E+00
  0.00000000E+00  0.00000000E+00  0.00000000E+00
  0.00000000E+00  0.00000000E+00  0.00000000E+00
  0.00000000E+00  0.00000000E+00  0.00000000E+00
  0.00000000E+00  0.00000000E+00  0.00000000E+00
  0.00000000E+00  0.00000000E+00  0.00000000E+00
  0.00000000E+00  0.00000000E+00  0.00000000E+00
  0.00000000E+00  0.00000000E+00  0.00000000E+00
  0.00000000E+00  0.00000000E+00  0.00000000E+00
  0.00000000E+00  0.00000000E+00  0.00000000E+00
  0.00000000E+00  0.00000000E+00  0.00000000E+00
  0.00000000E+00  0.00000000E+00  0.00000000E+00
  0.00000000E+00  0.00000000E+00  0.00000000E+00
  0.00000000E+00  0.00000000E+00  0.00000000E+00
  0.00000000E+00  0.00000000E+00  0.00000000E+00
  0.00000000E+00  0.00000000E+00  0.00000000E+00
  0.00000000E+00  0.00000000E+00  0.00000000E+00
  0.00000000E+00  0.00000000E+00  0.00000000E+00
  0.00000000E+00  0.00000000E+00  0.00000000E+00
  0.00000000E+00  0.00000000E+00  0.00000000E+00
  0.00000000E+00  0.00000000E+00  0.00000000E+00
  0.00000000E+00  0.00000000E+00  0.00000000E+00
  0.00000000E+00  0.00000000E+00  0.00000000E+00
  0.00000000E+00  0.00000000E+00  0.00000000E+00
  0.00000000E+00  0.00000000E+00  0.00000000E+00
  0.00000000E+00  0.00000000E+00  0.00000000E+00
  0.00000000E+00  0.00000000E+00  0.00000000E+00
  0.00000000E+00  0.00000000E+00  0.00000000E+00
  0.00000000E+00  0.00000000E+00  0.00000000E+00
  0.00000000E+00  0.00000000E+00  0.00000000E+00
  0.00000000E+00  0.00000000E+00  0.00000000E+00
  0.00000000E+00  0.00000000E+00  0.00000000E+00
  0.00000000E+00  0.00000000E+00  0.00000000E+00
  0.00000000E+00  0.00000000E+00  0.00000000E+00
  0.00000000E+00  0.00000000E+00  0.00000000E+00
  0.00000000E+00  0.00000000E+00  0.00000000E+00
  0.00000000E+00  0.00000000E+00  0.00000000E+00
  0.00000000E+00  0.00000000E+00  0.00000000E+00
  0.00000000E+00  0.00000000E+00  0.00000000E+00
  0.00000000E+00  0.00000000E+00  0.00000000E+00
  0.00000000E+00  0.00000000E+00  0.00000000E+00
  0.00000000E+00  0.00000000E+00  0.00000000E+00
  0.00000000E+00  0.00000000E+00  0.00000000E+00
  0.00000000E+00  0.00000000E+00  0.00000000E+00
  0.00000000E+00  0.00000000E+00  0.00000000E+00
  0.00000000E+00  0.00000000E+00  0.00000000E+00
  0.00000000E+00  0.00000000E+00  0.00000000E+00
  0.00000000E+00  0.00000000E+00  0.00000000E+00
  0.00000000E+00  0.00000000E+00  0.00000000E+00
  0.00000000E+00  0.00000000E+00  0.00000000E+00
  0.00000000E+00  0.00000000E+00  0.00000000E+00
  0.00000000E+00  0.00000000E+00  0.00000000E+00
  0.00000000E+00  0.00000000E+00  0.00000000E+00
  0.00000000E+00  0.00000000E+00  0.00000000E+00
  0.00000000E+00  0.00000000E+00  0.00000000E+00
