1h\(2)                                  
   1.00000000000000     
    12.3312997818000003    0.0000000000000000    0.0000000000000000
     0.0001127485000000   12.8291997905000006    0.0000000000000000
     0.0005937186000000    0.0011528207000000   19.9943999824000009
   C    N    Fe   Ni
    53     3     1     1
Direct
  0.0557585781985613  0.0534559627500035  0.0552025602452400
  0.1560072373268961  0.1093871820804067  0.0551517458830506
  0.1564130453463061  0.2202602264617365  0.0547400320797275
  0.0569579961366210  0.2756211571529846  0.0543972876964667
  0.2566258136322420  0.0554685217493120  0.0558137548300582
  0.3566497970363854  0.1124258019764668  0.0563259017866836
  0.3567012658452729  0.2240025157052730  0.0560395850001342
  0.2557124950048879  0.2767056014165405  0.0551165534462709
  0.4567948315160327  0.0579597384181424  0.0571050513254048
  0.5567233642016748  0.1157758095531346  0.0572599154480081
  0.5575814033892958  0.2292025578824362  0.0570870510289179
  0.4553927662224247  0.2841432271667912  0.0566671149893185
  0.6557369344067533  0.0560665114806369  0.0572734061580845
  0.7560203692936345  0.1112019767489406  0.0565903711179791
  0.7574374411382333  0.2231393554337337  0.0563480791808349
  0.6602748221132223  0.2843181182427534  0.0569484880959385
  0.8549867594957975  0.0533740651326267  0.0560384167144935
  0.9557420450081968  0.1085829022903255  0.0553060873203908
  0.9571474967690307  0.2199459237396994  0.0549047806612490
  0.8582773636340372  0.2765160437674045  0.0554207659964605
  0.0579912809135607  0.3868225012456732  0.0540893663239871
  0.1562100971627061  0.4436693162649109  0.0542368943694140
  0.1563630031520314  0.5546541887607411  0.0544495267310525
  0.0569520507240205  0.6101788849157858  0.0545145189490086
  0.2550540453055493  0.3874586607786364  0.0548581473644665
  0.3535489508676032  0.4422501701369891  0.0557550104237132
  0.3558890141676567  0.5547702324625042  0.0559662894696005
  0.2560650537284090  0.6102530227044927  0.0552483222301093
  0.7633844784138410  0.4444688586210585  0.0563164897319485
  0.8609205261497302  0.3873491113679582  0.0552397908591731
  0.9595670915114268  0.4425763614234650  0.0544315995221534
  0.9582669907785547  0.5531631561484774  0.0546426555976930
  0.8575497781176877  0.6059218470456323  0.0555908493470642
  0.0559782624736389  0.7210792829896774  0.0549763115879205
  0.1554559182746605  0.7769858567030147  0.0553572317368616
  0.1556797646750824  0.8879893424465608  0.0555498984888873
  0.0550531964372883  0.9423800255495945  0.0553773875908427
  0.2553987509748879  0.7214760613897444  0.0556913606414441
  0.3546526738102906  0.7770748888993134  0.0566481297089725
  0.3558487464460462  0.8889198959903983  0.0567787724083550
  0.2559321671806769  0.9440635099525936  0.0560340775420411
  0.4544552949443316  0.7195300985733778  0.0574225937518304
  0.5545476985585776  0.8889977777384301  0.0578774056158814
  0.4556066037984992  0.9460726422490153  0.0573935641605630
  0.7537365476622176  0.8833052617014590  0.0569041364917272
  0.6554143069960183  0.9439112776733883  0.0575158862012063
  0.8554509178208675  0.7183580320509517  0.0557962536267150
  0.9552713446807038  0.7750549968733726  0.0553577911764295
  0.9547664056768052  0.8864226623258009  0.0555745535142225
  0.8538557588583608  0.9409494907687083  0.0561753498971604
  0.4573336490101442  0.6065941682453148  0.0571637402700820
  0.5518868381181887  0.7796612692475902  0.0580882544690787
  0.7537392893660902  0.7699685056401240  0.0567414284665660
  0.4503539819188482  0.3913519533019185  0.0566837371832466
  0.6667903975673906  0.3919528571237152  0.0571743640315503
  0.7609511545540549  0.5522753525498983  0.0564936349175008
  0.6379467044165171  0.6656437640866165  0.0576533748200412
  0.5623994830715326  0.4962017529037202  0.0575943467767874
 
  0.00000000E+00  0.00000000E+00  0.00000000E+00
  0.00000000E+00  0.00000000E+00  0.00000000E+00
  0.00000000E+00  0.00000000E+00  0.00000000E+00
  0.00000000E+00  0.00000000E+00  0.00000000E+00
  0.00000000E+00  0.00000000E+00  0.00000000E+00
  0.00000000E+00  0.00000000E+00  0.00000000E+00
  0.00000000E+00  0.00000000E+00  0.00000000E+00
  0.00000000E+00  0.00000000E+00  0.00000000E+00
  0.00000000E+00  0.00000000E+00  0.00000000E+00
  0.00000000E+00  0.00000000E+00  0.00000000E+00
  0.00000000E+00  0.00000000E+00  0.00000000E+00
  0.00000000E+00  0.00000000E+00  0.00000000E+00
  0.00000000E+00  0.00000000E+00  0.00000000E+00
  0.00000000E+00  0.00000000E+00  0.00000000E+00
  0.00000000E+00  0.00000000E+00  0.00000000E+00
  0.00000000E+00  0.00000000E+00  0.00000000E+00
  0.00000000E+00  0.00000000E+00  0.00000000E+00
  0.00000000E+00  0.00000000E+00  0.00000000E+00
  0.00000000E+00  0.00000000E+00  0.00000000E+00
  0.00000000E+00  0.00000000E+00  0.00000000E+00
  0.00000000E+00  0.00000000E+00  0.00000000E+00
  0.00000000E+00  0.00000000E+00  0.00000000E+00
  0.00000000E+00  0.00000000E+00  0.00000000E+00
  0.00000000E+00  0.00000000E+00  0.00000000E+00
  0.00000000E+00  0.00000000E+00  0.00000000E+00
  0.00000000E+00  0.00000000E+00  0.00000000E+00
  0.00000000E+00  0.00000000E+00  0.00000000E+00
  0.00000000E+00  0.00000000E+00  0.00000000E+00
  0.00000000E+00  0.00000000E+00  0.00000000E+00
  0.00000000E+00  0.00000000E+00  0.00000000E+00
  0.00000000E+00  0.00000000E+00  0.00000000E+00
  0.00000000E+00  0.00000000E+00  0.00000000E+00
  0.00000000E+00  0.00000000E+00  0.00000000E+00
  0.00000000E+00  0.00000000E+00  0.00000000E+00
  0.00000000E+00  0.00000000E+00  0.00000000E+00
  0.00000000E+00  0.00000000E+00  0.00000000E+00
  0.00000000E+00  0.00000000E+00  0.00000000E+00
  0.00000000E+00  0.00000000E+00  0.00000000E+00
  0.00000000E+00  0.00000000E+00  0.00000000E+00
  0.00000000E+00  0.00000000E+00  0.00000000E+00
  0.00000000E+00  0.00000000E+00  0.00000000E+00
  0.00000000E+00  0.00000000E+00  0.00000000E+00
  0.00000000E+00  0.00000000E+00  0.00000000E+00
  0.00000000E+00  0.00000000E+00  0.00000000E+00
  0.00000000E+00  0.00000000E+00  0.00000000E+00
  0.00000000E+00  0.00000000E+00  0.00000000E+00
  0.00000000E+00  0.00000000E+00  0.00000000E+00
  0.00000000E+00  0.00000000E+00  0.00000000E+00
  0.00000000E+00  0.00000000E+00  0.00000000E+00
  0.00000000E+00  0.00000000E+00  0.00000000E+00
  0.00000000E+00  0.00000000E+00  0.00000000E+00
  0.00000000E+00  0.00000000E+00  0.00000000E+00
  0.00000000E+00  0.00000000E+00  0.00000000E+00
  0.00000000E+00  0.00000000E+00  0.00000000E+00
  0.00000000E+00  0.00000000E+00  0.00000000E+00
  0.00000000E+00  0.00000000E+00  0.00000000E+00
  0.00000000E+00  0.00000000E+00  0.00000000E+00
  0.00000000E+00  0.00000000E+00  0.00000000E+00
