POSCAR\(2)                              
   1.00000000000000     
    12.3312997818000003    0.0000000000000000    0.0000000000000000
     0.0001127485000000   12.8291997905000006    0.0000000000000000
     0.0005937186000000    0.0011528207000000   19.9943999824000009
   C    N    Fe   Ni   H 
    53     3     1     1     2
Direct
  0.0540730850813278  0.0534794892924053  0.0505841836947604
  0.1545568341849090  0.1088913628554636  0.0491045348735550
  0.1546356634666380  0.2196995337082824  0.0480359895413648
  0.0543954048616249  0.2745187293421487  0.0491166256167328
  0.2548685086642545  0.0541960832772978  0.0495574852041215
  0.3552480694674529  0.1096617446804973  0.0523707240063098
  0.3550058334559790  0.2216154591147582  0.0514433022510415
  0.2545134795835127  0.2755084627410683  0.0474437254612364
  0.4548586480603724  0.0534426652830389  0.0565067831243168
  0.5539022032775245  0.1108445681023074  0.0614987715302300
  0.5541961476844007  0.2241577165014818  0.0629425117946608
  0.4536870633287643  0.2808829064850361  0.0557016068845270
  0.6526720029298647  0.0505860361685154  0.0637267260268224
  0.7528913835016795  0.1079809622570039  0.0624559672829421
  0.7537981595684438  0.2207352004271597  0.0639984676737879
  0.6549373567710461  0.2807340637966178  0.0688461502764007
  0.8529448403153823  0.0517851865974142  0.0582502239495882
  0.9533693955950280  0.1079042235896313  0.0541514056500190
  0.9540278470238365  0.2193766800801357  0.0538238649397692
  0.8545643468282167  0.2756213327165798  0.0589341698411909
  0.0556438282585625  0.3855049944048450  0.0468581790484739
  0.1549212732531504  0.4417988388661759  0.0432760326086237
  0.1555624732222970  0.5526482393426771  0.0415172141804818
  0.0569143782947034  0.6086600748179933  0.0433809689248440
  0.2545640544689502  0.3868734309468259  0.0448041079381713
  0.3541636168991018  0.4418172641034659  0.0468511390640930
  0.3544340437606524  0.5554238598488994  0.0469553012278571
  0.2544743301018130  0.6088336788994126  0.0426029019817774
  0.7599528502425881  0.4459729691421409  0.0689036467734329
  0.8571606314127743  0.3871416257729797  0.0583728077546256
  0.9568874889488344  0.4411855460857575  0.0506758704369540
  0.9588130654669360  0.5522392754988089  0.0492510418954000
  0.8619863611859903  0.6084920430610102  0.0574370566986176
  0.0560270304512124  0.7200448449152753  0.0440587115499380
  0.1545837539255660  0.7761994754805083  0.0434315310362306
  0.1542744980225761  0.8873934222735688  0.0460817309164788
  0.0541308007595667  0.9426808249829530  0.0490051159516588
  0.2534191515271762  0.7200964682513262  0.0436337803922631
  0.3520147549476120  0.7753586504911186  0.0483186043518152
  0.3535349822035699  0.8867842588102579  0.0504299680150436
  0.2542367636008648  0.9428348810253383  0.0480811458198470
  0.4494010993461043  0.7178540446037602  0.0552027637591082
  0.5506920607813387  0.8800881492930510  0.0622000964450955
  0.4538567872070650  0.9410103285980463  0.0561659216566920
  0.7534897796635542  0.8800756128477710  0.0637028748435769
  0.6521517015446806  0.9366812855704727  0.0645629265888094
  0.8604573749865320  0.7197762104707909  0.0568600390434906
  0.9570829027385567  0.7761038787624731  0.0493270433422947
  0.9544496705350310  0.8869112725939399  0.0517529860132005
  0.8529609611638900  0.9396573082940728  0.0579506155132390
  0.6603093249891323  0.3916760391630560  0.0760259995717188
  0.7629956098085000  0.5582294085334669  0.0693987557438406
  0.7588471714635253  0.7682670433264920  0.0658452348536235
  0.4507198983329442  0.3889163710853707  0.0528449658799804
  0.5453545212371410  0.7709661821224429  0.0644752417646434
  0.4502763837348355  0.6095654843230424  0.0545756694347144
  0.6515672983328623  0.6608269047410403  0.0812786899128424
  0.5534713459426035  0.4920361272964205  0.0751942190416504
  0.7019606505956826  0.6704929025164050  0.1480945709767746
  0.6095389709912558  0.5589482828197254  0.1296713144247065
 
  0.00000000E+00  0.00000000E+00  0.00000000E+00
  0.00000000E+00  0.00000000E+00  0.00000000E+00
  0.00000000E+00  0.00000000E+00  0.00000000E+00
  0.00000000E+00  0.00000000E+00  0.00000000E+00
  0.00000000E+00  0.00000000E+00  0.00000000E+00
  0.00000000E+00  0.00000000E+00  0.00000000E+00
  0.00000000E+00  0.00000000E+00  0.00000000E+00
  0.00000000E+00  0.00000000E+00  0.00000000E+00
  0.00000000E+00  0.00000000E+00  0.00000000E+00
  0.00000000E+00  0.00000000E+00  0.00000000E+00
  0.00000000E+00  0.00000000E+00  0.00000000E+00
  0.00000000E+00  0.00000000E+00  0.00000000E+00
  0.00000000E+00  0.00000000E+00  0.00000000E+00
  0.00000000E+00  0.00000000E+00  0.00000000E+00
  0.00000000E+00  0.00000000E+00  0.00000000E+00
  0.00000000E+00  0.00000000E+00  0.00000000E+00
  0.00000000E+00  0.00000000E+00  0.00000000E+00
  0.00000000E+00  0.00000000E+00  0.00000000E+00
  0.00000000E+00  0.00000000E+00  0.00000000E+00
  0.00000000E+00  0.00000000E+00  0.00000000E+00
  0.00000000E+00  0.00000000E+00  0.00000000E+00
  0.00000000E+00  0.00000000E+00  0.00000000E+00
  0.00000000E+00  0.00000000E+00  0.00000000E+00
  0.00000000E+00  0.00000000E+00  0.00000000E+00
  0.00000000E+00  0.00000000E+00  0.00000000E+00
  0.00000000E+00  0.00000000E+00  0.00000000E+00
  0.00000000E+00  0.00000000E+00  0.00000000E+00
  0.00000000E+00  0.00000000E+00  0.00000000E+00
  0.00000000E+00  0.00000000E+00  0.00000000E+00
  0.00000000E+00  0.00000000E+00  0.00000000E+00
  0.00000000E+00  0.00000000E+00  0.00000000E+00
  0.00000000E+00  0.00000000E+00  0.00000000E+00
  0.00000000E+00  0.00000000E+00  0.00000000E+00
  0.00000000E+00  0.00000000E+00  0.00000000E+00
  0.00000000E+00  0.00000000E+00  0.00000000E+00
  0.00000000E+00  0.00000000E+00  0.00000000E+00
  0.00000000E+00  0.00000000E+00  0.00000000E+00
  0.00000000E+00  0.00000000E+00  0.00000000E+00
  0.00000000E+00  0.00000000E+00  0.00000000E+00
  0.00000000E+00  0.00000000E+00  0.00000000E+00
  0.00000000E+00  0.00000000E+00  0.00000000E+00
  0.00000000E+00  0.00000000E+00  0.00000000E+00
  0.00000000E+00  0.00000000E+00  0.00000000E+00
  0.00000000E+00  0.00000000E+00  0.00000000E+00
  0.00000000E+00  0.00000000E+00  0.00000000E+00
  0.00000000E+00  0.00000000E+00  0.00000000E+00
  0.00000000E+00  0.00000000E+00  0.00000000E+00
  0.00000000E+00  0.00000000E+00  0.00000000E+00
  0.00000000E+00  0.00000000E+00  0.00000000E+00
  0.00000000E+00  0.00000000E+00  0.00000000E+00
  0.00000000E+00  0.00000000E+00  0.00000000E+00
  0.00000000E+00  0.00000000E+00  0.00000000E+00
  0.00000000E+00  0.00000000E+00  0.00000000E+00
  0.00000000E+00  0.00000000E+00  0.00000000E+00
  0.00000000E+00  0.00000000E+00  0.00000000E+00
  0.00000000E+00  0.00000000E+00  0.00000000E+00
  0.00000000E+00  0.00000000E+00  0.00000000E+00
  0.00000000E+00  0.00000000E+00  0.00000000E+00
  0.00000000E+00  0.00000000E+00  0.00000000E+00
  0.00000000E+00  0.00000000E+00  0.00000000E+00
