CONTCAR\(2)\(3)                         
   1.00000000000000     
    12.3312997818000003    0.0000000000000000    0.0000000000000000
     0.0001127485000000   12.8291997905000006    0.0000000000000000
     0.0005937186000000    0.0011528207000000   19.9943999824000009
   C    N    Fe   Ni   O 
    54     2     1     1     2
Direct
  0.0558041682030796  0.0546687503833529  0.0478772955486022
  0.1561129335178099  0.1099775047048658  0.0483062301299055
  0.1563440160630985  0.2208697725171956  0.0480361535537558
  0.0562437676176211  0.2760967813497753  0.0470306265325411
  0.2564833637261824  0.0550439390415485  0.0498493889119916
  0.3568254250193762  0.1107311261901391  0.0527129580119873
  0.3571720528648080  0.2222987376000621  0.0533224085646236
  0.2565061364974220  0.2764298619259031  0.0499631867539933
  0.4565944952835598  0.0547649527492557  0.0557035198221251
  0.5570902370775035  0.1107900429806014  0.0584497197127895
  0.5573986068234353  0.2225807855096597  0.0604889849908778
  0.4572309010791025  0.2796232891150714  0.0583960274539565
  0.6569198387081838  0.0524476319286407  0.0576680253779345
  0.7558700653463725  0.1099397948113016  0.0545675466457421
  0.7561604364854977  0.2222100589168073  0.0548331167316042
  0.6574739450354860  0.2809093633410705  0.0608033606013202
  0.8553390357187960  0.0536894566307853  0.0514931845958467
  0.9555524729371684  0.1095846065705998  0.0490519344713402
  0.9559216036915794  0.2210630649115660  0.0485120439748620
  0.8561249205231691  0.2772728932903208  0.0507798981615099
  0.0568297383287478  0.3873429564586677  0.0460492330183417
  0.1560336206774135  0.4430581418540072  0.0469040707857329
  0.1561710562243266  0.5544291503493339  0.0465027759373315
  0.0569118685160172  0.6101388360639706  0.0448470849599587
  0.2558601050770467  0.3873775002682625  0.0496714790243434
  0.3547295484951506  0.4429821982149585  0.0543448520197412
  0.3550491201766163  0.5553018254816068  0.0553843453193635
  0.2553629683771715  0.6105117124558460  0.0495805148814709
  0.7591950780689990  0.4479522371740786  0.0557857001049171
  0.8573354878803753  0.3889291698445583  0.0497071771699477
  0.9573434811503800  0.4432522133520163  0.0463601999840368
  0.9578831259607103  0.5542435691634359  0.0456106529181209
  0.8575292447898791  0.6080663516585707  0.0487582935839729
  0.0561809321956032  0.7211752462949212  0.0452892284903936
  0.1550114806195261  0.7772374868956865  0.0461997890681359
  0.1558447936721908  0.8883974990137437  0.0469872514807673
  0.0557827087651470  0.9436234935889907  0.0471862395458526
  0.2543849372000476  0.7214840791651836  0.0485436144608072
  0.3532584321025137  0.7766458533602316  0.0521267081998161
  0.3556030095354071  0.8878994950229587  0.0520211277879808
  0.2559773525483404  0.9438348744979732  0.0492251887682126
  0.4512988488194351  0.7192643218003424  0.0613730754180747
  0.5551918473384475  0.8852066246719268  0.0609122403684260
  0.4558250060232428  0.9432069048310588  0.0559652584604926
  0.7568255686222746  0.8828123393571895  0.0553280860397744
  0.6567251483860673  0.9400480334963511  0.0588196520967090
  0.8571111716876481  0.7217259479594758  0.0491075880067191
  0.9563498338756530  0.7764994427181232  0.0469537424315288
  0.9561982064931785  0.8878204219226755  0.0481644039435903
  0.8555856972534281  0.9416032958802348  0.0514274878101247
  0.4547481522704506  0.3905122291792760  0.0607933589007981
  0.6598177817262053  0.3917272112295667  0.0666084383459258
  0.5493169682839757  0.7761160203746486  0.0671784577138312
  0.4537310927653573  0.6078758804367679  0.0655358999921412
  0.7622132885980635  0.5560787619470199  0.0549622214091332
  0.7594252397582054  0.7737387812924974  0.0546378364646988
  0.6520536686820952  0.6727546512218091  0.0796271033804203
  0.5556250012449554  0.4871852800033904  0.0927335364673050
  0.6085390948017591  0.5449614482276649  0.1708181464513083
  0.6364617787886609  0.6512161318024655  0.1681023292424136
 
  0.00000000E+00  0.00000000E+00  0.00000000E+00
  0.00000000E+00  0.00000000E+00  0.00000000E+00
  0.00000000E+00  0.00000000E+00  0.00000000E+00
  0.00000000E+00  0.00000000E+00  0.00000000E+00
  0.00000000E+00  0.00000000E+00  0.00000000E+00
  0.00000000E+00  0.00000000E+00  0.00000000E+00
  0.00000000E+00  0.00000000E+00  0.00000000E+00
  0.00000000E+00  0.00000000E+00  0.00000000E+00
  0.00000000E+00  0.00000000E+00  0.00000000E+00
  0.00000000E+00  0.00000000E+00  0.00000000E+00
  0.00000000E+00  0.00000000E+00  0.00000000E+00
  0.00000000E+00  0.00000000E+00  0.00000000E+00
  0.00000000E+00  0.00000000E+00  0.00000000E+00
  0.00000000E+00  0.00000000E+00  0.00000000E+00
  0.00000000E+00  0.00000000E+00  0.00000000E+00
  0.00000000E+00  0.00000000E+00  0.00000000E+00
  0.00000000E+00  0.00000000E+00  0.00000000E+00
  0.00000000E+00  0.00000000E+00  0.00000000E+00
  0.00000000E+00  0.00000000E+00  0.00000000E+00
  0.00000000E+00  0.00000000E+00  0.00000000E+00
  0.00000000E+00  0.00000000E+00  0.00000000E+00
  0.00000000E+00  0.00000000E+00  0.00000000E+00
  0.00000000E+00  0.00000000E+00  0.00000000E+00
  0.00000000E+00  0.00000000E+00  0.00000000E+00
  0.00000000E+00  0.00000000E+00  0.00000000E+00
  0.00000000E+00  0.00000000E+00  0.00000000E+00
  0.00000000E+00  0.00000000E+00  0.00000000E+00
  0.00000000E+00  0.00000000E+00  0.00000000E+00
  0.00000000E+00  0.00000000E+00  0.00000000E+00
  0.00000000E+00  0.00000000E+00  0.00000000E+00
  0.00000000E+00  0.00000000E+00  0.00000000E+00
  0.00000000E+00  0.00000000E+00  0.00000000E+00
  0.00000000E+00  0.00000000E+00  0.00000000E+00
  0.00000000E+00  0.00000000E+00  0.00000000E+00
  0.00000000E+00  0.00000000E+00  0.00000000E+00
  0.00000000E+00  0.00000000E+00  0.00000000E+00
  0.00000000E+00  0.00000000E+00  0.00000000E+00
  0.00000000E+00  0.00000000E+00  0.00000000E+00
  0.00000000E+00  0.00000000E+00  0.00000000E+00
  0.00000000E+00  0.00000000E+00  0.00000000E+00
  0.00000000E+00  0.00000000E+00  0.00000000E+00
  0.00000000E+00  0.00000000E+00  0.00000000E+00
  0.00000000E+00  0.00000000E+00  0.00000000E+00
  0.00000000E+00  0.00000000E+00  0.00000000E+00
  0.00000000E+00  0.00000000E+00  0.00000000E+00
  0.00000000E+00  0.00000000E+00  0.00000000E+00
  0.00000000E+00  0.00000000E+00  0.00000000E+00
  0.00000000E+00  0.00000000E+00  0.00000000E+00
  0.00000000E+00  0.00000000E+00  0.00000000E+00
  0.00000000E+00  0.00000000E+00  0.00000000E+00
  0.00000000E+00  0.00000000E+00  0.00000000E+00
  0.00000000E+00  0.00000000E+00  0.00000000E+00
  0.00000000E+00  0.00000000E+00  0.00000000E+00
  0.00000000E+00  0.00000000E+00  0.00000000E+00
  0.00000000E+00  0.00000000E+00  0.00000000E+00
  0.00000000E+00  0.00000000E+00  0.00000000E+00
  0.00000000E+00  0.00000000E+00  0.00000000E+00
  0.00000000E+00  0.00000000E+00  0.00000000E+00
  0.00000000E+00  0.00000000E+00  0.00000000E+00
  0.00000000E+00  0.00000000E+00  0.00000000E+00
