CONTCAR\(2)                             
   1.00000000000000     
    12.3312997818000003    0.0000000000000000    0.0000000000000000
     0.0001127485000000   12.8291997905000006    0.0000000000000000
     0.0005937186000000    0.0011528207000000   19.9943999824000009
   C    N    Fe   Ni   O 
    54     2     1     1     2
Direct
  0.0551828117054971  0.0548053161093975  0.0496764318429886
  0.1553078541630513  0.1105587003855184  0.0496149368590447
  0.1558749660984229  0.2213788164424267  0.0491503201295294
  0.0561021691463314  0.2763263458060378  0.0484817365975128
  0.2553938717116829  0.0560534414500371  0.0507231968387233
  0.3557844284346596  0.1116414399248293  0.0531536625269066
  0.3560816149367692  0.2232350812630060  0.0535237187875757
  0.2557986995781885  0.2771520487974921  0.0504107511818875
  0.4552064716875689  0.0559301939071845  0.0557852382407752
  0.5548789645424209  0.1121834021042161  0.0587395648417215
  0.5553243519645370  0.2242290075739440  0.0609131924825599
  0.4550954943158355  0.2811682485268062  0.0578759194536625
  0.6542767339102498  0.0528757774632546  0.0584961842223395
  0.7546901708020628  0.1094099683821512  0.0560093399832899
  0.7558232847660070  0.2213104449069254  0.0564166222721256
  0.6566809502632728  0.2798490398126251  0.0624940341148293
  0.8543344623150143  0.0531779374417128  0.0531611404100031
  0.9547276280026719  0.1094365308967033  0.0508727694557145
  0.9556130405594575  0.2207652138923656  0.0502558036434543
  0.8559938415387254  0.2767324282315702  0.0524661273163039
  0.0576116990968390  0.3874148745667606  0.0472740729834842
  0.1570208686351757  0.4434885984587185  0.0474486585417989
  0.1581256750900479  0.5548411784256310  0.0471271615554357
  0.0585053543685356  0.6099411401996849  0.0464951663102475
  0.2566280298286890  0.3880712879101296  0.0495606909184357
  0.3566645446191484  0.4426786488400859  0.0526785118365045
  0.3599835753149782  0.5565986203452417  0.0528974879368052
  0.2578588434592538  0.6104604247774793  0.0489780946407932
  0.7591988570147215  0.4464650999032127  0.0576067901982700
  0.8579659046822992  0.3881845188084507  0.0511589559625485
  0.9579682632598031  0.4427813880928490  0.0476060918213320
  0.9593414416024847  0.5534850165683799  0.0472639808319023
  0.8600820951123755  0.6085080967126970  0.0498517330012063
  0.0570772600495461  0.7214075929246098  0.0470169496117540
  0.1555505421707936  0.7772360886995817  0.0476923278800577
  0.1549505962805250  0.8887155563400287  0.0486016103356588
  0.0549064328539847  0.9438476580686621  0.0491816676402279
  0.2551890133048318  0.7214760306731653  0.0489478359483674
  0.3528906384572557  0.7785792586782282  0.0518553549111182
  0.3538149146822289  0.8896540601592828  0.0521231328899317
  0.2543896388044062  0.9450533999582562  0.0500995702496572
  0.4516694292159850  0.7236495606074094  0.0579808469817951
  0.5518524760975319  0.8853755419534590  0.0594605836267553
  0.4537787053944580  0.9443966778882065  0.0556172132353476
  0.7538139528280767  0.8826576637136451  0.0566789848141942
  0.6538648004921926  0.9406361379705654  0.0591347201560403
  0.8590381813157806  0.7209179193330960  0.0506417744770009
  0.9571774903411574  0.7770563318116972  0.0486233472063214
  0.9550675197065699  0.8878837466013718  0.0500837926810466
  0.8538549226016502  0.9412474869912267  0.0531189165820219
  0.4591494592278493  0.6119224560660665  0.0600774483114596
  0.6622867105492017  0.3887283371085319  0.0690253943682477
  0.7601803730911746  0.5575514926100469  0.0554847190624669
  0.7578180484820414  0.7709874141300477  0.0562626780438544
  0.4526057531656223  0.3896471725285326  0.0583500844147708
  0.5469312774837041  0.7794563819797188  0.0620166519699092
  0.6473539040145546  0.6654169165982194  0.0700819684126262
  0.5567639797285094  0.4843566768348893  0.0887855439146326
  0.6165814291061582  0.5408412498385228  0.1655265767330444
  0.6467255840274203  0.6453529620054080  0.1573222078019746
 
  0.00000000E+00  0.00000000E+00  0.00000000E+00
  0.00000000E+00  0.00000000E+00  0.00000000E+00
  0.00000000E+00  0.00000000E+00  0.00000000E+00
  0.00000000E+00  0.00000000E+00  0.00000000E+00
  0.00000000E+00  0.00000000E+00  0.00000000E+00
  0.00000000E+00  0.00000000E+00  0.00000000E+00
  0.00000000E+00  0.00000000E+00  0.00000000E+00
  0.00000000E+00  0.00000000E+00  0.00000000E+00
  0.00000000E+00  0.00000000E+00  0.00000000E+00
  0.00000000E+00  0.00000000E+00  0.00000000E+00
  0.00000000E+00  0.00000000E+00  0.00000000E+00
  0.00000000E+00  0.00000000E+00  0.00000000E+00
  0.00000000E+00  0.00000000E+00  0.00000000E+00
  0.00000000E+00  0.00000000E+00  0.00000000E+00
  0.00000000E+00  0.00000000E+00  0.00000000E+00
  0.00000000E+00  0.00000000E+00  0.00000000E+00
  0.00000000E+00  0.00000000E+00  0.00000000E+00
  0.00000000E+00  0.00000000E+00  0.00000000E+00
  0.00000000E+00  0.00000000E+00  0.00000000E+00
  0.00000000E+00  0.00000000E+00  0.00000000E+00
  0.00000000E+00  0.00000000E+00  0.00000000E+00
  0.00000000E+00  0.00000000E+00  0.00000000E+00
  0.00000000E+00  0.00000000E+00  0.00000000E+00
  0.00000000E+00  0.00000000E+00  0.00000000E+00
  0.00000000E+00  0.00000000E+00  0.00000000E+00
  0.00000000E+00  0.00000000E+00  0.00000000E+00
  0.00000000E+00  0.00000000E+00  0.00000000E+00
  0.00000000E+00  0.00000000E+00  0.00000000E+00
  0.00000000E+00  0.00000000E+00  0.00000000E+00
  0.00000000E+00  0.00000000E+00  0.00000000E+00
  0.00000000E+00  0.00000000E+00  0.00000000E+00
  0.00000000E+00  0.00000000E+00  0.00000000E+00
  0.00000000E+00  0.00000000E+00  0.00000000E+00
  0.00000000E+00  0.00000000E+00  0.00000000E+00
  0.00000000E+00  0.00000000E+00  0.00000000E+00
  0.00000000E+00  0.00000000E+00  0.00000000E+00
  0.00000000E+00  0.00000000E+00  0.00000000E+00
  0.00000000E+00  0.00000000E+00  0.00000000E+00
  0.00000000E+00  0.00000000E+00  0.00000000E+00
  0.00000000E+00  0.00000000E+00  0.00000000E+00
  0.00000000E+00  0.00000000E+00  0.00000000E+00
  0.00000000E+00  0.00000000E+00  0.00000000E+00
  0.00000000E+00  0.00000000E+00  0.00000000E+00
  0.00000000E+00  0.00000000E+00  0.00000000E+00
  0.00000000E+00  0.00000000E+00  0.00000000E+00
  0.00000000E+00  0.00000000E+00  0.00000000E+00
  0.00000000E+00  0.00000000E+00  0.00000000E+00
  0.00000000E+00  0.00000000E+00  0.00000000E+00
  0.00000000E+00  0.00000000E+00  0.00000000E+00
  0.00000000E+00  0.00000000E+00  0.00000000E+00
  0.00000000E+00  0.00000000E+00  0.00000000E+00
  0.00000000E+00  0.00000000E+00  0.00000000E+00
  0.00000000E+00  0.00000000E+00  0.00000000E+00
  0.00000000E+00  0.00000000E+00  0.00000000E+00
  0.00000000E+00  0.00000000E+00  0.00000000E+00
  0.00000000E+00  0.00000000E+00  0.00000000E+00
  0.00000000E+00  0.00000000E+00  0.00000000E+00
  0.00000000E+00  0.00000000E+00  0.00000000E+00
  0.00000000E+00  0.00000000E+00  0.00000000E+00
  0.00000000E+00  0.00000000E+00  0.00000000E+00
