CONTCAR\(3)                             
   1.00000000000000     
    12.3312997818000003    0.0000000000000000    0.0000000000000000
     0.0001127485000000   12.8291997905000006    0.0000000000000000
     0.0005937186000000    0.0011528207000000   19.9943999824000009
   C    N    Fe   Ni   O    H 
    54     2     1     1     2     2
Direct
  0.0562993189142231  0.0494905193796695  0.0461489617786839
  0.1568157216315472  0.1047577774274027  0.0456374448150518
  0.1567675358357153  0.2156645193383310  0.0436829927592790
  0.0565531316275073  0.2711826057192891  0.0428832651350340
  0.2576795504137729  0.0502410609101722  0.0481312558039160
  0.3577646023252497  0.1068928475094836  0.0514468379495825
  0.3578314738372085  0.2189313289567263  0.0498499088618029
  0.2563823284350538  0.2717409087513072  0.0444877700821240
  0.4576776188325505  0.0512371154325973  0.0567629006275948
  0.5575838428917965  0.1093838244876636  0.0604160131483980
  0.5582100889196066  0.2222076133428999  0.0605799238314128
  0.4573589126104038  0.2785074191358099  0.0548230323216958
  0.6565530635067880  0.0502558008176286  0.0615138027864335
  0.7563576746483887  0.1061072136007759  0.0573166025043725
  0.7573992896684983  0.2182518269643919  0.0568132655412024
  0.6602857826297580  0.2786376523334151  0.0621992214699107
  0.8560300346019478  0.0498571262475849  0.0527888915883454
  0.9562660584928577  0.1049350063028831  0.0481958246931893
  0.9568209109611566  0.2160680774107567  0.0468386565970232
  0.8574560382714109  0.2722499410852148  0.0508836005675834
  0.0559962509286748  0.3823673683765726  0.0404300689800178
  0.1544460604594741  0.4386554603465068  0.0395935257973694
  0.1540241046390606  0.5501818019881795  0.0392271920200752
  0.0548091672593799  0.6057770801723811  0.0392274948444118
  0.2537035109217514  0.3825976009157853  0.0424962513284471
  0.3509477949786730  0.4390252629064337  0.0471091958300683
  0.3508616029955396  0.5505826930064399  0.0494736477605548
  0.2531437654841295  0.6065447583731390  0.0431016664174697
  0.7599084294504873  0.4405866379219017  0.0568753281147451
  0.8581482965682792  0.3833016318268205  0.0491192037438308
  0.9568521941666492  0.4381925738449483  0.0424892624404936
  0.9558306598697687  0.5489575498477394  0.0416169220363702
  0.8551580454387301  0.6015765134221936  0.0477111877163416
  0.0555798879838135  0.7170282134696018  0.0406532734375759
  0.1555860849044636  0.7728702488778080  0.0426153326291747
  0.1564102411655927  0.8837658806077332  0.0447756492477874
  0.0558820022387782  0.9384524540864856  0.0455648569774908
  0.2553381857647706  0.7172750452137591  0.0449025083773123
  0.3562469774113366  0.7705307247914508  0.0512675695759150
  0.3572173616902073  0.8825164990519181  0.0521880374529251
  0.2572807804324845  0.9387597241008461  0.0479807161416358
  0.4551376477569959  0.7107148606096106  0.0605473387640271
  0.5560512913290941  0.8800949743987319  0.0648735611470915
  0.4570540764956615  0.9387054502169005  0.0578708676313911
  0.7566365873461496  0.8813617010692019  0.0608966683852183
  0.6563558018959932  0.9379960432889625  0.0643335528180335
  0.8555501241005612  0.7148505854609656  0.0497388282402144
  0.9553376446164177  0.7713635784483148  0.0443423184000562
  0.9556432771168267  0.8827606841658253  0.0472905457075979
  0.8558609090662144  0.9381754974413493  0.0531002631153826
  0.4521962570713465  0.3897889353534221  0.0535724490427298
  0.5534410528456394  0.7690514691932925  0.0696121916301697
  0.7584503644829877  0.7699345634900917  0.0636346963349267
  0.4511326081252083  0.5983694207318417  0.0623954591192422
  0.6648360292678532  0.3866043242537514  0.0661967640748404
  0.7591816279466376  0.5490054059628734  0.0547690544186055
  0.6603057286446329  0.6787217982372163  0.1052418699693318
  0.5540018013916422  0.4876896018922173  0.0810169764435949
  0.6243791396734796  0.5566227677973148  0.1564476580154929
  0.6625798413084794  0.7476054499540652  0.1833589923029430
  0.6729063141336503  0.8225235710106406  0.1768732340181796
  0.5759575785770539  0.5791835437207660  0.1922376506882539
 
  0.00000000E+00  0.00000000E+00  0.00000000E+00
  0.00000000E+00  0.00000000E+00  0.00000000E+00
  0.00000000E+00  0.00000000E+00  0.00000000E+00
  0.00000000E+00  0.00000000E+00  0.00000000E+00
  0.00000000E+00  0.00000000E+00  0.00000000E+00
  0.00000000E+00  0.00000000E+00  0.00000000E+00
  0.00000000E+00  0.00000000E+00  0.00000000E+00
  0.00000000E+00  0.00000000E+00  0.00000000E+00
  0.00000000E+00  0.00000000E+00  0.00000000E+00
  0.00000000E+00  0.00000000E+00  0.00000000E+00
  0.00000000E+00  0.00000000E+00  0.00000000E+00
  0.00000000E+00  0.00000000E+00  0.00000000E+00
  0.00000000E+00  0.00000000E+00  0.00000000E+00
  0.00000000E+00  0.00000000E+00  0.00000000E+00
  0.00000000E+00  0.00000000E+00  0.00000000E+00
  0.00000000E+00  0.00000000E+00  0.00000000E+00
  0.00000000E+00  0.00000000E+00  0.00000000E+00
  0.00000000E+00  0.00000000E+00  0.00000000E+00
  0.00000000E+00  0.00000000E+00  0.00000000E+00
  0.00000000E+00  0.00000000E+00  0.00000000E+00
  0.00000000E+00  0.00000000E+00  0.00000000E+00
  0.00000000E+00  0.00000000E+00  0.00000000E+00
  0.00000000E+00  0.00000000E+00  0.00000000E+00
  0.00000000E+00  0.00000000E+00  0.00000000E+00
  0.00000000E+00  0.00000000E+00  0.00000000E+00
  0.00000000E+00  0.00000000E+00  0.00000000E+00
  0.00000000E+00  0.00000000E+00  0.00000000E+00
  0.00000000E+00  0.00000000E+00  0.00000000E+00
  0.00000000E+00  0.00000000E+00  0.00000000E+00
  0.00000000E+00  0.00000000E+00  0.00000000E+00
  0.00000000E+00  0.00000000E+00  0.00000000E+00
  0.00000000E+00  0.00000000E+00  0.00000000E+00
  0.00000000E+00  0.00000000E+00  0.00000000E+00
  0.00000000E+00  0.00000000E+00  0.00000000E+00
  0.00000000E+00  0.00000000E+00  0.00000000E+00
  0.00000000E+00  0.00000000E+00  0.00000000E+00
  0.00000000E+00  0.00000000E+00  0.00000000E+00
  0.00000000E+00  0.00000000E+00  0.00000000E+00
  0.00000000E+00  0.00000000E+00  0.00000000E+00
  0.00000000E+00  0.00000000E+00  0.00000000E+00
  0.00000000E+00  0.00000000E+00  0.00000000E+00
  0.00000000E+00  0.00000000E+00  0.00000000E+00
  0.00000000E+00  0.00000000E+00  0.00000000E+00
  0.00000000E+00  0.00000000E+00  0.00000000E+00
  0.00000000E+00  0.00000000E+00  0.00000000E+00
  0.00000000E+00  0.00000000E+00  0.00000000E+00
  0.00000000E+00  0.00000000E+00  0.00000000E+00
  0.00000000E+00  0.00000000E+00  0.00000000E+00
  0.00000000E+00  0.00000000E+00  0.00000000E+00
  0.00000000E+00  0.00000000E+00  0.00000000E+00
  0.00000000E+00  0.00000000E+00  0.00000000E+00
  0.00000000E+00  0.00000000E+00  0.00000000E+00
  0.00000000E+00  0.00000000E+00  0.00000000E+00
  0.00000000E+00  0.00000000E+00  0.00000000E+00
  0.00000000E+00  0.00000000E+00  0.00000000E+00
  0.00000000E+00  0.00000000E+00  0.00000000E+00
  0.00000000E+00  0.00000000E+00  0.00000000E+00
  0.00000000E+00  0.00000000E+00  0.00000000E+00
  0.00000000E+00  0.00000000E+00  0.00000000E+00
  0.00000000E+00  0.00000000E+00  0.00000000E+00
  0.00000000E+00  0.00000000E+00  0.00000000E+00
  0.00000000E+00  0.00000000E+00  0.00000000E+00
