CONTCAR\(2)                             
   1.00000000000000     
    12.3312997818000003    0.0000000000000000    0.0000000000000000
     0.0001127485000000   12.8291997905000006    0.0000000000000000
     0.0005937186000000    0.0011528207000000   19.9943999824000009
   C    N    Fe   Ni   H 
    54     2     1     1     2
Direct
  0.0558773876236500  0.0543868149342065  0.0536626369014005
  0.1559861304175364  0.1100481880761504  0.0534623089740764
  0.1561700801544486  0.2209144679962347  0.0529629795334594
  0.0564825379859936  0.2762195438429061  0.0522145578023034
  0.2562197327150120  0.0554735929905457  0.0539601835564047
  0.3566604907535161  0.1112618829728959  0.0556540983089099
  0.3566954766153540  0.2229832700612496  0.0560241078249125
  0.2559623200303102  0.2765430905430226  0.0537164012402954
  0.4561659882737490  0.0553873349932102  0.0570495521568159
  0.5561328422321818  0.1118824778697129  0.0593003949959384
  0.5562323494068925  0.2242465271403592  0.0604517097177407
  0.4556737214398569  0.2814703882857215  0.0584781883550359
  0.6564633797622357  0.0528353342844347  0.0596251657567585
  0.7561436175336951  0.1095127416453779  0.0582616605772689
  0.7568523931998331  0.2214300094919574  0.0581564545858978
  0.6577538139334282  0.2798895790522782  0.0614634837845808
  0.8550906589964756  0.0527643351950132  0.0565504735295256
  0.9555875137348854  0.1088570848040707  0.0545561410378877
  0.9564449543101029  0.2202752695873714  0.0536043051010498
  0.8571644945247633  0.2765484583763237  0.0549012583853782
  0.0576137643420873  0.3876351192179944  0.0510730765887612
  0.1566860931133723  0.4434182525637089  0.0508081140297825
  0.1566628398557285  0.5546867488784403  0.0502223956296284
  0.0568243644644523  0.6102063677963435  0.0503808157364853
  0.2559757684229431  0.3872828450271935  0.0524988915433194
  0.3555121882510666  0.4417133351500649  0.0542865609952065
  0.3573119970212213  0.5548318854127489  0.0531430987027977
  0.2561264790581299  0.6100753247691534  0.0508594543313186
  0.7615772140916824  0.4453941957285926  0.0583442782299307
  0.8596415196431215  0.3879664598884049  0.0536780434565678
  0.9584384545581853  0.4436408920824986  0.0513618326480317
  0.9575099190982094  0.5548239772282557  0.0513611545813678
  0.8572296476979925  0.6106611662411454  0.0540424459070720
  0.0557186208957572  0.7212844007255103  0.0510447556426228
  0.1547383173342736  0.7770208670595550  0.0509723404767178
  0.1555512266490971  0.8883174958842769  0.0520702873555818
  0.0557033702163565  0.9435335109202940  0.0531989646972141
  0.2543021613265171  0.7212109591691015  0.0508143015941762
  0.3527402290761882  0.7774549380373943  0.0522068829971119
  0.3550788725079760  0.8886036243660667  0.0535204220963712
  0.2555632187045170  0.9442899084913108  0.0529504294323873
  0.4514540285316800  0.7210570427220749  0.0550576643456031
  0.5548252483913363  0.8860592535842040  0.0592657841413798
  0.4555526948778592  0.9437921027083569  0.0562362904152825
  0.7557539876081378  0.8810198845714503  0.0592348585733507
  0.6563648474799694  0.9403968779842640  0.0601716502497104
  0.8565196572936151  0.7226726130788691  0.0549552454912874
  0.9559573073419900  0.7773001396682622  0.0529791158031238
  0.9559653675533060  0.8878173545608949  0.0542579074560617
  0.8547174943506300  0.9404585320304597  0.0568275405563993
  0.4565937300751740  0.6093965521888983  0.0561453788224959
  0.6631824146214664  0.3893416566197898  0.0641863616451635
  0.7580118254753337  0.5576373860815732  0.0582163244972314
  0.5503101370020277  0.7768603070421589  0.0605652390871673
  0.4524222595574899  0.3901062543173571  0.0580985115710939
  0.7576561044156509  0.7710411393595471  0.0588341515276862
  0.6362119853586981  0.6598287359373626  0.0688239085338542
  0.5622863285161047  0.4925201260769430  0.0666269604387368
  0.6258045260731080  0.5698518175462123  0.1216877838996153
  0.6349638655036284  0.6850596951402216  0.1405047171466349
 
  0.00000000E+00  0.00000000E+00  0.00000000E+00
  0.00000000E+00  0.00000000E+00  0.00000000E+00
  0.00000000E+00  0.00000000E+00  0.00000000E+00
  0.00000000E+00  0.00000000E+00  0.00000000E+00
  0.00000000E+00  0.00000000E+00  0.00000000E+00
  0.00000000E+00  0.00000000E+00  0.00000000E+00
  0.00000000E+00  0.00000000E+00  0.00000000E+00
  0.00000000E+00  0.00000000E+00  0.00000000E+00
  0.00000000E+00  0.00000000E+00  0.00000000E+00
  0.00000000E+00  0.00000000E+00  0.00000000E+00
  0.00000000E+00  0.00000000E+00  0.00000000E+00
  0.00000000E+00  0.00000000E+00  0.00000000E+00
  0.00000000E+00  0.00000000E+00  0.00000000E+00
  0.00000000E+00  0.00000000E+00  0.00000000E+00
  0.00000000E+00  0.00000000E+00  0.00000000E+00
  0.00000000E+00  0.00000000E+00  0.00000000E+00
  0.00000000E+00  0.00000000E+00  0.00000000E+00
  0.00000000E+00  0.00000000E+00  0.00000000E+00
  0.00000000E+00  0.00000000E+00  0.00000000E+00
  0.00000000E+00  0.00000000E+00  0.00000000E+00
  0.00000000E+00  0.00000000E+00  0.00000000E+00
  0.00000000E+00  0.00000000E+00  0.00000000E+00
  0.00000000E+00  0.00000000E+00  0.00000000E+00
  0.00000000E+00  0.00000000E+00  0.00000000E+00
  0.00000000E+00  0.00000000E+00  0.00000000E+00
  0.00000000E+00  0.00000000E+00  0.00000000E+00
  0.00000000E+00  0.00000000E+00  0.00000000E+00
  0.00000000E+00  0.00000000E+00  0.00000000E+00
  0.00000000E+00  0.00000000E+00  0.00000000E+00
  0.00000000E+00  0.00000000E+00  0.00000000E+00
  0.00000000E+00  0.00000000E+00  0.00000000E+00
  0.00000000E+00  0.00000000E+00  0.00000000E+00
  0.00000000E+00  0.00000000E+00  0.00000000E+00
  0.00000000E+00  0.00000000E+00  0.00000000E+00
  0.00000000E+00  0.00000000E+00  0.00000000E+00
  0.00000000E+00  0.00000000E+00  0.00000000E+00
  0.00000000E+00  0.00000000E+00  0.00000000E+00
  0.00000000E+00  0.00000000E+00  0.00000000E+00
  0.00000000E+00  0.00000000E+00  0.00000000E+00
  0.00000000E+00  0.00000000E+00  0.00000000E+00
  0.00000000E+00  0.00000000E+00  0.00000000E+00
  0.00000000E+00  0.00000000E+00  0.00000000E+00
  0.00000000E+00  0.00000000E+00  0.00000000E+00
  0.00000000E+00  0.00000000E+00  0.00000000E+00
  0.00000000E+00  0.00000000E+00  0.00000000E+00
  0.00000000E+00  0.00000000E+00  0.00000000E+00
  0.00000000E+00  0.00000000E+00  0.00000000E+00
  0.00000000E+00  0.00000000E+00  0.00000000E+00
  0.00000000E+00  0.00000000E+00  0.00000000E+00
  0.00000000E+00  0.00000000E+00  0.00000000E+00
  0.00000000E+00  0.00000000E+00  0.00000000E+00
  0.00000000E+00  0.00000000E+00  0.00000000E+00
  0.00000000E+00  0.00000000E+00  0.00000000E+00
  0.00000000E+00  0.00000000E+00  0.00000000E+00
  0.00000000E+00  0.00000000E+00  0.00000000E+00
  0.00000000E+00  0.00000000E+00  0.00000000E+00
  0.00000000E+00  0.00000000E+00  0.00000000E+00
  0.00000000E+00  0.00000000E+00  0.00000000E+00
  0.00000000E+00  0.00000000E+00  0.00000000E+00
  0.00000000E+00  0.00000000E+00  0.00000000E+00
