CONTCAR\(2)\(3)                         
   1.00000000000000     
    12.3312997818000003    0.0000000000000000    0.0000000000000000
     0.0001127485000000   12.8291997905000006    0.0000000000000000
     0.0005937186000000    0.0011528207000000   19.9943999824000009
   C    N    Fe   Ni   O    H 
    53     3     1     1     1     1
Direct
  0.0548693405635620  0.0550104133080517  0.0490016662056048
  0.1552643640697276  0.1104820693646180  0.0497224169772636
  0.1554977197219573  0.2212434838755059  0.0484554948603783
  0.0556048147110697  0.2763901824721047  0.0467073251253838
  0.2557698990577139  0.0561526517942314  0.0523764400954160
  0.3561683307041930  0.1119686999848593  0.0560676124234600
  0.3561548946823980  0.2240085073035494  0.0554282281623125
  0.2553153867075917  0.2770961981317082  0.0502687126637866
  0.4557471280241119  0.0562167966088071  0.0603528937588587
  0.5551025250944592  0.1138971630980628  0.0630393051298914
  0.5557199076935657  0.2268098280921305  0.0644858234816701
  0.4548602753960793  0.2832724673406330  0.0605761390617024
  0.6540489886310753  0.0539233336875619  0.0617952959034122
  0.7541958117033634  0.1105802214318439  0.0573925196761360
  0.7551860225440329  0.2231111102565284  0.0575984500035024
  0.6575062450650865  0.2834953989806310  0.0650095331330370
  0.8538957919014003  0.0541885522223727  0.0530377145439238
  0.9544160193113201  0.1100616999157029  0.0501543984491189
  0.9551086264271257  0.2214234777079770  0.0491563898756346
  0.8554629298300271  0.2777999083015969  0.0519108398153651
  0.0568468013045563  0.3874655879590483  0.0442777699479890
  0.1557547311267417  0.4438740528409045  0.0443780395004404
  0.1560590429695164  0.5550942292639379  0.0435340587418396
  0.0571668011864073  0.6107558174437477  0.0422630269307485
  0.2551687647231252  0.3879891853089735  0.0482668905678674
  0.3539102529679227  0.4430475276526875  0.0533166413583786
  0.3550623902616730  0.5562564865972763  0.0542890171403197
  0.2554228022464700  0.6108427697950564  0.0474004835086820
  0.7601977311891890  0.4487178715891775  0.0566145345960180
  0.8576764229723558  0.3893232207674280  0.0495618003779988
  0.9576617753208940  0.4431063164124657  0.0444360966280076
  0.9584963021758972  0.5538487041804142  0.0430736456235060
  0.8591339719330309  0.6079769676314523  0.0455563744241878
  0.0565600592980649  0.7221075959337132  0.0433020297963762
  0.1553890877133638  0.7779372589332219  0.0460114232677000
  0.1550639002359172  0.8891316003195994  0.0479997693882171
  0.0547217770649035  0.9439674175106260  0.0478003238107101
  0.2548597400579331  0.7219610060724861  0.0489377257942672
  0.3533730020212209  0.7778336566637701  0.0555263415957613
  0.3542919155161823  0.8892456529706417  0.0561853863853370
  0.2549919271389481  0.9449950862464049  0.0518006709191601
  0.4513792215937692  0.7211036632878119  0.0645809874555444
  0.5525667225338584  0.8842041285737841  0.0659497067522796
  0.4545408165871629  0.9438968389238070  0.0612857258283118
  0.7539105824661742  0.8838089421832318  0.0564578760827211
  0.6537357697802524  0.9408412367366334  0.0625739256186201
  0.8577168228550501  0.7205648941751093  0.0459070752810369
  0.9565571747071108  0.7769675175845582  0.0446662969399596
  0.9546416948135907  0.8879845364585214  0.0475974195982640
  0.8536309131286719  0.9421482693908855  0.0519652569822153
  0.6624897786463944  0.3940554447399587  0.0705294272350945
  0.7574901534826944  0.7721754836580951  0.0534453515394095
  0.4535068814135355  0.6092863889672440  0.0667920117965538
  0.4508974250288514  0.3919499247435053  0.0605162661724514
  0.7629247584794003  0.5574203733180794  0.0514662464413126
  0.5484305048051492  0.7766325112639624  0.0707109226775322
  0.6536495762599132  0.6684330361993496  0.0756553998106226
  0.5536940551151021  0.4911971008202393  0.0872538258108471
  0.6284245451602086  0.5788083129333226  0.1521269166974920
  0.5693383748789081  0.6070811870704009  0.1791501366303820
 
  0.00000000E+00  0.00000000E+00  0.00000000E+00
  0.00000000E+00  0.00000000E+00  0.00000000E+00
  0.00000000E+00  0.00000000E+00  0.00000000E+00
  0.00000000E+00  0.00000000E+00  0.00000000E+00
  0.00000000E+00  0.00000000E+00  0.00000000E+00
  0.00000000E+00  0.00000000E+00  0.00000000E+00
  0.00000000E+00  0.00000000E+00  0.00000000E+00
  0.00000000E+00  0.00000000E+00  0.00000000E+00
  0.00000000E+00  0.00000000E+00  0.00000000E+00
  0.00000000E+00  0.00000000E+00  0.00000000E+00
  0.00000000E+00  0.00000000E+00  0.00000000E+00
  0.00000000E+00  0.00000000E+00  0.00000000E+00
  0.00000000E+00  0.00000000E+00  0.00000000E+00
  0.00000000E+00  0.00000000E+00  0.00000000E+00
  0.00000000E+00  0.00000000E+00  0.00000000E+00
  0.00000000E+00  0.00000000E+00  0.00000000E+00
  0.00000000E+00  0.00000000E+00  0.00000000E+00
  0.00000000E+00  0.00000000E+00  0.00000000E+00
  0.00000000E+00  0.00000000E+00  0.00000000E+00
  0.00000000E+00  0.00000000E+00  0.00000000E+00
  0.00000000E+00  0.00000000E+00  0.00000000E+00
  0.00000000E+00  0.00000000E+00  0.00000000E+00
  0.00000000E+00  0.00000000E+00  0.00000000E+00
  0.00000000E+00  0.00000000E+00  0.00000000E+00
  0.00000000E+00  0.00000000E+00  0.00000000E+00
  0.00000000E+00  0.00000000E+00  0.00000000E+00
  0.00000000E+00  0.00000000E+00  0.00000000E+00
  0.00000000E+00  0.00000000E+00  0.00000000E+00
  0.00000000E+00  0.00000000E+00  0.00000000E+00
  0.00000000E+00  0.00000000E+00  0.00000000E+00
  0.00000000E+00  0.00000000E+00  0.00000000E+00
  0.00000000E+00  0.00000000E+00  0.00000000E+00
  0.00000000E+00  0.00000000E+00  0.00000000E+00
  0.00000000E+00  0.00000000E+00  0.00000000E+00
  0.00000000E+00  0.00000000E+00  0.00000000E+00
  0.00000000E+00  0.00000000E+00  0.00000000E+00
  0.00000000E+00  0.00000000E+00  0.00000000E+00
  0.00000000E+00  0.00000000E+00  0.00000000E+00
  0.00000000E+00  0.00000000E+00  0.00000000E+00
  0.00000000E+00  0.00000000E+00  0.00000000E+00
  0.00000000E+00  0.00000000E+00  0.00000000E+00
  0.00000000E+00  0.00000000E+00  0.00000000E+00
  0.00000000E+00  0.00000000E+00  0.00000000E+00
  0.00000000E+00  0.00000000E+00  0.00000000E+00
  0.00000000E+00  0.00000000E+00  0.00000000E+00
  0.00000000E+00  0.00000000E+00  0.00000000E+00
  0.00000000E+00  0.00000000E+00  0.00000000E+00
  0.00000000E+00  0.00000000E+00  0.00000000E+00
  0.00000000E+00  0.00000000E+00  0.00000000E+00
  0.00000000E+00  0.00000000E+00  0.00000000E+00
  0.00000000E+00  0.00000000E+00  0.00000000E+00
  0.00000000E+00  0.00000000E+00  0.00000000E+00
  0.00000000E+00  0.00000000E+00  0.00000000E+00
  0.00000000E+00  0.00000000E+00  0.00000000E+00
  0.00000000E+00  0.00000000E+00  0.00000000E+00
  0.00000000E+00  0.00000000E+00  0.00000000E+00
  0.00000000E+00  0.00000000E+00  0.00000000E+00
  0.00000000E+00  0.00000000E+00  0.00000000E+00
  0.00000000E+00  0.00000000E+00  0.00000000E+00
  0.00000000E+00  0.00000000E+00  0.00000000E+00
