CONTCAR\(2)                             
   1.00000000000000     
    12.3312997818000003    0.0000000000000000    0.0000000000000000
     0.0001127485000000   12.8291997905000006    0.0000000000000000
     0.0005937186000000    0.0011528207000000   19.9943999824000009
   C    N    Fe   Ni   O    H 
    52     4     1     1     2     2
Direct
  0.0549636270213383  0.0522714801802146  0.0453582191272916
  0.1554957112895800  0.1076604546284213  0.0450564760572491
  0.1553793105232653  0.2184755097894825  0.0433914299169377
  0.0554731268414566  0.2740103266171903  0.0436954916249774
  0.2564221250637778  0.0533632972619442  0.0474728375399881
  0.3566509990183915  0.1097640344684552  0.0511612843765003
  0.3563213973148893  0.2219894266686566  0.0490312651923853
  0.2550276664556874  0.2744842281690802  0.0434222415440982
  0.4565274109932176  0.0544837968497032  0.0569871884063050
  0.5556572721504605  0.1132205953994758  0.0609735625109925
  0.5563881107201731  0.2274670589716235  0.0611753446909377
  0.4546406550047596  0.2826337793837858  0.0536162620464060
  0.6539518233783984  0.0525517356687518  0.0620300632951065
  0.7542126165733815  0.1087280553765814  0.0580467150860857
  0.7557091066101461  0.2213105814736103  0.0591980310835845
  0.6590450306315022  0.2830297694153583  0.0649283523887168
  0.8541803194611576  0.0526324310509797  0.0523370945513914
  0.9547734803489443  0.1077182723112932  0.0483173953843836
  0.9555761821356522  0.2189190785394655  0.0483146849946956
  0.8563257300448497  0.2751367628473752  0.0537762007688444
  0.0557450690442474  0.3851266018100126  0.0411407928218563
  0.1542777397129413  0.4414811360965841  0.0381479678926014
  0.1542669666830652  0.5527411350813494  0.0367916193659128
  0.0551043528343115  0.6083780110553667  0.0377850825242152
  0.2535451644688347  0.3852286966562196  0.0404286338633535
  0.3516988825333526  0.4404710601056074  0.0441033232077229
  0.3524048940828718  0.5531188507310636  0.0467917399086792
  0.2535970942113349  0.6085801877198874  0.0399975812964521
  0.7607056164805694  0.4440022396656516  0.0625505960827953
  0.8580915700380621  0.3862435542408872  0.0530356065850520
  0.9568009956174998  0.4408945578081863  0.0448483012472973
  0.9564412687025853  0.5515908556266239  0.0429134582709560
  0.8564928038564282  0.6045882941489860  0.0503924362020012
  0.0556856014420250  0.7197119973591837  0.0384257097337472
  0.1553204222750668  0.7754544181827872  0.0401785621514613
  0.1553298259847244  0.8864439132108405  0.0429397336604116
  0.0546776174118174  0.9411670463115919  0.0437177789298889
  0.2550606151942087  0.7194621765356118  0.0426232001135817
  0.3548124906422847  0.7739369892759175  0.0508448733143727
  0.3552952261155516  0.8859825206448648  0.0521066732518472
  0.2557305017417629  0.9418892054348055  0.0470540333051132
  0.4533845636156173  0.7165872339840064  0.0613549461106025
  0.5526796559079113  0.8812196353344772  0.0658718796111363
  0.4552366434320830  0.9414469600618889  0.0584280058728670
  0.7548274299536066  0.8836987122684085  0.0585776335843571
  0.6537711028049944  0.9390905341610986  0.0641189057512325
  0.8567396338810804  0.7176660946814724  0.0485141857278690
  0.9555891314135876  0.7741841618696583  0.0419469273402194
  0.9544248041776102  0.8855677151276508  0.0447567652430164
  0.8540766089168975  0.9409299541962920  0.0509030984328832
  0.4508670994355120  0.6036846244860208  0.0613633481543784
  0.7603069128267619  0.7730276186078238  0.0611375093177834
  0.4492450948325582  0.3907849405969716  0.0502576926743949
  0.6649663492295391  0.3908869840663055  0.0712873916697237
  0.7611462390841345  0.5522884066839738  0.0615751131551924
  0.5489173230801908  0.7730797977879351  0.0717642378922127
  0.6658301516404951  0.6817932474654743  0.1046359749258886
  0.5492748113845732  0.4921944254107604  0.0809506053600076
  0.5968498173898029  0.5673985685450155  0.1567591972487997
  0.7390970995682262  0.7181074076297163  0.1829273921977223
  0.7200100720501732  0.6631938934203276  0.2147341152873413
  0.5311629097200765  0.5927850268412778  0.1785572511261768
 
  0.00000000E+00  0.00000000E+00  0.00000000E+00
  0.00000000E+00  0.00000000E+00  0.00000000E+00
  0.00000000E+00  0.00000000E+00  0.00000000E+00
  0.00000000E+00  0.00000000E+00  0.00000000E+00
  0.00000000E+00  0.00000000E+00  0.00000000E+00
  0.00000000E+00  0.00000000E+00  0.00000000E+00
  0.00000000E+00  0.00000000E+00  0.00000000E+00
  0.00000000E+00  0.00000000E+00  0.00000000E+00
  0.00000000E+00  0.00000000E+00  0.00000000E+00
  0.00000000E+00  0.00000000E+00  0.00000000E+00
  0.00000000E+00  0.00000000E+00  0.00000000E+00
  0.00000000E+00  0.00000000E+00  0.00000000E+00
  0.00000000E+00  0.00000000E+00  0.00000000E+00
  0.00000000E+00  0.00000000E+00  0.00000000E+00
  0.00000000E+00  0.00000000E+00  0.00000000E+00
  0.00000000E+00  0.00000000E+00  0.00000000E+00
  0.00000000E+00  0.00000000E+00  0.00000000E+00
  0.00000000E+00  0.00000000E+00  0.00000000E+00
  0.00000000E+00  0.00000000E+00  0.00000000E+00
  0.00000000E+00  0.00000000E+00  0.00000000E+00
  0.00000000E+00  0.00000000E+00  0.00000000E+00
  0.00000000E+00  0.00000000E+00  0.00000000E+00
  0.00000000E+00  0.00000000E+00  0.00000000E+00
  0.00000000E+00  0.00000000E+00  0.00000000E+00
  0.00000000E+00  0.00000000E+00  0.00000000E+00
  0.00000000E+00  0.00000000E+00  0.00000000E+00
  0.00000000E+00  0.00000000E+00  0.00000000E+00
  0.00000000E+00  0.00000000E+00  0.00000000E+00
  0.00000000E+00  0.00000000E+00  0.00000000E+00
  0.00000000E+00  0.00000000E+00  0.00000000E+00
  0.00000000E+00  0.00000000E+00  0.00000000E+00
  0.00000000E+00  0.00000000E+00  0.00000000E+00
  0.00000000E+00  0.00000000E+00  0.00000000E+00
  0.00000000E+00  0.00000000E+00  0.00000000E+00
  0.00000000E+00  0.00000000E+00  0.00000000E+00
  0.00000000E+00  0.00000000E+00  0.00000000E+00
  0.00000000E+00  0.00000000E+00  0.00000000E+00
  0.00000000E+00  0.00000000E+00  0.00000000E+00
  0.00000000E+00  0.00000000E+00  0.00000000E+00
  0.00000000E+00  0.00000000E+00  0.00000000E+00
  0.00000000E+00  0.00000000E+00  0.00000000E+00
  0.00000000E+00  0.00000000E+00  0.00000000E+00
  0.00000000E+00  0.00000000E+00  0.00000000E+00
  0.00000000E+00  0.00000000E+00  0.00000000E+00
  0.00000000E+00  0.00000000E+00  0.00000000E+00
  0.00000000E+00  0.00000000E+00  0.00000000E+00
  0.00000000E+00  0.00000000E+00  0.00000000E+00
  0.00000000E+00  0.00000000E+00  0.00000000E+00
  0.00000000E+00  0.00000000E+00  0.00000000E+00
  0.00000000E+00  0.00000000E+00  0.00000000E+00
  0.00000000E+00  0.00000000E+00  0.00000000E+00
  0.00000000E+00  0.00000000E+00  0.00000000E+00
  0.00000000E+00  0.00000000E+00  0.00000000E+00
  0.00000000E+00  0.00000000E+00  0.00000000E+00
  0.00000000E+00  0.00000000E+00  0.00000000E+00
  0.00000000E+00  0.00000000E+00  0.00000000E+00
  0.00000000E+00  0.00000000E+00  0.00000000E+00
  0.00000000E+00  0.00000000E+00  0.00000000E+00
  0.00000000E+00  0.00000000E+00  0.00000000E+00
  0.00000000E+00  0.00000000E+00  0.00000000E+00
  0.00000000E+00  0.00000000E+00  0.00000000E+00
  0.00000000E+00  0.00000000E+00  0.00000000E+00
