CONTCAR                                 
   1.00000000000000     
    12.3312997818000003    0.0000000000000000    0.0000000000000000
     0.0001127485000000   12.8291997905000006    0.0000000000000000
     0.0005937186000000    0.0011528207000000   19.9943999824000009
   C    N    Fe   Ni
    55     1     1     1
Direct
  0.0565331151335485  0.0546531217996076  0.0557891537858650
  0.1564564517783785  0.1106196236490652  0.0557982163847580
  0.1572412371172026  0.2217133611662332  0.0557792031563320
  0.0574248818054080  0.2762123259338535  0.0557525207445266
  0.2563275736264231  0.0557507619305753  0.0558051923784593
  0.3564953731440115  0.1119580356219614  0.0557756617235502
  0.3575901031805045  0.2239656214637903  0.0557437849788269
  0.2572389159925693  0.2782506850669558  0.0557673615226087
  0.4554082707350441  0.0555711662128015  0.0557505917455587
  0.5557206668063434  0.1113855476337065  0.0557185601798301
  0.5564100804257448  0.2219739026429838  0.0557011897519936
  0.4577659436154761  0.2813053142881650  0.0556942964354481
  0.6556667321189059  0.0536225363769153  0.0556935802412223
  0.7564546977154468  0.1090700106057827  0.0556981600803416
  0.7574796606048889  0.2200609471999810  0.0556898394493109
  0.6577376281421562  0.2767447404698163  0.0556760025533025
  0.8561577319809071  0.0537090633581927  0.0557157923983935
  0.9566668155743042  0.1092584131470898  0.0557444891368436
  0.9576580960957416  0.2198742399057429  0.0557242672327136
  0.8580202842124842  0.2747535253633150  0.0556916873489876
  0.0579549606575910  0.3874488327675128  0.0557457100522687
  0.1567633266535492  0.4436560768393487  0.0557700133431269
  0.1555461831534737  0.5548668363078053  0.0557726410262563
  0.0556981218717897  0.6096935242208754  0.0557599427375817
  0.2569601561665415  0.3893484334116480  0.0557620089750743
  0.3569289723181169  0.4456352165369104  0.0557185655378769
  0.3559316546546006  0.5587453452463685  0.0557071846951656
  0.2548899951326900  0.6117332165020843  0.0557628928016923
  0.7606084392950525  0.4401772039681556  0.0556317147612040
  0.8600480799054526  0.3852549538563982  0.0556726218011499
  0.9581522508736692  0.4422233290906749  0.0557064450321020
  0.9558543445493909  0.5532706003818814  0.0557127165323894
  0.8545933238233064  0.6071495860728815  0.0556653318220551
  0.0553611478641659  0.7211985367458840  0.0557756217549133
  0.1541206587119401  0.7775679345698113  0.0558020934181715
  0.1551851035593186  0.8887866085209674  0.0558155739115349
  0.0555811253224263  0.9436602192770481  0.0557949606653118
  0.2534760128005378  0.7223692512716660  0.0557777419548960
  0.3526802165419384  0.7773163648091147  0.0557441250043484
  0.3547520147961405  0.8887395720684899  0.0557724552308557
  0.2552732373402037  0.9445458857825351  0.0558130977569803
  0.4510074268737214  0.7197671109371141  0.0556636226245129
  0.5534798885440194  0.8864718506953330  0.0556591400362823
  0.4545408311901754  0.9442220184830526  0.0557342427183912
  0.7548516903864394  0.8865338420713008  0.0556590256605104
  0.6548064166053968  0.9429167116034275  0.0556610977997309
  0.8561210013454370  0.7208235073952984  0.0556813864991790
  0.9556780538693884  0.7765497730152034  0.0557449203985834
  0.9555459137574863  0.8877255949283739  0.0557551890507903
  0.8554180293652746  0.9425661244397261  0.0557121638405051
  0.4568749245903740  0.3931414020422074  0.0556685094699305
  0.6616460765479724  0.3852791605142643  0.0556363308895859
  0.7547801136716543  0.5507826213725671  0.0556228534663426
  0.5498762345898097  0.7770063539375311  0.0556187759723338
  0.7576223137729698  0.7763776952766470  0.0556427878873341
  0.4522918589995505  0.6108474396057159  0.0556422246288470
  0.6521461723995070  0.6715988128938025  0.0556062801588188
  0.5678694016934331  0.4921494677038362  0.0556184418544437
 
  0.00000000E+00  0.00000000E+00  0.00000000E+00
  0.00000000E+00  0.00000000E+00  0.00000000E+00
  0.00000000E+00  0.00000000E+00  0.00000000E+00
  0.00000000E+00  0.00000000E+00  0.00000000E+00
  0.00000000E+00  0.00000000E+00  0.00000000E+00
  0.00000000E+00  0.00000000E+00  0.00000000E+00
  0.00000000E+00  0.00000000E+00  0.00000000E+00
  0.00000000E+00  0.00000000E+00  0.00000000E+00
  0.00000000E+00  0.00000000E+00  0.00000000E+00
  0.00000000E+00  0.00000000E+00  0.00000000E+00
  0.00000000E+00  0.00000000E+00  0.00000000E+00
  0.00000000E+00  0.00000000E+00  0.00000000E+00
  0.00000000E+00  0.00000000E+00  0.00000000E+00
  0.00000000E+00  0.00000000E+00  0.00000000E+00
  0.00000000E+00  0.00000000E+00  0.00000000E+00
  0.00000000E+00  0.00000000E+00  0.00000000E+00
  0.00000000E+00  0.00000000E+00  0.00000000E+00
  0.00000000E+00  0.00000000E+00  0.00000000E+00
  0.00000000E+00  0.00000000E+00  0.00000000E+00
  0.00000000E+00  0.00000000E+00  0.00000000E+00
  0.00000000E+00  0.00000000E+00  0.00000000E+00
  0.00000000E+00  0.00000000E+00  0.00000000E+00
  0.00000000E+00  0.00000000E+00  0.00000000E+00
  0.00000000E+00  0.00000000E+00  0.00000000E+00
  0.00000000E+00  0.00000000E+00  0.00000000E+00
  0.00000000E+00  0.00000000E+00  0.00000000E+00
  0.00000000E+00  0.00000000E+00  0.00000000E+00
  0.00000000E+00  0.00000000E+00  0.00000000E+00
  0.00000000E+00  0.00000000E+00  0.00000000E+00
  0.00000000E+00  0.00000000E+00  0.00000000E+00
  0.00000000E+00  0.00000000E+00  0.00000000E+00
  0.00000000E+00  0.00000000E+00  0.00000000E+00
  0.00000000E+00  0.00000000E+00  0.00000000E+00
  0.00000000E+00  0.00000000E+00  0.00000000E+00
  0.00000000E+00  0.00000000E+00  0.00000000E+00
  0.00000000E+00  0.00000000E+00  0.00000000E+00
  0.00000000E+00  0.00000000E+00  0.00000000E+00
  0.00000000E+00  0.00000000E+00  0.00000000E+00
  0.00000000E+00  0.00000000E+00  0.00000000E+00
  0.00000000E+00  0.00000000E+00  0.00000000E+00
  0.00000000E+00  0.00000000E+00  0.00000000E+00
  0.00000000E+00  0.00000000E+00  0.00000000E+00
  0.00000000E+00  0.00000000E+00  0.00000000E+00
  0.00000000E+00  0.00000000E+00  0.00000000E+00
  0.00000000E+00  0.00000000E+00  0.00000000E+00
  0.00000000E+00  0.00000000E+00  0.00000000E+00
  0.00000000E+00  0.00000000E+00  0.00000000E+00
  0.00000000E+00  0.00000000E+00  0.00000000E+00
  0.00000000E+00  0.00000000E+00  0.00000000E+00
  0.00000000E+00  0.00000000E+00  0.00000000E+00
  0.00000000E+00  0.00000000E+00  0.00000000E+00
  0.00000000E+00  0.00000000E+00  0.00000000E+00
  0.00000000E+00  0.00000000E+00  0.00000000E+00
  0.00000000E+00  0.00000000E+00  0.00000000E+00
  0.00000000E+00  0.00000000E+00  0.00000000E+00
  0.00000000E+00  0.00000000E+00  0.00000000E+00
  0.00000000E+00  0.00000000E+00  0.00000000E+00
  0.00000000E+00  0.00000000E+00  0.00000000E+00
