an6                                     
   1.00000000000000     
    12.3312997818000003    0.0000000000000000    0.0000000000000000
     0.0001127485000000   12.8291997905000006    0.0000000000000000
     0.0005937186000000    0.0011528207000000   19.9943999824000009
   C    N    Fe   Ni
    53     3     1     1
Direct
  0.0562039145678512  0.0539254442659925  0.0557717453802181
  0.1564173051739977  0.1098171161147384  0.0557878359372058
  0.1567209729989990  0.2208660825900655  0.0557737351347152
  0.0570321595791082  0.2758808174126419  0.0557484509889153
  0.2567416373899972  0.0554605798095963  0.0558012524825340
  0.3567789662837440  0.1122861945549728  0.0557710227815113
  0.3567222169752682  0.2239461393195867  0.0557382717773931
  0.2560632671900037  0.2772740352990549  0.0557633317222468
  0.4566589354538803  0.0571884754837155  0.0557334913674570
  0.5563254410929566  0.1147167050194818  0.0556850039173921
  0.5568354960386066  0.2279111137458206  0.0556552013606055
  0.4555519937101122  0.2837922177289246  0.0556696551956802
  0.6553983108632282  0.0549798496409506  0.0556893902330214
  0.7558535632452040  0.1106502596023669  0.0557048507851535
  0.7573211546354897  0.2223846853896811  0.0556971365363577
  0.6591839315194269  0.2831201042699603  0.0556569022950198
  0.8550956529804070  0.0534045751905561  0.0557160322822872
  0.9559021197239577  0.1087069942604264  0.0557384208647736
  0.9572535114275624  0.2197784228801953  0.0557271857121513
  0.8582387312461313  0.2758858439105482  0.0557049322054129
  0.0578359599766007  0.3870043011946343  0.0557409133136935
  0.1563639170050190  0.4435890990187069  0.0557681067023986
  0.1565659080032737  0.5545355309211940  0.0557797315729294
  0.0571364173573735  0.6100417693880898  0.0557670445668976
  0.2554957989918222  0.3883899791134721  0.0557599705224127
  0.3547469838318505  0.4431946645525148  0.0557188527297003
  0.3560464753510091  0.5559093641340003  0.0557231495123172
  0.2558713021912997  0.6104052465669263  0.0557659746426939
  0.7624984141571467  0.4430340078655132  0.0556636597209435
  0.8605180969437314  0.3865580262471575  0.0556939584803484
  0.9589989342059013  0.4426507945273548  0.0557156320047130
  0.9581499132829465  0.5534569972113209  0.0557144151408263
  0.8577635644847204  0.6074062807787411  0.0556742434931269
  0.0563071996894193  0.7211324251620520  0.0557784745802488
  0.1554547768604006  0.7770632291775531  0.0558004201427275
  0.1559366212965409  0.8883032661969352  0.0558077734619479
  0.0556240102704102  0.9430835098897791  0.0557879655801014
  0.2549120297561283  0.7215231157314215  0.0557763992370080
  0.3544592957485958  0.7764269895088522  0.0557436820251203
  0.3560446951046254  0.8883596848718116  0.0557688485102424
  0.2560784013457252  0.9439065757195574  0.0558038807318275
  0.4532004908279555  0.7180640832596743  0.0556751834440739
  0.5538728642751105  0.8872256278535052  0.0556784954934750
  0.4556120869884231  0.9452190054188638  0.0557345933960135
  0.7539157221435037  0.8831846028079637  0.0556511325489102
  0.6549533943104037  0.9429842782242012  0.0556678508839313
  0.8570332524962093  0.7200332755515749  0.0556778595939427
  0.9559911448967146  0.7762302051162586  0.0557367692741754
  0.9553041979249671  0.8873181079703177  0.0557429145255610
  0.8542033868931169  0.9411879058535144  0.0556958227937319
  0.7579439989068002  0.5536959117340975  0.0556469270633680
  0.5515042846661334  0.7773524650181742  0.0556454646152474
  0.7553752240324283  0.7706196644501405  0.0556338939902155
  0.4512797574730479  0.3913950415860374  0.0556562773207845
  0.4536743625140335  0.6077244363384005  0.0556661035897018
  0.6651866599067142  0.3896627998298863  0.0556428133161958
  0.6398120849577787  0.6631503646672887  0.0556157570370393
  0.5633591318362033  0.4955416580532163  0.0556352074813218
 
  0.00000000E+00  0.00000000E+00  0.00000000E+00
  0.00000000E+00  0.00000000E+00  0.00000000E+00
  0.00000000E+00  0.00000000E+00  0.00000000E+00
  0.00000000E+00  0.00000000E+00  0.00000000E+00
  0.00000000E+00  0.00000000E+00  0.00000000E+00
  0.00000000E+00  0.00000000E+00  0.00000000E+00
  0.00000000E+00  0.00000000E+00  0.00000000E+00
  0.00000000E+00  0.00000000E+00  0.00000000E+00
  0.00000000E+00  0.00000000E+00  0.00000000E+00
  0.00000000E+00  0.00000000E+00  0.00000000E+00
  0.00000000E+00  0.00000000E+00  0.00000000E+00
  0.00000000E+00  0.00000000E+00  0.00000000E+00
  0.00000000E+00  0.00000000E+00  0.00000000E+00
  0.00000000E+00  0.00000000E+00  0.00000000E+00
  0.00000000E+00  0.00000000E+00  0.00000000E+00
  0.00000000E+00  0.00000000E+00  0.00000000E+00
  0.00000000E+00  0.00000000E+00  0.00000000E+00
  0.00000000E+00  0.00000000E+00  0.00000000E+00
  0.00000000E+00  0.00000000E+00  0.00000000E+00
  0.00000000E+00  0.00000000E+00  0.00000000E+00
  0.00000000E+00  0.00000000E+00  0.00000000E+00
  0.00000000E+00  0.00000000E+00  0.00000000E+00
  0.00000000E+00  0.00000000E+00  0.00000000E+00
  0.00000000E+00  0.00000000E+00  0.00000000E+00
  0.00000000E+00  0.00000000E+00  0.00000000E+00
  0.00000000E+00  0.00000000E+00  0.00000000E+00
  0.00000000E+00  0.00000000E+00  0.00000000E+00
  0.00000000E+00  0.00000000E+00  0.00000000E+00
  0.00000000E+00  0.00000000E+00  0.00000000E+00
  0.00000000E+00  0.00000000E+00  0.00000000E+00
  0.00000000E+00  0.00000000E+00  0.00000000E+00
  0.00000000E+00  0.00000000E+00  0.00000000E+00
  0.00000000E+00  0.00000000E+00  0.00000000E+00
  0.00000000E+00  0.00000000E+00  0.00000000E+00
  0.00000000E+00  0.00000000E+00  0.00000000E+00
  0.00000000E+00  0.00000000E+00  0.00000000E+00
  0.00000000E+00  0.00000000E+00  0.00000000E+00
  0.00000000E+00  0.00000000E+00  0.00000000E+00
  0.00000000E+00  0.00000000E+00  0.00000000E+00
  0.00000000E+00  0.00000000E+00  0.00000000E+00
  0.00000000E+00  0.00000000E+00  0.00000000E+00
  0.00000000E+00  0.00000000E+00  0.00000000E+00
  0.00000000E+00  0.00000000E+00  0.00000000E+00
  0.00000000E+00  0.00000000E+00  0.00000000E+00
  0.00000000E+00  0.00000000E+00  0.00000000E+00
  0.00000000E+00  0.00000000E+00  0.00000000E+00
  0.00000000E+00  0.00000000E+00  0.00000000E+00
  0.00000000E+00  0.00000000E+00  0.00000000E+00
  0.00000000E+00  0.00000000E+00  0.00000000E+00
  0.00000000E+00  0.00000000E+00  0.00000000E+00
  0.00000000E+00  0.00000000E+00  0.00000000E+00
  0.00000000E+00  0.00000000E+00  0.00000000E+00
  0.00000000E+00  0.00000000E+00  0.00000000E+00
  0.00000000E+00  0.00000000E+00  0.00000000E+00
  0.00000000E+00  0.00000000E+00  0.00000000E+00
  0.00000000E+00  0.00000000E+00  0.00000000E+00
  0.00000000E+00  0.00000000E+00  0.00000000E+00
  0.00000000E+00  0.00000000E+00  0.00000000E+00
