CONTCAR                                 
   1.00000000000000     
    12.3312997818000003    0.0000000000000000    0.0000000000000000
     0.0001127485000000   12.8291997905000006    0.0000000000000000
     0.0005937186000000    0.0011528207000000   19.9943999824000009
   C    N    Fe   Ni   O    H 
    53     3     1     1     1     1
Direct
  0.0559670567364430  0.0558065523931682  0.0488779323587976
  0.1564747287349371  0.1109141444593339  0.0488301420230957
  0.1565637808516091  0.2218529695111585  0.0477350293178161
  0.0561451561170271  0.2768730564971037  0.0471806941737270
  0.2568989907277869  0.0556259065646684  0.0508341247657278
  0.3573437725837357  0.1111243975211991  0.0540057398065172
  0.3575339191194017  0.2231339682823549  0.0533058252834566
  0.2568182443555204  0.2775789191459730  0.0487717972013575
  0.4569941846971315  0.0545600167979014  0.0583124231011395
  0.5571511833633563  0.1111950909694817  0.0616667052560896
  0.5574042113892078  0.2235280246183018  0.0628108655276021
  0.4573408828254574  0.2807144702761470  0.0582275860529420
  0.6565988977257262  0.0521049254871323  0.0617109159744420
  0.7556086667884585  0.1102705508494987  0.0582848793839528
  0.7559935197533978  0.2228018159318157  0.0589255153223498
  0.6576524459975089  0.2820194978136716  0.0647256321083189
  0.8552785375084990  0.0544259525632333  0.0540708620649034
  0.9555200789260864  0.1105354376219032  0.0508012024064065
  0.9557783361323310  0.2219410437562375  0.0502096566961174
  0.8559466027021693  0.2781484446935015  0.0538027583888514
  0.0564168929186343  0.3880068444323718  0.0452933068639622
  0.1556666722221773  0.4438301230931197  0.0443647501525986
  0.1550237696381629  0.5549634877410421  0.0435136364604420
  0.0562345774366338  0.6111125550288258  0.0431087874402518
  0.2558199303416905  0.3887882269970562  0.0471119068712993
  0.3548390017457670  0.4450176814541450  0.0511095153646449
  0.3525684838999070  0.5577068299319297  0.0522465859923578
  0.2533802209720920  0.6118188813111022  0.0465168828025628
  0.7591531633983938  0.4491590290640073  0.0594878523483705
  0.8571011914989768  0.3898726903217587  0.0524050714424883
  0.9570400920036330  0.4439923178026024  0.0468088686790461
  0.9573521631776798  0.5551388710921383  0.0453727546833465
  0.8578996072298734  0.6096391447152827  0.0501851386222308
  0.0562424749897636  0.7221650929365239  0.0440300087845468
  0.1549311960144961  0.7786150788779352  0.0453719539118903
  0.1560057928174993  0.8894969539418651  0.0472959874083572
  0.0559694211117349  0.9448520144997442  0.0478421736065752
  0.2537838648896256  0.7225566397963771  0.0475768742139444
  0.3533533318496236  0.7764264990790322  0.0534099645155441
  0.3559231734390035  0.8878289834640173  0.0542390210472089
  0.2564316918926879  0.9443201444854673  0.0503737753875590
  0.4500903795749474  0.7168272765985600  0.0620983220948375
  0.5547226761439741  0.8822280408379998  0.0653842763088193
  0.4563868692711175  0.9423474453944818  0.0592584423036476
  0.7571929973394674  0.8833032163030212  0.0584570110024919
  0.6563393796203908  0.9391058158214957  0.0631347594581157
  0.8580256498374685  0.7226844604634315  0.0504956037102528
  0.9569021981840918  0.7777375898105767  0.0468477521655294
  0.9564604454721606  0.8888681433574317  0.0489242178448706
  0.8556446662733578  0.9424767145506693  0.0534070383463683
  0.4550755042362501  0.3921762406925777  0.0579160943617274
  0.6597451387683259  0.3934396356163133  0.0692924753918669
  0.5497503922676907  0.7713907095572401  0.0717371440141924
  0.4471807394342388  0.6087746083673327  0.0619161473885610
  0.7621118687585892  0.5582408697212713  0.0583415011630385
  0.7608623924462729  0.7745793388037941  0.0581305033048629
  0.6605917578440827  0.6733011700810813  0.0888158076748262
  0.5538561648950863  0.4910160853683049  0.0832515877876543
  0.6092403225706694  0.5832954384635907  0.1555348562141281
  0.5471905545379826  0.6122839423706758  0.1794013586513424
 
  0.00000000E+00  0.00000000E+00  0.00000000E+00
  0.00000000E+00  0.00000000E+00  0.00000000E+00
  0.00000000E+00  0.00000000E+00  0.00000000E+00
  0.00000000E+00  0.00000000E+00  0.00000000E+00
  0.00000000E+00  0.00000000E+00  0.00000000E+00
  0.00000000E+00  0.00000000E+00  0.00000000E+00
  0.00000000E+00  0.00000000E+00  0.00000000E+00
  0.00000000E+00  0.00000000E+00  0.00000000E+00
  0.00000000E+00  0.00000000E+00  0.00000000E+00
  0.00000000E+00  0.00000000E+00  0.00000000E+00
  0.00000000E+00  0.00000000E+00  0.00000000E+00
  0.00000000E+00  0.00000000E+00  0.00000000E+00
  0.00000000E+00  0.00000000E+00  0.00000000E+00
  0.00000000E+00  0.00000000E+00  0.00000000E+00
  0.00000000E+00  0.00000000E+00  0.00000000E+00
  0.00000000E+00  0.00000000E+00  0.00000000E+00
  0.00000000E+00  0.00000000E+00  0.00000000E+00
  0.00000000E+00  0.00000000E+00  0.00000000E+00
  0.00000000E+00  0.00000000E+00  0.00000000E+00
  0.00000000E+00  0.00000000E+00  0.00000000E+00
  0.00000000E+00  0.00000000E+00  0.00000000E+00
  0.00000000E+00  0.00000000E+00  0.00000000E+00
  0.00000000E+00  0.00000000E+00  0.00000000E+00
  0.00000000E+00  0.00000000E+00  0.00000000E+00
  0.00000000E+00  0.00000000E+00  0.00000000E+00
  0.00000000E+00  0.00000000E+00  0.00000000E+00
  0.00000000E+00  0.00000000E+00  0.00000000E+00
  0.00000000E+00  0.00000000E+00  0.00000000E+00
  0.00000000E+00  0.00000000E+00  0.00000000E+00
  0.00000000E+00  0.00000000E+00  0.00000000E+00
  0.00000000E+00  0.00000000E+00  0.00000000E+00
  0.00000000E+00  0.00000000E+00  0.00000000E+00
  0.00000000E+00  0.00000000E+00  0.00000000E+00
  0.00000000E+00  0.00000000E+00  0.00000000E+00
  0.00000000E+00  0.00000000E+00  0.00000000E+00
  0.00000000E+00  0.00000000E+00  0.00000000E+00
  0.00000000E+00  0.00000000E+00  0.00000000E+00
  0.00000000E+00  0.00000000E+00  0.00000000E+00
  0.00000000E+00  0.00000000E+00  0.00000000E+00
  0.00000000E+00  0.00000000E+00  0.00000000E+00
  0.00000000E+00  0.00000000E+00  0.00000000E+00
  0.00000000E+00  0.00000000E+00  0.00000000E+00
  0.00000000E+00  0.00000000E+00  0.00000000E+00
  0.00000000E+00  0.00000000E+00  0.00000000E+00
  0.00000000E+00  0.00000000E+00  0.00000000E+00
  0.00000000E+00  0.00000000E+00  0.00000000E+00
  0.00000000E+00  0.00000000E+00  0.00000000E+00
  0.00000000E+00  0.00000000E+00  0.00000000E+00
  0.00000000E+00  0.00000000E+00  0.00000000E+00
  0.00000000E+00  0.00000000E+00  0.00000000E+00
  0.00000000E+00  0.00000000E+00  0.00000000E+00
  0.00000000E+00  0.00000000E+00  0.00000000E+00
  0.00000000E+00  0.00000000E+00  0.00000000E+00
  0.00000000E+00  0.00000000E+00  0.00000000E+00
  0.00000000E+00  0.00000000E+00  0.00000000E+00
  0.00000000E+00  0.00000000E+00  0.00000000E+00
  0.00000000E+00  0.00000000E+00  0.00000000E+00
  0.00000000E+00  0.00000000E+00  0.00000000E+00
  0.00000000E+00  0.00000000E+00  0.00000000E+00
  0.00000000E+00  0.00000000E+00  0.00000000E+00
