CONTCAR\(17)                            
   1.00000000000000     
    12.3312997818000003    0.0000000000000000    0.0000000000000000
     0.0001127485000000   12.8291997905000006    0.0000000000000000
     0.0005937186000000    0.0011528207000000   19.9943999824000009
   C    N    Fe   Ni   H 
    51     5     1     1     1
Direct
  0.0555424090874867  0.0543796589683670  0.0531988581133964
  0.1561971753659213  0.1100641355380764  0.0536084362967386
  0.1562948041573529  0.2209029438492705  0.0517564129255396
  0.0561734510821091  0.2758401795751358  0.0499384264780198
  0.2567652154937955  0.0558405888703480  0.0559509716725376
  0.3570935281034744  0.1119558018326326  0.0586171729736593
  0.3566758512631469  0.2238111205927502  0.0571832276731758
  0.2559168958688757  0.2771794109116159  0.0526172017462598
  0.4573451097720693  0.0563746307242704  0.0622714396450780
  0.5565556875923622  0.1145971240846259  0.0639799507215648
  0.5574448602625868  0.2297424918798638  0.0641231536346508
  0.4551576648746505  0.2846481778237240  0.0603781295635536
  0.6542207262562166  0.0533777367923697  0.0633798576182541
  0.7541974229086347  0.1105371379123924  0.0603894566251501
  0.7555781455195882  0.2236312217956429  0.0604008990128029
  0.6587855671268470  0.2861581017260755  0.0647773060006394
  0.8542574608696347  0.0536943494680713  0.0568318804350769
  0.9549063057382523  0.1091780854355795  0.0542913853994900
  0.9558429611223698  0.2206308489094388  0.0528866555430562
  0.8566728716370314  0.2770745506813663  0.0551889902925937
  0.0571928607158508  0.3865264354085118  0.0467677555129834
  0.1560737771126322  0.4433871298070361  0.0464791438895444
  0.1564912515963335  0.5542288558269208  0.0457682390824290
  0.0581607874656989  0.6104435084968677  0.0442828550427812
  0.2550884553990236  0.3884311596173230  0.0501419373185442
  0.3538883457562365  0.4439374648354503  0.0539969188794026
  0.3539722254904592  0.5563292489302293  0.0554995414993908
  0.2552704177489918  0.6104615499698404  0.0501733003071356
  0.7621249536904950  0.4472197641202099  0.0575836472934040
  0.8591775910327617  0.3882558994589372  0.0518863212677736
  0.9587466750993868  0.4423104818758726  0.0466188176571504
  0.9597628265842860  0.5531776682423699  0.0448354797741329
  0.8614072777501881  0.6068864784242937  0.0478561935616210
  0.0573609908760013  0.7213413267095212  0.0461163907500999
  0.1560775948714876  0.7776818712200456  0.0494387228071238
  0.1559948345298744  0.8887200593959497  0.0519551417055862
  0.0554517031428786  0.9435511758879658  0.0518714648512601
  0.2547423892151061  0.7217639478565162  0.0520392278212023
  0.3534844048246904  0.7767701256533156  0.0577996012545947
  0.3553701636333378  0.8884028320088875  0.0590045581746445
  0.2561004443478034  0.9442900252940105  0.0555704816158618
  0.4509166759766955  0.7185502531249065  0.0640249581291410
  0.5529140536879141  0.8826083415408711  0.0662968240231448
  0.4560795916447250  0.9432563935221624  0.0631655419880373
  0.7546254801242651  0.8819882474094850  0.0585214700072569
  0.6535275068835527  0.9388911657992896  0.0636546498702712
  0.8593830193508578  0.7190142820149494  0.0486027612037516
  0.9576746699703879  0.7761226555849629  0.0477469422726839
  0.9553721240497152  0.8873922226418348  0.0512860432855373
  0.8541200378490051  0.9413062849677797  0.0554712896173332
  0.7589909728038854  0.7706766524251450  0.0546791360537604
  0.4504715413341565  0.3917604146148889  0.0591302062436726
  0.4507059149135960  0.6096896761895516  0.0644215269121332
  0.6655338232527757  0.3961941737848121  0.0679824177301250
  0.7643486905616161  0.5550209127115082  0.0540681471023559
  0.5475124885913084  0.7719832222265535  0.0693357462113108
  0.6520829058636241  0.6645736677610016  0.0673609116064286
  0.5556081015471764  0.4979449384454244  0.0770100101085536
  0.6140583086088046  0.5759412588231804  0.1258558591965827
 
  0.00000000E+00  0.00000000E+00  0.00000000E+00
  0.00000000E+00  0.00000000E+00  0.00000000E+00
  0.00000000E+00  0.00000000E+00  0.00000000E+00
  0.00000000E+00  0.00000000E+00  0.00000000E+00
  0.00000000E+00  0.00000000E+00  0.00000000E+00
  0.00000000E+00  0.00000000E+00  0.00000000E+00
  0.00000000E+00  0.00000000E+00  0.00000000E+00
  0.00000000E+00  0.00000000E+00  0.00000000E+00
  0.00000000E+00  0.00000000E+00  0.00000000E+00
  0.00000000E+00  0.00000000E+00  0.00000000E+00
  0.00000000E+00  0.00000000E+00  0.00000000E+00
  0.00000000E+00  0.00000000E+00  0.00000000E+00
  0.00000000E+00  0.00000000E+00  0.00000000E+00
  0.00000000E+00  0.00000000E+00  0.00000000E+00
  0.00000000E+00  0.00000000E+00  0.00000000E+00
  0.00000000E+00  0.00000000E+00  0.00000000E+00
  0.00000000E+00  0.00000000E+00  0.00000000E+00
  0.00000000E+00  0.00000000E+00  0.00000000E+00
  0.00000000E+00  0.00000000E+00  0.00000000E+00
  0.00000000E+00  0.00000000E+00  0.00000000E+00
  0.00000000E+00  0.00000000E+00  0.00000000E+00
  0.00000000E+00  0.00000000E+00  0.00000000E+00
  0.00000000E+00  0.00000000E+00  0.00000000E+00
  0.00000000E+00  0.00000000E+00  0.00000000E+00
  0.00000000E+00  0.00000000E+00  0.00000000E+00
  0.00000000E+00  0.00000000E+00  0.00000000E+00
  0.00000000E+00  0.00000000E+00  0.00000000E+00
  0.00000000E+00  0.00000000E+00  0.00000000E+00
  0.00000000E+00  0.00000000E+00  0.00000000E+00
  0.00000000E+00  0.00000000E+00  0.00000000E+00
  0.00000000E+00  0.00000000E+00  0.00000000E+00
  0.00000000E+00  0.00000000E+00  0.00000000E+00
  0.00000000E+00  0.00000000E+00  0.00000000E+00
  0.00000000E+00  0.00000000E+00  0.00000000E+00
  0.00000000E+00  0.00000000E+00  0.00000000E+00
  0.00000000E+00  0.00000000E+00  0.00000000E+00
  0.00000000E+00  0.00000000E+00  0.00000000E+00
  0.00000000E+00  0.00000000E+00  0.00000000E+00
  0.00000000E+00  0.00000000E+00  0.00000000E+00
  0.00000000E+00  0.00000000E+00  0.00000000E+00
  0.00000000E+00  0.00000000E+00  0.00000000E+00
  0.00000000E+00  0.00000000E+00  0.00000000E+00
  0.00000000E+00  0.00000000E+00  0.00000000E+00
  0.00000000E+00  0.00000000E+00  0.00000000E+00
  0.00000000E+00  0.00000000E+00  0.00000000E+00
  0.00000000E+00  0.00000000E+00  0.00000000E+00
  0.00000000E+00  0.00000000E+00  0.00000000E+00
  0.00000000E+00  0.00000000E+00  0.00000000E+00
  0.00000000E+00  0.00000000E+00  0.00000000E+00
  0.00000000E+00  0.00000000E+00  0.00000000E+00
  0.00000000E+00  0.00000000E+00  0.00000000E+00
  0.00000000E+00  0.00000000E+00  0.00000000E+00
  0.00000000E+00  0.00000000E+00  0.00000000E+00
  0.00000000E+00  0.00000000E+00  0.00000000E+00
  0.00000000E+00  0.00000000E+00  0.00000000E+00
  0.00000000E+00  0.00000000E+00  0.00000000E+00
  0.00000000E+00  0.00000000E+00  0.00000000E+00
  0.00000000E+00  0.00000000E+00  0.00000000E+00
  0.00000000E+00  0.00000000E+00  0.00000000E+00
