POSCAR\(2)                              
   1.00000000000000     
    12.3312997818000003    0.0000000000000000    0.0000000000000000
     0.0001127485000000   12.8291997905000006    0.0000000000000000
     0.0005937186000000    0.0011528207000000   19.9943999824000009
   C    N    Fe   Ni
    55     1     1     1
Direct
  0.0559027399867833  0.0541032666197324  0.0558081960271293
  0.1559753179030023  0.1101765643230358  0.0558227532695142
  0.1569456396369897  0.2210679817503602  0.0558624493235614
  0.0572142339662626  0.2758230988020665  0.0558155457296834
  0.2560966722025164  0.0558443683657801  0.0557323349261433
  0.3563437208376473  0.1120993415128610  0.0556925695351450
  0.3574166177873340  0.2235092945403171  0.0556537877824980
  0.2569493376133987  0.2773724517947188  0.0558005551971149
  0.4557727962234790  0.0564251323705486  0.0558380193339977
  0.5565567468111443  0.1119834135000643  0.0557914649612150
  0.5575849322781349  0.2228218381303656  0.0556789981757290
  0.4580307296627015  0.2807252898095976  0.0555987824120723
  0.6563578503619262  0.0539358204111424  0.0556553948414441
  0.7567072853491146  0.1094102732163281  0.0554680008301995
  0.7578509956935326  0.2207379939812626  0.0554436149190335
  0.6589758095216633  0.2787037200642487  0.0556365886528120
  0.8557042917392423  0.0527614909423858  0.0555698372696754
  0.9559905015670231  0.1088724921810892  0.0557372601276371
  0.9572485429106210  0.2200943066899443  0.0556805596435258
  0.8577935265579953  0.2758604895945218  0.0554576762551095
  0.0582182077763004  0.3870552893585312  0.0558542919085813
  0.1569425172041983  0.4435669508518964  0.0559280218201105
  0.1566308789012110  0.5550587960148485  0.0558720426403758
  0.0566835480595451  0.6100367213359740  0.0559786436202650
  0.2567413731080876  0.3884060256866292  0.0558435795766321
  0.3560739883227912  0.4444100476061840  0.0557426062445120
  0.3571985195341242  0.5575285609785064  0.0559305848723753
  0.2562007855703896  0.6115205675586781  0.0556761776510810
  0.7611450748127072  0.4443448971031941  0.0553749223601717
  0.8597970887501182  0.3870783695019589  0.0553628019151007
  0.9589360590079665  0.4421857699599009  0.0556979851945534
  0.9576828298694480  0.5530319064142010  0.0558846267921875
  0.8567841289197421  0.6061182911562927  0.0554087443005392
  0.0555182917986412  0.7212347138247367  0.0559743755119268
  0.1543249982770248  0.7775270494003516  0.0557033434781196
  0.1549626172531998  0.8886274725376173  0.0556872072096856
  0.0549047271378113  0.9430607459707960  0.0557624467438716
  0.2540681007738973  0.7225297480276314  0.0554412589315313
  0.3524988893783914  0.7786377403559245  0.0554664617859624
  0.3544738442901879  0.8896029091909594  0.0556844662827984
  0.2549115649113806  0.9448549241077512  0.0556521707555450
  0.4520522343594483  0.7223790851341911  0.0568344468532589
  0.5540835857451443  0.8888670878434367  0.0565718461919625
  0.4545438333591396  0.9455118200916404  0.0561132621870956
  0.7541907379132414  0.8834198020076324  0.0549962060461794
  0.6555860382348232  0.9430453268204163  0.0556963176416099
  0.8553602798317905  0.7191384647348465  0.0552240913183724
  0.9551657976885367  0.7754080095692065  0.0558574471074344
  0.9549162905395555  0.8865932898152211  0.0556932166833069
  0.8544286294657539  0.9407949647254139  0.0554381600939527
  0.4557357007853537  0.3914895624900326  0.0557199886747495
  0.6619191252567795  0.3880741001619025  0.0559749877866346
  0.5499521208511766  0.7803379324563064  0.0573658156577979
  0.7543211280108563  0.7712248575224798  0.0542358815753342
  0.4577625785979905  0.6107632204849617  0.0569775076565601
  0.7605074504068978  0.5534164038357738  0.0550938727338870
  0.6399409791602346  0.6677981812460535  0.0534270641749996
  0.5647871015255959  0.4915917245175493  0.0568287418076477
 
  0.00000000E+00  0.00000000E+00  0.00000000E+00
  0.00000000E+00  0.00000000E+00  0.00000000E+00
  0.00000000E+00  0.00000000E+00  0.00000000E+00
  0.00000000E+00  0.00000000E+00  0.00000000E+00
  0.00000000E+00  0.00000000E+00  0.00000000E+00
  0.00000000E+00  0.00000000E+00  0.00000000E+00
  0.00000000E+00  0.00000000E+00  0.00000000E+00
  0.00000000E+00  0.00000000E+00  0.00000000E+00
  0.00000000E+00  0.00000000E+00  0.00000000E+00
  0.00000000E+00  0.00000000E+00  0.00000000E+00
  0.00000000E+00  0.00000000E+00  0.00000000E+00
  0.00000000E+00  0.00000000E+00  0.00000000E+00
  0.00000000E+00  0.00000000E+00  0.00000000E+00
  0.00000000E+00  0.00000000E+00  0.00000000E+00
  0.00000000E+00  0.00000000E+00  0.00000000E+00
  0.00000000E+00  0.00000000E+00  0.00000000E+00
  0.00000000E+00  0.00000000E+00  0.00000000E+00
  0.00000000E+00  0.00000000E+00  0.00000000E+00
  0.00000000E+00  0.00000000E+00  0.00000000E+00
  0.00000000E+00  0.00000000E+00  0.00000000E+00
  0.00000000E+00  0.00000000E+00  0.00000000E+00
  0.00000000E+00  0.00000000E+00  0.00000000E+00
  0.00000000E+00  0.00000000E+00  0.00000000E+00
  0.00000000E+00  0.00000000E+00  0.00000000E+00
  0.00000000E+00  0.00000000E+00  0.00000000E+00
  0.00000000E+00  0.00000000E+00  0.00000000E+00
  0.00000000E+00  0.00000000E+00  0.00000000E+00
  0.00000000E+00  0.00000000E+00  0.00000000E+00
  0.00000000E+00  0.00000000E+00  0.00000000E+00
  0.00000000E+00  0.00000000E+00  0.00000000E+00
  0.00000000E+00  0.00000000E+00  0.00000000E+00
  0.00000000E+00  0.00000000E+00  0.00000000E+00
  0.00000000E+00  0.00000000E+00  0.00000000E+00
  0.00000000E+00  0.00000000E+00  0.00000000E+00
  0.00000000E+00  0.00000000E+00  0.00000000E+00
  0.00000000E+00  0.00000000E+00  0.00000000E+00
  0.00000000E+00  0.00000000E+00  0.00000000E+00
  0.00000000E+00  0.00000000E+00  0.00000000E+00
  0.00000000E+00  0.00000000E+00  0.00000000E+00
  0.00000000E+00  0.00000000E+00  0.00000000E+00
  0.00000000E+00  0.00000000E+00  0.00000000E+00
  0.00000000E+00  0.00000000E+00  0.00000000E+00
  0.00000000E+00  0.00000000E+00  0.00000000E+00
  0.00000000E+00  0.00000000E+00  0.00000000E+00
  0.00000000E+00  0.00000000E+00  0.00000000E+00
  0.00000000E+00  0.00000000E+00  0.00000000E+00
  0.00000000E+00  0.00000000E+00  0.00000000E+00
  0.00000000E+00  0.00000000E+00  0.00000000E+00
  0.00000000E+00  0.00000000E+00  0.00000000E+00
  0.00000000E+00  0.00000000E+00  0.00000000E+00
  0.00000000E+00  0.00000000E+00  0.00000000E+00
  0.00000000E+00  0.00000000E+00  0.00000000E+00
  0.00000000E+00  0.00000000E+00  0.00000000E+00
  0.00000000E+00  0.00000000E+00  0.00000000E+00
  0.00000000E+00  0.00000000E+00  0.00000000E+00
  0.00000000E+00  0.00000000E+00  0.00000000E+00
  0.00000000E+00  0.00000000E+00  0.00000000E+00
  0.00000000E+00  0.00000000E+00  0.00000000E+00
