CONTCAR\(5)                             
   1.00000000000000     
    12.3312997818000003    0.0000000000000000    0.0000000000000000
     0.0001127485000000   12.8291997905000006    0.0000000000000000
     0.0005937186000000    0.0011528207000000   19.9943999824000009
   C    N    Fe   Ni   H 
    54     2     1     1     2
Direct
  0.0549106159684161  0.0538348176509843  0.0539823940704344
  0.1551638454837037  0.1098862590328178  0.0539674331630341
  0.1565844808499849  0.2207509540488845  0.0537510149475943
  0.0565352452730079  0.2752904368781012  0.0532162291521787
  0.2554210279334769  0.0555179313633653  0.0542545512420403
  0.3560140793288924  0.1110188541580562  0.0560939549486958
  0.3573656917142699  0.2226427914403981  0.0565781754763100
  0.2568774420976987  0.2768906436923910  0.0543760733694864
  0.4556086844560707  0.0548940111478330  0.0576604298015208
  0.5561240301545388  0.1106563320591516  0.0600282281846463
  0.5572401159399151  0.2223877051934041  0.0611892450697048
  0.4576448905677465  0.2799894164345375  0.0593902414390245
  0.6549921415821764  0.0512672019940359  0.0601790823358217
  0.7550019996826086  0.1081943688127989  0.0587070303210354
  0.7563697681302920  0.2205276755264506  0.0585490031962529
  0.6580018624990768  0.2797690865393662  0.0615935498247634
  0.8542489771037096  0.0516308368065837  0.0567273469552254
  0.9545959950767735  0.1082776888627108  0.0550472855649493
  0.9560813908244318  0.2198028322864146  0.0544628640228782
  0.8564682361132101  0.2759108095499168  0.0556187654281565
  0.0582814553253522  0.3863666174848934  0.0521526480722026
  0.1571808841577726  0.4428930192275387  0.0516136903817231
  0.1572427082852776  0.5543184859974819  0.0506138533923592
  0.0572046559034549  0.6092506165480810  0.0504678818286963
  0.2573190737801466  0.3881024420959478  0.0530599360761853
  0.3566544926645571  0.4444030554167286  0.0543493978766496
  0.3579547598146808  0.5578160456132740  0.0520707237806640
  0.2561373014000274  0.6112595378527012  0.0505448982142406
  0.7607444867287098  0.4465344560441190  0.0572144015212653
  0.8588707374740799  0.3875460099248639  0.0542179649786881
  0.9589261093530030  0.4416191728433626  0.0522732888894962
  0.9589814942271612  0.5520291331673669  0.0517017661146802
  0.8586094730042790  0.6057485372499505  0.0535161719067608
  0.0557651999520395  0.7204806177618654  0.0504525727247287
  0.1539960788484608  0.7770977359523941  0.0503707482067430
  0.1540388217468910  0.8882838198201910  0.0516734322790105
  0.0538529861487657  0.9426915483383403  0.0529941124100011
  0.2535921884737233  0.7219815858466674  0.0500872508620238
  0.3514291709047233  0.7789498989611311  0.0512199190957602
  0.3531125174401170  0.8895229371942001  0.0532245367746164
  0.2537441816602222  0.9446965520989647  0.0528445903835021
  0.4500238112385594  0.7238693158620596  0.0536697138836445
  0.5519169379087355  0.8841534564156873  0.0593325375318726
  0.4536788632217441  0.9435243177848063  0.0564613319058308
  0.7531565921650325  0.8801325242459449  0.0592880109238058
  0.6540893789069732  0.9387379125561779  0.0605709405548910
  0.8571561484936282  0.7178626034316438  0.0540917126582647
  0.9554830888097362  0.7747872834673426  0.0521253237654729
  0.9542129957983685  0.8859960369083875  0.0536815442108547
  0.8529801925997823  0.9391824863068248  0.0564878853959674
  0.4563605331339134  0.3913040441483282  0.0591726820754004
  0.4569583416422872  0.6134587688042010  0.0538631125085268
  0.6611175674492729  0.3903730526264416  0.0636053457436965
  0.7549763242559355  0.7667327179992954  0.0585808022516576
  0.7620801274764981  0.5556142453231111  0.0564418666938621
  0.5468012953312823  0.7777888590128609  0.0592740340358538
  0.6410406018660635  0.6663016157914731  0.0664052540259371
  0.5622199915063809  0.4941506650811286  0.0697249173018827
  0.6093347613893368  0.5859372330537534  0.1243600505982011
  0.6682831027330376  0.6886004272622790  0.1363762426506124
 
  0.00000000E+00  0.00000000E+00  0.00000000E+00
  0.00000000E+00  0.00000000E+00  0.00000000E+00
  0.00000000E+00  0.00000000E+00  0.00000000E+00
  0.00000000E+00  0.00000000E+00  0.00000000E+00
  0.00000000E+00  0.00000000E+00  0.00000000E+00
  0.00000000E+00  0.00000000E+00  0.00000000E+00
  0.00000000E+00  0.00000000E+00  0.00000000E+00
  0.00000000E+00  0.00000000E+00  0.00000000E+00
  0.00000000E+00  0.00000000E+00  0.00000000E+00
  0.00000000E+00  0.00000000E+00  0.00000000E+00
  0.00000000E+00  0.00000000E+00  0.00000000E+00
  0.00000000E+00  0.00000000E+00  0.00000000E+00
  0.00000000E+00  0.00000000E+00  0.00000000E+00
  0.00000000E+00  0.00000000E+00  0.00000000E+00
  0.00000000E+00  0.00000000E+00  0.00000000E+00
  0.00000000E+00  0.00000000E+00  0.00000000E+00
  0.00000000E+00  0.00000000E+00  0.00000000E+00
  0.00000000E+00  0.00000000E+00  0.00000000E+00
  0.00000000E+00  0.00000000E+00  0.00000000E+00
  0.00000000E+00  0.00000000E+00  0.00000000E+00
  0.00000000E+00  0.00000000E+00  0.00000000E+00
  0.00000000E+00  0.00000000E+00  0.00000000E+00
  0.00000000E+00  0.00000000E+00  0.00000000E+00
  0.00000000E+00  0.00000000E+00  0.00000000E+00
  0.00000000E+00  0.00000000E+00  0.00000000E+00
  0.00000000E+00  0.00000000E+00  0.00000000E+00
  0.00000000E+00  0.00000000E+00  0.00000000E+00
  0.00000000E+00  0.00000000E+00  0.00000000E+00
  0.00000000E+00  0.00000000E+00  0.00000000E+00
  0.00000000E+00  0.00000000E+00  0.00000000E+00
  0.00000000E+00  0.00000000E+00  0.00000000E+00
  0.00000000E+00  0.00000000E+00  0.00000000E+00
  0.00000000E+00  0.00000000E+00  0.00000000E+00
  0.00000000E+00  0.00000000E+00  0.00000000E+00
  0.00000000E+00  0.00000000E+00  0.00000000E+00
  0.00000000E+00  0.00000000E+00  0.00000000E+00
  0.00000000E+00  0.00000000E+00  0.00000000E+00
  0.00000000E+00  0.00000000E+00  0.00000000E+00
  0.00000000E+00  0.00000000E+00  0.00000000E+00
  0.00000000E+00  0.00000000E+00  0.00000000E+00
  0.00000000E+00  0.00000000E+00  0.00000000E+00
  0.00000000E+00  0.00000000E+00  0.00000000E+00
  0.00000000E+00  0.00000000E+00  0.00000000E+00
  0.00000000E+00  0.00000000E+00  0.00000000E+00
  0.00000000E+00  0.00000000E+00  0.00000000E+00
  0.00000000E+00  0.00000000E+00  0.00000000E+00
  0.00000000E+00  0.00000000E+00  0.00000000E+00
  0.00000000E+00  0.00000000E+00  0.00000000E+00
  0.00000000E+00  0.00000000E+00  0.00000000E+00
  0.00000000E+00  0.00000000E+00  0.00000000E+00
  0.00000000E+00  0.00000000E+00  0.00000000E+00
  0.00000000E+00  0.00000000E+00  0.00000000E+00
  0.00000000E+00  0.00000000E+00  0.00000000E+00
  0.00000000E+00  0.00000000E+00  0.00000000E+00
  0.00000000E+00  0.00000000E+00  0.00000000E+00
  0.00000000E+00  0.00000000E+00  0.00000000E+00
  0.00000000E+00  0.00000000E+00  0.00000000E+00
  0.00000000E+00  0.00000000E+00  0.00000000E+00
  0.00000000E+00  0.00000000E+00  0.00000000E+00
  0.00000000E+00  0.00000000E+00  0.00000000E+00
