CONTCAR\(4)                             
   1.00000000000000     
    12.3312997818000003    0.0000000000000000    0.0000000000000000
     0.0001127485000000   12.8291997905000006    0.0000000000000000
     0.0005937186000000    0.0011528207000000   19.9943999824000009
   C    N    Fe   Ni   H 
    54     2     1     1     2
Direct
  0.0554828073104842  0.0544254958779868  0.0552192809371309
  0.1555031776057722  0.1106071934778095  0.0550770557690989
  0.1566800965390264  0.2215444931321764  0.0549810933871829
  0.0565029895350448  0.2760639838125027  0.0543459407699291
  0.2555244992549430  0.0558329750718352  0.0547430666664011
  0.3561644290448939  0.1111431945053007  0.0554191824007412
  0.3574969389718434  0.2228656079807988  0.0561606951212667
  0.2570936047175126  0.2773938716857952  0.0553858034612810
  0.4554355188885356  0.0544742182688631  0.0554850897097411
  0.5563464995454712  0.1090803583415711  0.0568696185732510
  0.5568984672295436  0.2205429297123554  0.0576006764928530
  0.4579786006032421  0.2796687786032116  0.0573150644994759
  0.6557665665812306  0.0499223357857246  0.0573625981928007
  0.7554721969817028  0.1071081507281403  0.0568570282621449
  0.7568578512944616  0.2190725666970783  0.0563970381829057
  0.6577168661485313  0.2764024344666463  0.0577720858760049
  0.8547902879931749  0.0514318814752353  0.0563978485822126
  0.9550772645019432  0.1083627386584552  0.0555617941048385
  0.9563887388775785  0.2198256012260766  0.0547847473320480
  0.8566606369111325  0.2753523618701966  0.0548568483826337
  0.0575871168567706  0.3874330553884341  0.0534980681093938
  0.1570107512258794  0.4432016075194396  0.0534457441319322
  0.1568933827153281  0.5545632449339499  0.0525647420421801
  0.0564725179625660  0.6094402630641471  0.0524250096036190
  0.2574548239365541  0.3885509171518419  0.0547085254856842
  0.3573294979748198  0.4445553979723866  0.0555663887762546
  0.3586983874140785  0.5580868869137909  0.0542466286658753
  0.2562483497606413  0.6112873596882122  0.0525093702195567
  0.7588414748984360  0.4440119405384490  0.0562924658041094
  0.8583788761256894  0.3869994269267144  0.0540721801692416
  0.9576556262998681  0.4427474408760828  0.0531507510734292
  0.9568710134158197  0.5537567749677887  0.0530192655759376
  0.8561150234114298  0.6089865121081440  0.0546067496017606
  0.0554025986037164  0.7206012261249370  0.0527413617171954
  0.1536851738296293  0.7771730522267356  0.0524898485783747
  0.1543261744941848  0.8883695711639702  0.0534405677342258
  0.0547049864136240  0.9434063229443683  0.0546723346630609
  0.2531554989447420  0.7219279380729346  0.0519069185360642
  0.3508379655214365  0.7789690944768113  0.0520260872793617
  0.3529545350603013  0.8894520912546563  0.0529849156834038
  0.2538843561649871  0.9449243655874039  0.0535933848415784
  0.4494304202912153  0.7241749442195833  0.0535558718491917
  0.5517845097377690  0.8841029676153174  0.0562023480927253
  0.4535962984817999  0.9434778055796247  0.0543497223760328
  0.7551875666791145  0.8794296872786957  0.0581071365053245
  0.6550176423753922  0.9370730211412875  0.0579118244035858
  0.8569649404203111  0.7211117474811558  0.0553662313332382
  0.9557604882954819  0.7762876842140695  0.0541065962289035
  0.9553831846988768  0.8870016348615261  0.0552103674729614
  0.8540859063396861  0.9393455847343750  0.0566901854649446
  0.4573861569746451  0.3915259582368080  0.0577971174254220
  0.4579130259211242  0.6140544427047724  0.0553212626841161
  0.6608339005873930  0.3856616546875355  0.0588955951879118
  0.7552861744245404  0.5569123520488160  0.0567415802226579
  0.5459467560319691  0.7787540835624620  0.0564184903883680
  0.7583964451267838  0.7699960122267143  0.0580995704946029
  0.6397259929025375  0.6656329827403737  0.0661226751463164
  0.5673231600928562  0.4924839054311332  0.0616123184080215
  0.6364615047205838  0.5976158793904990  0.1289756313060857
  0.6399495923313239  0.6750120395662996  0.1415316080133759
 
  0.00000000E+00  0.00000000E+00  0.00000000E+00
  0.00000000E+00  0.00000000E+00  0.00000000E+00
  0.00000000E+00  0.00000000E+00  0.00000000E+00
  0.00000000E+00  0.00000000E+00  0.00000000E+00
  0.00000000E+00  0.00000000E+00  0.00000000E+00
  0.00000000E+00  0.00000000E+00  0.00000000E+00
  0.00000000E+00  0.00000000E+00  0.00000000E+00
  0.00000000E+00  0.00000000E+00  0.00000000E+00
  0.00000000E+00  0.00000000E+00  0.00000000E+00
  0.00000000E+00  0.00000000E+00  0.00000000E+00
  0.00000000E+00  0.00000000E+00  0.00000000E+00
  0.00000000E+00  0.00000000E+00  0.00000000E+00
  0.00000000E+00  0.00000000E+00  0.00000000E+00
  0.00000000E+00  0.00000000E+00  0.00000000E+00
  0.00000000E+00  0.00000000E+00  0.00000000E+00
  0.00000000E+00  0.00000000E+00  0.00000000E+00
  0.00000000E+00  0.00000000E+00  0.00000000E+00
  0.00000000E+00  0.00000000E+00  0.00000000E+00
  0.00000000E+00  0.00000000E+00  0.00000000E+00
  0.00000000E+00  0.00000000E+00  0.00000000E+00
  0.00000000E+00  0.00000000E+00  0.00000000E+00
  0.00000000E+00  0.00000000E+00  0.00000000E+00
  0.00000000E+00  0.00000000E+00  0.00000000E+00
  0.00000000E+00  0.00000000E+00  0.00000000E+00
  0.00000000E+00  0.00000000E+00  0.00000000E+00
  0.00000000E+00  0.00000000E+00  0.00000000E+00
  0.00000000E+00  0.00000000E+00  0.00000000E+00
  0.00000000E+00  0.00000000E+00  0.00000000E+00
  0.00000000E+00  0.00000000E+00  0.00000000E+00
  0.00000000E+00  0.00000000E+00  0.00000000E+00
  0.00000000E+00  0.00000000E+00  0.00000000E+00
  0.00000000E+00  0.00000000E+00  0.00000000E+00
  0.00000000E+00  0.00000000E+00  0.00000000E+00
  0.00000000E+00  0.00000000E+00  0.00000000E+00
  0.00000000E+00  0.00000000E+00  0.00000000E+00
  0.00000000E+00  0.00000000E+00  0.00000000E+00
  0.00000000E+00  0.00000000E+00  0.00000000E+00
  0.00000000E+00  0.00000000E+00  0.00000000E+00
  0.00000000E+00  0.00000000E+00  0.00000000E+00
  0.00000000E+00  0.00000000E+00  0.00000000E+00
  0.00000000E+00  0.00000000E+00  0.00000000E+00
  0.00000000E+00  0.00000000E+00  0.00000000E+00
  0.00000000E+00  0.00000000E+00  0.00000000E+00
  0.00000000E+00  0.00000000E+00  0.00000000E+00
  0.00000000E+00  0.00000000E+00  0.00000000E+00
  0.00000000E+00  0.00000000E+00  0.00000000E+00
  0.00000000E+00  0.00000000E+00  0.00000000E+00
  0.00000000E+00  0.00000000E+00  0.00000000E+00
  0.00000000E+00  0.00000000E+00  0.00000000E+00
  0.00000000E+00  0.00000000E+00  0.00000000E+00
  0.00000000E+00  0.00000000E+00  0.00000000E+00
  0.00000000E+00  0.00000000E+00  0.00000000E+00
  0.00000000E+00  0.00000000E+00  0.00000000E+00
  0.00000000E+00  0.00000000E+00  0.00000000E+00
  0.00000000E+00  0.00000000E+00  0.00000000E+00
  0.00000000E+00  0.00000000E+00  0.00000000E+00
  0.00000000E+00  0.00000000E+00  0.00000000E+00
  0.00000000E+00  0.00000000E+00  0.00000000E+00
  0.00000000E+00  0.00000000E+00  0.00000000E+00
  0.00000000E+00  0.00000000E+00  0.00000000E+00
