CONTCAR                                 
   1.00000000000000     
    12.3312997818000003    0.0000000000000000    0.0000000000000000
     0.0001127485000000   12.8291997905000006    0.0000000000000000
     0.0005937186000000    0.0011528207000000   19.9943999824000009
   C    N    Fe   Ni   O    H 
    53     3     1     1     1     1
Direct
  0.0557544069132404  0.0548254178916226  0.0493385415789924
  0.1560591841200445  0.1104101912040731  0.0496973860096634
  0.1561007393561308  0.2211509302563623  0.0481293740884730
  0.0562005227040733  0.2762999231710897  0.0466959826140129
  0.2566767354371765  0.0561568108030734  0.0522705664493754
  0.3568874380450723  0.1123734692781982  0.0558050154215431
  0.3566910961995815  0.2243444141267809  0.0546622034807244
  0.2556597212515153  0.2770666026176068  0.0493443444134570
  0.4566173383352838  0.0569809589337303  0.0604802022574890
  0.5560242450268500  0.1147358859612055  0.0632545074872098
  0.5565037411264768  0.2284192281404034  0.0639833544567782
  0.4551393534410940  0.2843186612222248  0.0595685722574983
  0.6546074060696496  0.0541407071900483  0.0627338962564193
  0.7548562408312376  0.1103844412001323  0.0585339291633486
  0.7564332596244995  0.2227204969357545  0.0586065413818355
  0.6591424018061084  0.2838164540704383  0.0646799224323688
  0.8546502060685470  0.0541241751258047  0.0542056037399246
  0.9552476082152932  0.1096657654533019  0.0509439311925923
  0.9562552213757279  0.2207907665646209  0.0498582471729665
  0.8568515717844671  0.2769054907897024  0.0531173096608002
  0.0567036264392847  0.3874109308738956  0.0439075000141460
  0.1554156673122169  0.4436655631534380  0.0431268686547183
  0.1559955011234497  0.5550611816686073  0.0421806570586707
  0.0570721009066751  0.6104760303420541  0.0414787961713249
  0.2545769616638300  0.3877600646946973  0.0468293073559086
  0.3528674239265159  0.4428056802345687  0.0518072029470625
  0.3542642870637602  0.5556368370021497  0.0532452487130200
  0.2551008873549775  0.6109039967404123  0.0462964446416622
  0.7597058612937470  0.4447913339266790  0.0583394501964766
  0.8582843657428073  0.3879682731873173  0.0510031972081650
  0.9574020395050598  0.4431089093248812  0.0448611849489045
  0.9582562965526586  0.5538372067119114  0.0432450835589974
  0.8587961255297374  0.6083330874994229  0.0473569249032275
  0.0571563869498468  0.7221220521296422  0.0429398345625010
  0.1559976070374758  0.7778204051048518  0.0454220225149880
  0.1558714772314846  0.8891220481141056  0.0478661175895437
  0.0556190107630165  0.9439985815721128  0.0480709348187498
  0.2554442136409855  0.7218274432542037  0.0480567752766572
  0.3543018166044494  0.7771462583896231  0.0552059124843485
  0.3552442511690754  0.8890615479463149  0.0561720257085487
  0.2558468040482976  0.9448238259442417  0.0517243245739952
  0.4525310964409664  0.7205720614950748  0.0647924886588859
  0.5527051405378575  0.8846117287455967  0.0670876310313051
  0.4550362622314998  0.9444192355703022  0.0615697762527237
  0.7546915838949229  0.8839084673230018  0.0582834910633537
  0.6542112220616368  0.9409477174362002  0.0640771008181634
  0.8590623756492437  0.7213609975152266  0.0477395684977931
  0.9573990599295208  0.7775343672095602  0.0453485592552808
  0.9554507859357716  0.8883570235296625  0.0483851648706847
  0.8544258196254977  0.9422549138637482  0.0532703348715743
  0.4530728859845483  0.6073922838960416  0.0652351349337574
  0.7593813072133468  0.5564520226837980  0.0557632644481627
  0.7591700975618814  0.7725182954271171  0.0559757524095171
  0.4497511876890780  0.3927090433736111  0.0590339265967653
  0.6643483868800627  0.3905259449680575  0.0687061377203469
  0.5481866111445628  0.7772824068764932  0.0726848815131788
  0.6553804968461369  0.6679508837467555  0.0827027712183957
  0.5551636040280460  0.4952427135391855  0.0817094249602802
  0.6135447994763208  0.5803115646381086  0.1563060594010318
  0.5504361782776779  0.6092662694111545  0.1793633070616913
 
  0.00000000E+00  0.00000000E+00  0.00000000E+00
  0.00000000E+00  0.00000000E+00  0.00000000E+00
  0.00000000E+00  0.00000000E+00  0.00000000E+00
  0.00000000E+00  0.00000000E+00  0.00000000E+00
  0.00000000E+00  0.00000000E+00  0.00000000E+00
  0.00000000E+00  0.00000000E+00  0.00000000E+00
  0.00000000E+00  0.00000000E+00  0.00000000E+00
  0.00000000E+00  0.00000000E+00  0.00000000E+00
  0.00000000E+00  0.00000000E+00  0.00000000E+00
  0.00000000E+00  0.00000000E+00  0.00000000E+00
  0.00000000E+00  0.00000000E+00  0.00000000E+00
  0.00000000E+00  0.00000000E+00  0.00000000E+00
  0.00000000E+00  0.00000000E+00  0.00000000E+00
  0.00000000E+00  0.00000000E+00  0.00000000E+00
  0.00000000E+00  0.00000000E+00  0.00000000E+00
  0.00000000E+00  0.00000000E+00  0.00000000E+00
  0.00000000E+00  0.00000000E+00  0.00000000E+00
  0.00000000E+00  0.00000000E+00  0.00000000E+00
  0.00000000E+00  0.00000000E+00  0.00000000E+00
  0.00000000E+00  0.00000000E+00  0.00000000E+00
  0.00000000E+00  0.00000000E+00  0.00000000E+00
  0.00000000E+00  0.00000000E+00  0.00000000E+00
  0.00000000E+00  0.00000000E+00  0.00000000E+00
  0.00000000E+00  0.00000000E+00  0.00000000E+00
  0.00000000E+00  0.00000000E+00  0.00000000E+00
  0.00000000E+00  0.00000000E+00  0.00000000E+00
  0.00000000E+00  0.00000000E+00  0.00000000E+00
  0.00000000E+00  0.00000000E+00  0.00000000E+00
  0.00000000E+00  0.00000000E+00  0.00000000E+00
  0.00000000E+00  0.00000000E+00  0.00000000E+00
  0.00000000E+00  0.00000000E+00  0.00000000E+00
  0.00000000E+00  0.00000000E+00  0.00000000E+00
  0.00000000E+00  0.00000000E+00  0.00000000E+00
  0.00000000E+00  0.00000000E+00  0.00000000E+00
  0.00000000E+00  0.00000000E+00  0.00000000E+00
  0.00000000E+00  0.00000000E+00  0.00000000E+00
  0.00000000E+00  0.00000000E+00  0.00000000E+00
  0.00000000E+00  0.00000000E+00  0.00000000E+00
  0.00000000E+00  0.00000000E+00  0.00000000E+00
  0.00000000E+00  0.00000000E+00  0.00000000E+00
  0.00000000E+00  0.00000000E+00  0.00000000E+00
  0.00000000E+00  0.00000000E+00  0.00000000E+00
  0.00000000E+00  0.00000000E+00  0.00000000E+00
  0.00000000E+00  0.00000000E+00  0.00000000E+00
  0.00000000E+00  0.00000000E+00  0.00000000E+00
  0.00000000E+00  0.00000000E+00  0.00000000E+00
  0.00000000E+00  0.00000000E+00  0.00000000E+00
  0.00000000E+00  0.00000000E+00  0.00000000E+00
  0.00000000E+00  0.00000000E+00  0.00000000E+00
  0.00000000E+00  0.00000000E+00  0.00000000E+00
  0.00000000E+00  0.00000000E+00  0.00000000E+00
  0.00000000E+00  0.00000000E+00  0.00000000E+00
  0.00000000E+00  0.00000000E+00  0.00000000E+00
  0.00000000E+00  0.00000000E+00  0.00000000E+00
  0.00000000E+00  0.00000000E+00  0.00000000E+00
  0.00000000E+00  0.00000000E+00  0.00000000E+00
  0.00000000E+00  0.00000000E+00  0.00000000E+00
  0.00000000E+00  0.00000000E+00  0.00000000E+00
  0.00000000E+00  0.00000000E+00  0.00000000E+00
  0.00000000E+00  0.00000000E+00  0.00000000E+00
