26                                      
   1.00000000000000     
    12.3312997818000003    0.0000000000000000    0.0000000000000000
     0.0001127485000000   12.8291997905000006    0.0000000000000000
     0.0005937186000000    0.0011528207000000   19.9943999824000009
   C    N    Fe   Ni   O 
    54     2     1     1     1
Direct
  0.0565904932005876  0.0553088847713175  0.0524571375547688
  0.1569280939067265  0.1103017615523414  0.0513583855072338
  0.1566411788850004  0.2213342712973440  0.0499010401257583
  0.0563714187014844  0.2765363947940463  0.0497159931405347
  0.2575518770282010  0.0550454876440545  0.0522587618693898
  0.3578980108701091  0.1110183322756949  0.0544044526922889
  0.3575448594665763  0.2232386044604459  0.0534295576717026
  0.2564808712559876  0.2772364952576837  0.0497259801406529
  0.4577040480363586  0.0548029149775007  0.0578924654403867
  0.5571070284285908  0.1128037631172077  0.0613083923312423
  0.5571332011635762  0.2253660072949213  0.0618750058730628
  0.4570359003105975  0.2819136729679173  0.0570394762663251
  0.6561429401923723  0.0536402245075127  0.0627747902665648
  0.7558269192440624  0.1107316156156643  0.0607319449781371
  0.7566067131349552  0.2229927223369527  0.0603862505096285
  0.6582222741987622  0.2827112922897728  0.0638845767060731
  0.8558162430370010  0.0549551625740742  0.0578002636886627
  0.9561166939982039  0.1103816170248516  0.0542952468940515
  0.9564321448577456  0.2213101376540491  0.0530681573370985
  0.8566007638250333  0.2774419052449826  0.0560188381413623
  0.0557167295240423  0.3877287381123701  0.0476225198711526
  0.1544470942509213  0.4434673996621590  0.0460815930501625
  0.1540917705316233  0.5549087369564294  0.0455637132082900
  0.0554407984173694  0.6106250158926352  0.0466403934054336
  0.2542493014802131  0.3881806451559957  0.0475698638674399
  0.3527887500961397  0.4446716641244135  0.0493442753434703
  0.3519383104504217  0.5569614425490287  0.0491081874182292
  0.2530833597824518  0.6116310522729239  0.0465447138897311
  0.7572319149074543  0.4452273430626915  0.0600037232613400
  0.8567948297701817  0.3886494939150857  0.0543833678296082
  0.9560482213041808  0.4437292483476092  0.0492329434204982
  0.9559351785412683  0.5544403599657308  0.0486000234755568
  0.8563392610423352  0.6095367453512633  0.0535276845298384
  0.0563637559600951  0.7222628680438953  0.0480475867558801
  0.1555104061903755  0.7780524640901354  0.0482837801554974
  0.1565479011790190  0.8891492042723707  0.0502581378281460
  0.0565634271939758  0.9444220765182398  0.0520890073887199
  0.2548274557803589  0.7220857483279621  0.0481161240771519
  0.3557776796468369  0.7749317450443771  0.0514735640869209
  0.3574580315386864  0.8869129833492464  0.0532167219590282
  0.2573524542234784  0.9436379787223734  0.0515578514253937
  0.4539757937595852  0.7145446877640946  0.0550789502773539
  0.5564396190872272  0.8818171476323676  0.0618139698024804
  0.4576379889600613  0.9417328974911018  0.0575631135019134
  0.7567223998336768  0.8856027446388068  0.0644182370093652
  0.6561003170283547  0.9414664650140759  0.0642661686824344
  0.8579154693334479  0.7224138727008513  0.0571341441837723
  0.9568953118696454  0.7779474662302815  0.0520746441070210
  0.9565130623786381  0.8889215934021837  0.0542879615812798
  0.8559631736245619  0.9433275979926978  0.0586794843509738
  0.4527333630888659  0.3931490290923857  0.0547479145964042
  0.7567944198894430  0.5572734618679323  0.0593186978513923
  0.5544971005923872  0.7694982438672474  0.0621968593593666
  0.7591639586150477  0.7745913723669824  0.0677034331451564
  0.4488793522686214  0.6057811577598249  0.0542131571151324
  0.6614730174554254  0.3899946497550072  0.0665540126081106
  0.6560125875550443  0.6690942879249121  0.0959414040888495
  0.5559202077390628  0.4937214740946037  0.0740698549227150
  0.6126546643675493  0.5754875510093658  0.1484055074338674
 
  0.00000000E+00  0.00000000E+00  0.00000000E+00
  0.00000000E+00  0.00000000E+00  0.00000000E+00
  0.00000000E+00  0.00000000E+00  0.00000000E+00
  0.00000000E+00  0.00000000E+00  0.00000000E+00
  0.00000000E+00  0.00000000E+00  0.00000000E+00
  0.00000000E+00  0.00000000E+00  0.00000000E+00
  0.00000000E+00  0.00000000E+00  0.00000000E+00
  0.00000000E+00  0.00000000E+00  0.00000000E+00
  0.00000000E+00  0.00000000E+00  0.00000000E+00
  0.00000000E+00  0.00000000E+00  0.00000000E+00
  0.00000000E+00  0.00000000E+00  0.00000000E+00
  0.00000000E+00  0.00000000E+00  0.00000000E+00
  0.00000000E+00  0.00000000E+00  0.00000000E+00
  0.00000000E+00  0.00000000E+00  0.00000000E+00
  0.00000000E+00  0.00000000E+00  0.00000000E+00
  0.00000000E+00  0.00000000E+00  0.00000000E+00
  0.00000000E+00  0.00000000E+00  0.00000000E+00
  0.00000000E+00  0.00000000E+00  0.00000000E+00
  0.00000000E+00  0.00000000E+00  0.00000000E+00
  0.00000000E+00  0.00000000E+00  0.00000000E+00
  0.00000000E+00  0.00000000E+00  0.00000000E+00
  0.00000000E+00  0.00000000E+00  0.00000000E+00
  0.00000000E+00  0.00000000E+00  0.00000000E+00
  0.00000000E+00  0.00000000E+00  0.00000000E+00
  0.00000000E+00  0.00000000E+00  0.00000000E+00
  0.00000000E+00  0.00000000E+00  0.00000000E+00
  0.00000000E+00  0.00000000E+00  0.00000000E+00
  0.00000000E+00  0.00000000E+00  0.00000000E+00
  0.00000000E+00  0.00000000E+00  0.00000000E+00
  0.00000000E+00  0.00000000E+00  0.00000000E+00
  0.00000000E+00  0.00000000E+00  0.00000000E+00
  0.00000000E+00  0.00000000E+00  0.00000000E+00
  0.00000000E+00  0.00000000E+00  0.00000000E+00
  0.00000000E+00  0.00000000E+00  0.00000000E+00
  0.00000000E+00  0.00000000E+00  0.00000000E+00
  0.00000000E+00  0.00000000E+00  0.00000000E+00
  0.00000000E+00  0.00000000E+00  0.00000000E+00
  0.00000000E+00  0.00000000E+00  0.00000000E+00
  0.00000000E+00  0.00000000E+00  0.00000000E+00
  0.00000000E+00  0.00000000E+00  0.00000000E+00
  0.00000000E+00  0.00000000E+00  0.00000000E+00
  0.00000000E+00  0.00000000E+00  0.00000000E+00
  0.00000000E+00  0.00000000E+00  0.00000000E+00
  0.00000000E+00  0.00000000E+00  0.00000000E+00
  0.00000000E+00  0.00000000E+00  0.00000000E+00
  0.00000000E+00  0.00000000E+00  0.00000000E+00
  0.00000000E+00  0.00000000E+00  0.00000000E+00
  0.00000000E+00  0.00000000E+00  0.00000000E+00
  0.00000000E+00  0.00000000E+00  0.00000000E+00
  0.00000000E+00  0.00000000E+00  0.00000000E+00
  0.00000000E+00  0.00000000E+00  0.00000000E+00
  0.00000000E+00  0.00000000E+00  0.00000000E+00
  0.00000000E+00  0.00000000E+00  0.00000000E+00
  0.00000000E+00  0.00000000E+00  0.00000000E+00
  0.00000000E+00  0.00000000E+00  0.00000000E+00
  0.00000000E+00  0.00000000E+00  0.00000000E+00
  0.00000000E+00  0.00000000E+00  0.00000000E+00
  0.00000000E+00  0.00000000E+00  0.00000000E+00
  0.00000000E+00  0.00000000E+00  0.00000000E+00
