CONTCAR\(2)                             
   1.00000000000000     
    12.3312997818000003    0.0000000000000000    0.0000000000000000
     0.0001127485000000   12.8291997905000006    0.0000000000000000
     0.0005937186000000    0.0011528207000000   19.9943999824000009
   C    N    Fe   Ni   H 
    52     4     1     1     1
Direct
  0.0555085224089917  0.0540875121394214  0.0513403674044817
  0.1560127265941085  0.1097875500774927  0.0522108729572896
  0.1561871366016329  0.2205038644152447  0.0507054307677817
  0.0563473025809146  0.2757218300485249  0.0489106141409306
  0.2566554156334401  0.0557408455883577  0.0552320955248979
  0.3569253475934151  0.1119053025181913  0.0581694735468281
  0.3566876146594543  0.2237249753905078  0.0570182266074709
  0.2557071757604980  0.2766001033181449  0.0523966862536116
  0.4571958550733835  0.0569077697334065  0.0618569707789186
  0.5566524721208828  0.1151312047197910  0.0630967185147050
  0.5575135979329677  0.2295498979528413  0.0635145379090303
  0.4549924940115343  0.2842914556655778  0.0605636579226448
  0.6547099206415817  0.0542605183867165  0.0616696248250216
  0.7546483383970920  0.1106156621808331  0.0578169639659533
  0.7561046578326772  0.2234557173295984  0.0579563703883783
  0.6596063975127462  0.2855143995026924  0.0633974857265116
  0.8544011277819068  0.0536222668991905  0.0541613264709988
  0.9551087205257612  0.1090254716533416  0.0518735299349944
  0.9561817983285416  0.2204746491599336  0.0508459361869728
  0.8570248527808527  0.2769624975379080  0.0530476579423770
  0.0574247007102598  0.3867351889339364  0.0470046706811910
  0.1558850042768318  0.4434711243670421  0.0477383214791855
  0.1565064925715290  0.5545899449115038  0.0476897808332639
  0.0578364039269974  0.6103391232083801  0.0460373320612763
  0.2547925115462945  0.3875040510806749  0.0509541851851377
  0.3529519647041518  0.4425147217172790  0.0556179633394926
  0.3546302563301328  0.5552124641510385  0.0581680985073934
  0.2555617489632958  0.6104390198432987  0.0523926842362256
  0.7621135829265493  0.4463588984478922  0.0565792009413714
  0.8594555830298992  0.3881325508261305  0.0506666795418434
  0.9588105962066819  0.4425046898116933  0.0467624697153655
  0.9594081896204836  0.5531995566450434  0.0460288879649267
  0.8602096831495717  0.6066099876335819  0.0484310305023598
  0.0571193073863417  0.7214264379617970  0.0473785645094765
  0.1560513909487743  0.7774521731447501  0.0505645975952287
  0.1558296754577250  0.8885155594438772  0.0519367168220253
  0.0552802394927140  0.9431175920816259  0.0507226211446011
  0.2554077273490916  0.7215793792455495  0.0538862058972496
  0.3541668116113134  0.7773091042725581  0.0597305839178123
  0.3552755949732408  0.8890338923001215  0.0597754473379434
  0.2558769197813157  0.9444171990084282  0.0555168924979966
  0.4523508485099863  0.7205051086083035  0.0673052418451499
  0.5535842198183129  0.8844803307794069  0.0666048610111051
  0.4557158089890640  0.9442103310483226  0.0633378213743044
  0.7541751369834488  0.8827188039843269  0.0563743519086996
  0.6541869146342855  0.9405534661989864  0.0622402233887870
  0.8582040867190505  0.7189271295015802  0.0486483508202987
  0.9569651129426804  0.7758780047461017  0.0479142559234864
  0.9551378513453587  0.8871426981647913  0.0500261248362483
  0.8540136383134898  0.9413590604355201  0.0531986920334190
  0.4540462108840133  0.6081775735216932  0.0685307894263719
  0.7574532895552036  0.7709064769330989  0.0531793204073450
  0.4497656880387938  0.3916950367823206  0.0601840329947476
  0.6663028279088363  0.3945893635809752  0.0672023533631215
  0.7634499845639651  0.5544945720341928  0.0536056986930377
  0.5493647672160483  0.7764133000868135  0.0717039677572730
  0.6494797006175991  0.6662284450464023  0.0692112495465723
  0.5568144268886753  0.4978192994239931  0.0793208980789016
  0.6117134623355986  0.5722448848692799  0.1281442991099574
 
  0.00000000E+00  0.00000000E+00  0.00000000E+00
  0.00000000E+00  0.00000000E+00  0.00000000E+00
  0.00000000E+00  0.00000000E+00  0.00000000E+00
  0.00000000E+00  0.00000000E+00  0.00000000E+00
  0.00000000E+00  0.00000000E+00  0.00000000E+00
  0.00000000E+00  0.00000000E+00  0.00000000E+00
  0.00000000E+00  0.00000000E+00  0.00000000E+00
  0.00000000E+00  0.00000000E+00  0.00000000E+00
  0.00000000E+00  0.00000000E+00  0.00000000E+00
  0.00000000E+00  0.00000000E+00  0.00000000E+00
  0.00000000E+00  0.00000000E+00  0.00000000E+00
  0.00000000E+00  0.00000000E+00  0.00000000E+00
  0.00000000E+00  0.00000000E+00  0.00000000E+00
  0.00000000E+00  0.00000000E+00  0.00000000E+00
  0.00000000E+00  0.00000000E+00  0.00000000E+00
  0.00000000E+00  0.00000000E+00  0.00000000E+00
  0.00000000E+00  0.00000000E+00  0.00000000E+00
  0.00000000E+00  0.00000000E+00  0.00000000E+00
  0.00000000E+00  0.00000000E+00  0.00000000E+00
  0.00000000E+00  0.00000000E+00  0.00000000E+00
  0.00000000E+00  0.00000000E+00  0.00000000E+00
  0.00000000E+00  0.00000000E+00  0.00000000E+00
  0.00000000E+00  0.00000000E+00  0.00000000E+00
  0.00000000E+00  0.00000000E+00  0.00000000E+00
  0.00000000E+00  0.00000000E+00  0.00000000E+00
  0.00000000E+00  0.00000000E+00  0.00000000E+00
  0.00000000E+00  0.00000000E+00  0.00000000E+00
  0.00000000E+00  0.00000000E+00  0.00000000E+00
  0.00000000E+00  0.00000000E+00  0.00000000E+00
  0.00000000E+00  0.00000000E+00  0.00000000E+00
  0.00000000E+00  0.00000000E+00  0.00000000E+00
  0.00000000E+00  0.00000000E+00  0.00000000E+00
  0.00000000E+00  0.00000000E+00  0.00000000E+00
  0.00000000E+00  0.00000000E+00  0.00000000E+00
  0.00000000E+00  0.00000000E+00  0.00000000E+00
  0.00000000E+00  0.00000000E+00  0.00000000E+00
  0.00000000E+00  0.00000000E+00  0.00000000E+00
  0.00000000E+00  0.00000000E+00  0.00000000E+00
  0.00000000E+00  0.00000000E+00  0.00000000E+00
  0.00000000E+00  0.00000000E+00  0.00000000E+00
  0.00000000E+00  0.00000000E+00  0.00000000E+00
  0.00000000E+00  0.00000000E+00  0.00000000E+00
  0.00000000E+00  0.00000000E+00  0.00000000E+00
  0.00000000E+00  0.00000000E+00  0.00000000E+00
  0.00000000E+00  0.00000000E+00  0.00000000E+00
  0.00000000E+00  0.00000000E+00  0.00000000E+00
  0.00000000E+00  0.00000000E+00  0.00000000E+00
  0.00000000E+00  0.00000000E+00  0.00000000E+00
  0.00000000E+00  0.00000000E+00  0.00000000E+00
  0.00000000E+00  0.00000000E+00  0.00000000E+00
  0.00000000E+00  0.00000000E+00  0.00000000E+00
  0.00000000E+00  0.00000000E+00  0.00000000E+00
  0.00000000E+00  0.00000000E+00  0.00000000E+00
  0.00000000E+00  0.00000000E+00  0.00000000E+00
  0.00000000E+00  0.00000000E+00  0.00000000E+00
  0.00000000E+00  0.00000000E+00  0.00000000E+00
  0.00000000E+00  0.00000000E+00  0.00000000E+00
  0.00000000E+00  0.00000000E+00  0.00000000E+00
  0.00000000E+00  0.00000000E+00  0.00000000E+00
