1h\(2)                                  
   1.00000000000000     
    12.3312997818000003    0.0000000000000000    0.0000000000000000
     0.0001127485000000   12.8291997905000006    0.0000000000000000
     0.0005937186000000    0.0011528207000000   19.9943999824000009
   C    N    Fe   Ni
    52     4     1     1
Direct
  0.0554927533432908  0.0537865712465790  0.0545919348005406
  0.1558887399603142  0.1098720984619842  0.0555247674146889
  0.1564683831803777  0.2206855829266154  0.0551122880491891
  0.0567077313774844  0.2757139668563681  0.0536457167952332
  0.2564852091568710  0.0559243096732285  0.0570725997208755
  0.3567841880680911  0.1122455274518857  0.0586275828676157
  0.3568905068828528  0.2239973509938374  0.0588120928941796
  0.2560467612837617  0.2770679034147777  0.0565778237986275
  0.4569803158185875  0.0572219837060263  0.0596872492159331
  0.5566975716098419  0.1148789748127092  0.0590721556281699
  0.5577400979839463  0.2289041815110942  0.0589449250863125
  0.4556213259509105  0.2842086902963084  0.0605308350179141
  0.6548165090756727  0.0542049268911874  0.0574980969489827
  0.7549388871497286  0.1100999681966174  0.0555088290377970
  0.7565911252802364  0.2226424378942305  0.0547844778026495
  0.6597223440893120  0.2841679422932063  0.0561497935759536
  0.8544666383544026  0.0528195074119778  0.0545122197377154
  0.9551821370877575  0.1085392576380705  0.0541586957268067
  0.9566235092479181  0.2200957378748830  0.0535410985893795
  0.8575066339956101  0.2764824868977803  0.0532283929566850
  0.0580930663766293  0.3868132958586629  0.0530216084732212
  0.1566230957145079  0.4436733256680322  0.0538296537693388
  0.1570057936657241  0.5545986852676769  0.0540722787507260
  0.0575891569956195  0.6100032368994462  0.0531180253589158
  0.2558131668462584  0.3880631181647874  0.0557668599987740
  0.3544463600092975  0.4431903576395821  0.0591813880013849
  0.3571728644571348  0.5561125087867389  0.0592726551127670
  0.2566817891233021  0.6104248101670404  0.0563129643784964
  0.7625111718553470  0.4452392532271293  0.0517934257802414
  0.8603198058029927  0.3876226554918356  0.0520085027412351
  0.9594894042600952  0.4423761833192823  0.0520240625091997
  0.9588521534099493  0.5529871049770725  0.0520816777532495
  0.8586620492842431  0.6060121535257027  0.0509694939744084
  0.0566569939938661  0.7209703409301830  0.0536171458181664
  0.1556416499101911  0.7771948017125779  0.0549576877800432
  0.1554720305732312  0.8882762863512040  0.0553791671015498
  0.0549086206465694  0.9426880722903161  0.0544161888777193
  0.2553124939501817  0.7216222689237598  0.0564438701527814
  0.3538303201499214  0.7779218939229514  0.0585688313681558
  0.3549371703689215  0.8894767980696789  0.0587273603799783
  0.2554289892951251  0.9446028219985894  0.0570945137436925
  0.4528230738817097  0.7218522697768853  0.0620523857316772
  0.5532308371617310  0.8859652741289810  0.0603479516545617
  0.4552352919202429  0.9450083194466206  0.0600689187639753
  0.7534418555222493  0.8816583426032681  0.0546875548909144
  0.6541527218771039  0.9408232597722521  0.0576962185143638
  0.8573580936853007  0.7179322225782006  0.0519323361581831
  0.9563196113900535  0.7750226457314339  0.0531278289000100
  0.9548243617150934  0.8863978005594750  0.0536419582028104
  0.8535841903909142  0.9403979881850403  0.0540577748114712
  0.4584897418709240  0.6096692486666681  0.0631007413131922
  0.7561626343208823  0.7691517005573161  0.0520017785397736
  0.4508728591798117  0.3914388406081116  0.0630478027610434
  0.6660836628554762  0.3927258224866236  0.0546468244609375
  0.7609637382574069  0.5536264515901717  0.0496688327135934
  0.5489809090085231  0.7786270676332604  0.0617722327828078
  0.6406449434944702  0.6664501364787928  0.0519922252013788
  0.5629420018820361  0.4971334675552549  0.0650176921100212
 
  0.00000000E+00  0.00000000E+00  0.00000000E+00
  0.00000000E+00  0.00000000E+00  0.00000000E+00
  0.00000000E+00  0.00000000E+00  0.00000000E+00
  0.00000000E+00  0.00000000E+00  0.00000000E+00
  0.00000000E+00  0.00000000E+00  0.00000000E+00
  0.00000000E+00  0.00000000E+00  0.00000000E+00
  0.00000000E+00  0.00000000E+00  0.00000000E+00
  0.00000000E+00  0.00000000E+00  0.00000000E+00
  0.00000000E+00  0.00000000E+00  0.00000000E+00
  0.00000000E+00  0.00000000E+00  0.00000000E+00
  0.00000000E+00  0.00000000E+00  0.00000000E+00
  0.00000000E+00  0.00000000E+00  0.00000000E+00
  0.00000000E+00  0.00000000E+00  0.00000000E+00
  0.00000000E+00  0.00000000E+00  0.00000000E+00
  0.00000000E+00  0.00000000E+00  0.00000000E+00
  0.00000000E+00  0.00000000E+00  0.00000000E+00
  0.00000000E+00  0.00000000E+00  0.00000000E+00
  0.00000000E+00  0.00000000E+00  0.00000000E+00
  0.00000000E+00  0.00000000E+00  0.00000000E+00
  0.00000000E+00  0.00000000E+00  0.00000000E+00
  0.00000000E+00  0.00000000E+00  0.00000000E+00
  0.00000000E+00  0.00000000E+00  0.00000000E+00
  0.00000000E+00  0.00000000E+00  0.00000000E+00
  0.00000000E+00  0.00000000E+00  0.00000000E+00
  0.00000000E+00  0.00000000E+00  0.00000000E+00
  0.00000000E+00  0.00000000E+00  0.00000000E+00
  0.00000000E+00  0.00000000E+00  0.00000000E+00
  0.00000000E+00  0.00000000E+00  0.00000000E+00
  0.00000000E+00  0.00000000E+00  0.00000000E+00
  0.00000000E+00  0.00000000E+00  0.00000000E+00
  0.00000000E+00  0.00000000E+00  0.00000000E+00
  0.00000000E+00  0.00000000E+00  0.00000000E+00
  0.00000000E+00  0.00000000E+00  0.00000000E+00
  0.00000000E+00  0.00000000E+00  0.00000000E+00
  0.00000000E+00  0.00000000E+00  0.00000000E+00
  0.00000000E+00  0.00000000E+00  0.00000000E+00
  0.00000000E+00  0.00000000E+00  0.00000000E+00
  0.00000000E+00  0.00000000E+00  0.00000000E+00
  0.00000000E+00  0.00000000E+00  0.00000000E+00
  0.00000000E+00  0.00000000E+00  0.00000000E+00
  0.00000000E+00  0.00000000E+00  0.00000000E+00
  0.00000000E+00  0.00000000E+00  0.00000000E+00
  0.00000000E+00  0.00000000E+00  0.00000000E+00
  0.00000000E+00  0.00000000E+00  0.00000000E+00
  0.00000000E+00  0.00000000E+00  0.00000000E+00
  0.00000000E+00  0.00000000E+00  0.00000000E+00
  0.00000000E+00  0.00000000E+00  0.00000000E+00
  0.00000000E+00  0.00000000E+00  0.00000000E+00
  0.00000000E+00  0.00000000E+00  0.00000000E+00
  0.00000000E+00  0.00000000E+00  0.00000000E+00
  0.00000000E+00  0.00000000E+00  0.00000000E+00
  0.00000000E+00  0.00000000E+00  0.00000000E+00
  0.00000000E+00  0.00000000E+00  0.00000000E+00
  0.00000000E+00  0.00000000E+00  0.00000000E+00
  0.00000000E+00  0.00000000E+00  0.00000000E+00
  0.00000000E+00  0.00000000E+00  0.00000000E+00
  0.00000000E+00  0.00000000E+00  0.00000000E+00
  0.00000000E+00  0.00000000E+00  0.00000000E+00
