CONTCAR                                 
   1.00000000000000     
    12.3312997818000003    0.0000000000000000    0.0000000000000000
     0.0001127485000000   12.8291997905000006    0.0000000000000000
     0.0005937186000000    0.0011528207000000   19.9943999824000009
   C    N    Fe   Ni   H 
    53     3     1     1     1
Direct
  0.0560312217627821  0.0558591178177977  0.0520044307423928
  0.1563596319330907  0.1115169521175299  0.0510454703236743
  0.1568082842447748  0.2224246931577088  0.0503550585597538
  0.0563503310670349  0.2769085171778653  0.0509947291160816
  0.2565186515412901  0.0563619019206692  0.0516427421160027
  0.3571409558105557  0.1114157347558319  0.0542883321231645
  0.3576451308930182  0.2234223096309177  0.0539269946329230
  0.2572360462966021  0.2782236956596090  0.0502644807090250
  0.4565734099333521  0.0544649355456173  0.0576700975099426
  0.5568250277267177  0.1100359756615709  0.0618265036057474
  0.5570921407240150  0.2225131846015854  0.0632424034472812
  0.4575128189020695  0.2808560465281553  0.0580749971047460
  0.6557226446139688  0.0499919177421786  0.0631544018729032
  0.7552038999150303  0.1084676711274017  0.0618431047610982
  0.7560893388957383  0.2211226200288485  0.0629697991840587
  0.6572425559896964  0.2797864335996567  0.0671696620479355
  0.8551796798650789  0.0533148362272030  0.0581784316526527
  0.9554270589297513  0.1098507963430077  0.0548274831183601
  0.9560923424042161  0.2211756242227110  0.0545472183433667
  0.8563988544471298  0.2767948014870801  0.0585130468551657
  0.0568755008677557  0.3880818947178388  0.0494506365122050
  0.1564291902714954  0.4439184331246708  0.0468477209193473
  0.1560936455021666  0.5549274019914172  0.0455526475980247
  0.0571901292149194  0.6107743280173392  0.0467953320203866
  0.2567050683872782  0.3895710484614447  0.0480875790730821
  0.3564416466868750  0.4460762299660387  0.0498493264337104
  0.3548297201551623  0.5592406443255888  0.0491223540121043
  0.2545752939864981  0.6120892025343018  0.0459965993692552
  0.7599671591789433  0.4463107471651229  0.0662916827387581
  0.8580796569433246  0.3884425991761780  0.0579172553512401
  0.9575781018719642  0.4436782462734076  0.0522637178284890
  0.9582063866110414  0.5550511474770357  0.0511392556391428
  0.8600494048448578  0.6112589983375085  0.0573502183478076
  0.0567821572910309  0.7218807170230395  0.0471332808878171
  0.1549444282883510  0.7786615655398237  0.0465315308156700
  0.1555688751387144  0.8896322902947553  0.0485652524521495
  0.0559519036727687  0.9450685167331341  0.0506970134097245
  0.2534976784236008  0.7228121722186263  0.0464334286141857
  0.3520210953454682  0.7781107808734029  0.0500301176451180
  0.3545080879184692  0.8889643185002242  0.0522420947452438
  0.2554670831250287  0.9451796597794613  0.0503598967720786
  0.4491456514841274  0.7207936812427279  0.0556617435705152
  0.5520037165837599  0.8810081748474766  0.0622678780188491
  0.4552800826939040  0.9424988743375908  0.0571343648281760
  0.7572878829740372  0.8807751272875308  0.0618305201608267
  0.6550601376956734  0.9360054724149780  0.0635999275826071
  0.8603148347749399  0.7232164393723851  0.0562214682094680
  0.9580717508917939  0.7782696096291360  0.0508663468816598
  0.9567246913023163  0.8889496572909801  0.0527269612285768
  0.8554614816986308  0.9414362865964986  0.0576351842967465
  0.4561681625627689  0.3924598226897059  0.0563768152999433
  0.6604596541660352  0.3906881379734092  0.0720473123095428
  0.7608118587025575  0.5589295030043914  0.0678249556302506
  0.4503134197464628  0.6132093362525958  0.0541501669525955
  0.5451149739883500  0.7732246960231094  0.0647052271935135
  0.7627089643167535  0.7727583313365834  0.0627473445184653
  0.6510728528342991  0.6615754411354690  0.0794978490603026
  0.5591831510598972  0.4944102744225098  0.0736099656835980
  0.6110943619020608  0.5722623882596207  0.1320296465625404
 
  0.00000000E+00  0.00000000E+00  0.00000000E+00
  0.00000000E+00  0.00000000E+00  0.00000000E+00
  0.00000000E+00  0.00000000E+00  0.00000000E+00
  0.00000000E+00  0.00000000E+00  0.00000000E+00
  0.00000000E+00  0.00000000E+00  0.00000000E+00
  0.00000000E+00  0.00000000E+00  0.00000000E+00
  0.00000000E+00  0.00000000E+00  0.00000000E+00
  0.00000000E+00  0.00000000E+00  0.00000000E+00
  0.00000000E+00  0.00000000E+00  0.00000000E+00
  0.00000000E+00  0.00000000E+00  0.00000000E+00
  0.00000000E+00  0.00000000E+00  0.00000000E+00
  0.00000000E+00  0.00000000E+00  0.00000000E+00
  0.00000000E+00  0.00000000E+00  0.00000000E+00
  0.00000000E+00  0.00000000E+00  0.00000000E+00
  0.00000000E+00  0.00000000E+00  0.00000000E+00
  0.00000000E+00  0.00000000E+00  0.00000000E+00
  0.00000000E+00  0.00000000E+00  0.00000000E+00
  0.00000000E+00  0.00000000E+00  0.00000000E+00
  0.00000000E+00  0.00000000E+00  0.00000000E+00
  0.00000000E+00  0.00000000E+00  0.00000000E+00
  0.00000000E+00  0.00000000E+00  0.00000000E+00
  0.00000000E+00  0.00000000E+00  0.00000000E+00
  0.00000000E+00  0.00000000E+00  0.00000000E+00
  0.00000000E+00  0.00000000E+00  0.00000000E+00
  0.00000000E+00  0.00000000E+00  0.00000000E+00
  0.00000000E+00  0.00000000E+00  0.00000000E+00
  0.00000000E+00  0.00000000E+00  0.00000000E+00
  0.00000000E+00  0.00000000E+00  0.00000000E+00
  0.00000000E+00  0.00000000E+00  0.00000000E+00
  0.00000000E+00  0.00000000E+00  0.00000000E+00
  0.00000000E+00  0.00000000E+00  0.00000000E+00
  0.00000000E+00  0.00000000E+00  0.00000000E+00
  0.00000000E+00  0.00000000E+00  0.00000000E+00
  0.00000000E+00  0.00000000E+00  0.00000000E+00
  0.00000000E+00  0.00000000E+00  0.00000000E+00
  0.00000000E+00  0.00000000E+00  0.00000000E+00
  0.00000000E+00  0.00000000E+00  0.00000000E+00
  0.00000000E+00  0.00000000E+00  0.00000000E+00
  0.00000000E+00  0.00000000E+00  0.00000000E+00
  0.00000000E+00  0.00000000E+00  0.00000000E+00
  0.00000000E+00  0.00000000E+00  0.00000000E+00
  0.00000000E+00  0.00000000E+00  0.00000000E+00
  0.00000000E+00  0.00000000E+00  0.00000000E+00
  0.00000000E+00  0.00000000E+00  0.00000000E+00
  0.00000000E+00  0.00000000E+00  0.00000000E+00
  0.00000000E+00  0.00000000E+00  0.00000000E+00
  0.00000000E+00  0.00000000E+00  0.00000000E+00
  0.00000000E+00  0.00000000E+00  0.00000000E+00
  0.00000000E+00  0.00000000E+00  0.00000000E+00
  0.00000000E+00  0.00000000E+00  0.00000000E+00
  0.00000000E+00  0.00000000E+00  0.00000000E+00
  0.00000000E+00  0.00000000E+00  0.00000000E+00
  0.00000000E+00  0.00000000E+00  0.00000000E+00
  0.00000000E+00  0.00000000E+00  0.00000000E+00
  0.00000000E+00  0.00000000E+00  0.00000000E+00
  0.00000000E+00  0.00000000E+00  0.00000000E+00
  0.00000000E+00  0.00000000E+00  0.00000000E+00
  0.00000000E+00  0.00000000E+00  0.00000000E+00
  0.00000000E+00  0.00000000E+00  0.00000000E+00
