CONTCAR\(4)                             
   1.00000000000000     
    12.3312997818000003    0.0000000000000000    0.0000000000000000
     0.0001127485000000   12.8291997905000006    0.0000000000000000
     0.0005937186000000    0.0011528207000000   19.9943999824000009
   C    N    Fe   Ni   H 
    52     4     1     1     2
Direct
  0.0554309898326062  0.0519657473430374  0.0539296219536032
  0.1558032949197788  0.1083650225047718  0.0536028739458043
  0.1566959985164673  0.2191019525974206  0.0534176276329362
  0.0564897951788111  0.2737844724463838  0.0535067061101520
  0.2563643554014975  0.0541108537472253  0.0534463374527721
  0.3569617754106192  0.1100658152561100  0.0532773140308262
  0.3578486827766944  0.2219388084640230  0.0530054604005433
  0.2569015773731401  0.2755177855772338  0.0531457233949756
  0.4569045765970699  0.0539307044034221  0.0534751337753737
  0.5578337272240269  0.1099443591709761  0.0542208434803628
  0.5590574437027871  0.2229054985633132  0.0541374265866835
  0.4584399228458860  0.2804679332840165  0.0529462205047765
  0.6559907393921067  0.0493445631292149  0.0550122901173677
  0.7552225084359699  0.1062713913476798  0.0550129352065793
  0.7569651719351949  0.2187520592106532  0.0548842427863378
  0.6599107691615759  0.2788354779483878  0.0549628067463527
  0.8547163498731782  0.0496889365012580  0.0547186716348973
  0.9552079367112838  0.1061036357850095  0.0542128613612142
  0.9566049954297386  0.2177492879796759  0.0540289677814303
  0.8573124364291903  0.2736785962791130  0.0544042779449741
  0.0570318431546737  0.3851670153993010  0.0532670243305008
  0.1559086768991542  0.4417302309625362  0.0530979007020384
  0.1557799843701371  0.5526659581944193  0.0529418636637017
  0.0560129640756487  0.6078529520541878  0.0530981855656008
  0.2557656651759333  0.3866235297155531  0.0530654841945440
  0.3542311086454403  0.4433673204956919  0.0523833796257298
  0.3557916054259078  0.5558479411922077  0.0521535770788058
  0.2552128257622703  0.6094990423712828  0.0526404746506784
  0.7607466465877339  0.4421771863741221  0.0551863572743888
  0.8590856100517621  0.3849439908583698  0.0542172849540220
  0.9580012525286982  0.4405789670297103  0.0535752684037876
  0.9567472467186025  0.5515979648648581  0.0535152569401850
  0.8559498179705924  0.6046844005083085  0.0545663576223144
  0.0553134499280456  0.7186789559590099  0.0532114963765117
  0.1541218681807958  0.7756125951517782  0.0531226636108994
  0.1548944003361559  0.8864216709793583  0.0534524937914098
  0.0546648514112317  0.9408628931547943  0.0539244024844379
  0.2534881868817337  0.7203659613251420  0.0526922199901662
  0.3518741294376734  0.7764831116822112  0.0525200018664686
  0.3540960567747344  0.8875725576128959  0.0530155509609181
  0.2548349490342937  0.9429174545163369  0.0533280630829547
  0.4504362803332632  0.7203310653255038  0.0520056667075774
  0.5526883624884501  0.8823116210120905  0.0541971684399470
  0.4547306609315122  0.9423752819308768  0.0532484649584838
  0.7549522166542146  0.8773705836527586  0.0557477708442568
  0.6550057121197521  0.9354873663683275  0.0553515368510645
  0.8561684877906471  0.7167928568647616  0.0548373742887309
  0.9553790344853395  0.7728764620041244  0.0538512577105305
  0.9551350093845209  0.8842785477965845  0.0542830081163210
  0.8541314709859507  0.9375438367615113  0.0548839415132413
  0.4539039962467676  0.3909063657429226  0.0520233537467407
  0.4571240126141384  0.6090772757176167  0.0512559993944689
  0.6646841958823081  0.3876631545586717  0.0555580657199925
  0.7580019982059566  0.5508399620231725  0.0558936572938416
  0.5465443770658203  0.7759089530050103  0.0544105275088803
  0.7579357861540171  0.7681800566063761  0.0569129216473340
  0.6409105665976494  0.6660056756715723  0.0610317476606339
  0.5640721918260726  0.4916174519431897  0.0531757502129055
  0.6082896119834537  0.6156162384323267  0.1520701843234225
  0.6408996047512914  0.6665427196416057  0.1603479390435730
 
  0.00000000E+00  0.00000000E+00  0.00000000E+00
  0.00000000E+00  0.00000000E+00  0.00000000E+00
  0.00000000E+00  0.00000000E+00  0.00000000E+00
  0.00000000E+00  0.00000000E+00  0.00000000E+00
  0.00000000E+00  0.00000000E+00  0.00000000E+00
  0.00000000E+00  0.00000000E+00  0.00000000E+00
  0.00000000E+00  0.00000000E+00  0.00000000E+00
  0.00000000E+00  0.00000000E+00  0.00000000E+00
  0.00000000E+00  0.00000000E+00  0.00000000E+00
  0.00000000E+00  0.00000000E+00  0.00000000E+00
  0.00000000E+00  0.00000000E+00  0.00000000E+00
  0.00000000E+00  0.00000000E+00  0.00000000E+00
  0.00000000E+00  0.00000000E+00  0.00000000E+00
  0.00000000E+00  0.00000000E+00  0.00000000E+00
  0.00000000E+00  0.00000000E+00  0.00000000E+00
  0.00000000E+00  0.00000000E+00  0.00000000E+00
  0.00000000E+00  0.00000000E+00  0.00000000E+00
  0.00000000E+00  0.00000000E+00  0.00000000E+00
  0.00000000E+00  0.00000000E+00  0.00000000E+00
  0.00000000E+00  0.00000000E+00  0.00000000E+00
  0.00000000E+00  0.00000000E+00  0.00000000E+00
  0.00000000E+00  0.00000000E+00  0.00000000E+00
  0.00000000E+00  0.00000000E+00  0.00000000E+00
  0.00000000E+00  0.00000000E+00  0.00000000E+00
  0.00000000E+00  0.00000000E+00  0.00000000E+00
  0.00000000E+00  0.00000000E+00  0.00000000E+00
  0.00000000E+00  0.00000000E+00  0.00000000E+00
  0.00000000E+00  0.00000000E+00  0.00000000E+00
  0.00000000E+00  0.00000000E+00  0.00000000E+00
  0.00000000E+00  0.00000000E+00  0.00000000E+00
  0.00000000E+00  0.00000000E+00  0.00000000E+00
  0.00000000E+00  0.00000000E+00  0.00000000E+00
  0.00000000E+00  0.00000000E+00  0.00000000E+00
  0.00000000E+00  0.00000000E+00  0.00000000E+00
  0.00000000E+00  0.00000000E+00  0.00000000E+00
  0.00000000E+00  0.00000000E+00  0.00000000E+00
  0.00000000E+00  0.00000000E+00  0.00000000E+00
  0.00000000E+00  0.00000000E+00  0.00000000E+00
  0.00000000E+00  0.00000000E+00  0.00000000E+00
  0.00000000E+00  0.00000000E+00  0.00000000E+00
  0.00000000E+00  0.00000000E+00  0.00000000E+00
  0.00000000E+00  0.00000000E+00  0.00000000E+00
  0.00000000E+00  0.00000000E+00  0.00000000E+00
  0.00000000E+00  0.00000000E+00  0.00000000E+00
  0.00000000E+00  0.00000000E+00  0.00000000E+00
  0.00000000E+00  0.00000000E+00  0.00000000E+00
  0.00000000E+00  0.00000000E+00  0.00000000E+00
  0.00000000E+00  0.00000000E+00  0.00000000E+00
  0.00000000E+00  0.00000000E+00  0.00000000E+00
  0.00000000E+00  0.00000000E+00  0.00000000E+00
  0.00000000E+00  0.00000000E+00  0.00000000E+00
  0.00000000E+00  0.00000000E+00  0.00000000E+00
  0.00000000E+00  0.00000000E+00  0.00000000E+00
  0.00000000E+00  0.00000000E+00  0.00000000E+00
  0.00000000E+00  0.00000000E+00  0.00000000E+00
  0.00000000E+00  0.00000000E+00  0.00000000E+00
  0.00000000E+00  0.00000000E+00  0.00000000E+00
  0.00000000E+00  0.00000000E+00  0.00000000E+00
  0.00000000E+00  0.00000000E+00  0.00000000E+00
  0.00000000E+00  0.00000000E+00  0.00000000E+00
