1                                       
   1.00000000000000     
    12.3312997818000003    0.0000000000000000    0.0000000000000000
     0.0001127485000000   12.8291997905000006    0.0000000000000000
     0.0005937186000000    0.0011528207000000   19.9943999824000009
   C    N    Fe   Ni   O    H 
    55     1     1     1     1     1
Direct
  0.0559290772454988  0.0548874922818890  0.0498232437319459
  0.1561420055119118  0.1101036580854372  0.0500170782329754
  0.1559534225446869  0.2208413948159979  0.0485477818082903
  0.0562516110054673  0.2763598444220154  0.0470149123113040
  0.2564917994918315  0.0554476936410922  0.0525679444689252
  0.3565697308800841  0.1115511158931387  0.0562488421956885
  0.3563323189344376  0.2232830843218051  0.0555961028556559
  0.2556534574822255  0.2764805271283444  0.0502293746580120
  0.4559476349759233  0.0560564637470619  0.0607299869559586
  0.5553943988649283  0.1134579663405766  0.0637834576614577
  0.5556256436803307  0.2253532870561141  0.0652229469327507
  0.4548967953966411  0.2820825556541363  0.0608876016180549
  0.6556556862342161  0.0548832178939167  0.0633126949349804
  0.7558468297298778  0.1109440678009562  0.0591232319371198
  0.7563514207254536  0.2226687491606484  0.0592041139546963
  0.6573824829902392  0.2811750019677076  0.0663553016387578
  0.8552334562247434  0.0543581209294162  0.0549001458530916
  0.9556172762510744  0.1100112128147870  0.0512476888672837
  0.9559763159750305  0.2211541230902213  0.0500139897535710
  0.8565278992223702  0.2774813984693422  0.0534300992942169
  0.0570518131457466  0.3875349682671793  0.0445736731600883
  0.1561316624614398  0.4434082740099219  0.0444656929171772
  0.1566564436052188  0.5548181958574923  0.0439735557103983
  0.0575373197869945  0.6104724030051747  0.0433054933445944
  0.2553331948110918  0.3870360303991844  0.0481549980506442
  0.3543704628148884  0.4415120090816426  0.0532275686979657
  0.3556613542453559  0.5545753384729921  0.0541944689884000
  0.2560952539118814  0.6101897694006189  0.0477648748115767
  0.7595024343349225  0.4466143493119911  0.0590722589350854
  0.8581014477827262  0.3886302301044788  0.0513706821919351
  0.9575567443355666  0.4433981630042045  0.0452617715724876
  0.9584871924369494  0.5542617403673271  0.0440967711467192
  0.8590556724567783  0.6095703773535346  0.0472815639132717
  0.0569783881221802  0.7220521566835253  0.0448171072928371
  0.1561820404027369  0.7773963750302300  0.0469348514476474
  0.1561680585270434  0.8887141575764176  0.0489086831285722
  0.0559830720165157  0.9440019336826145  0.0491939455975312
  0.2559192067100642  0.7213443664771774  0.0494738344110864
  0.3548347661389511  0.7766185916914667  0.0562741761564471
  0.3559226945531335  0.8882788228725979  0.0566610661215517
  0.2562423228748320  0.9442494578215175  0.0521958531716086
  0.4535632214552660  0.7190548038453923  0.0656926907088683
  0.5548455086282836  0.8866872793166317  0.0674366193380272
  0.4555752705190859  0.9442128350060812  0.0618313778641757
  0.7551265156276364  0.8850248166732601  0.0602006532927113
  0.6557000989321088  0.9434206047683803  0.0647802021359635
  0.8581103861130577  0.7221955488490264  0.0503414335725544
  0.9571403795669665  0.7778912454185861  0.0475428621973480
  0.9558693638303308  0.8885899037609821  0.0501798921629427
  0.8549808253982973  0.9426017840328678  0.0547612756191015
  0.4538142608948133  0.6065532266265715  0.0666429643968275
  0.6624373309619469  0.3903683547745032  0.0726199742039477
  0.7602225874054843  0.5575878144299874  0.0546415004425259
  0.5516213511359499  0.7773575904581687  0.0734636331260943
  0.7576818034540227  0.7733809851272849  0.0597478083088260
  0.4510520194682257  0.3905153924538077  0.0605828934036997
  0.6524941962950492  0.6660878102693586  0.0853351979324794
  0.5545661914684756  0.4887043731445568  0.0886369297606363
  0.6245081274045402  0.5725402193592953  0.1587250982011992
  0.5643396905984879  0.5975468946993532  0.1862375618997046
 
  0.00000000E+00  0.00000000E+00  0.00000000E+00
  0.00000000E+00  0.00000000E+00  0.00000000E+00
  0.00000000E+00  0.00000000E+00  0.00000000E+00
  0.00000000E+00  0.00000000E+00  0.00000000E+00
  0.00000000E+00  0.00000000E+00  0.00000000E+00
  0.00000000E+00  0.00000000E+00  0.00000000E+00
  0.00000000E+00  0.00000000E+00  0.00000000E+00
  0.00000000E+00  0.00000000E+00  0.00000000E+00
  0.00000000E+00  0.00000000E+00  0.00000000E+00
  0.00000000E+00  0.00000000E+00  0.00000000E+00
  0.00000000E+00  0.00000000E+00  0.00000000E+00
  0.00000000E+00  0.00000000E+00  0.00000000E+00
  0.00000000E+00  0.00000000E+00  0.00000000E+00
  0.00000000E+00  0.00000000E+00  0.00000000E+00
  0.00000000E+00  0.00000000E+00  0.00000000E+00
  0.00000000E+00  0.00000000E+00  0.00000000E+00
  0.00000000E+00  0.00000000E+00  0.00000000E+00
  0.00000000E+00  0.00000000E+00  0.00000000E+00
  0.00000000E+00  0.00000000E+00  0.00000000E+00
  0.00000000E+00  0.00000000E+00  0.00000000E+00
  0.00000000E+00  0.00000000E+00  0.00000000E+00
  0.00000000E+00  0.00000000E+00  0.00000000E+00
  0.00000000E+00  0.00000000E+00  0.00000000E+00
  0.00000000E+00  0.00000000E+00  0.00000000E+00
  0.00000000E+00  0.00000000E+00  0.00000000E+00
  0.00000000E+00  0.00000000E+00  0.00000000E+00
  0.00000000E+00  0.00000000E+00  0.00000000E+00
  0.00000000E+00  0.00000000E+00  0.00000000E+00
  0.00000000E+00  0.00000000E+00  0.00000000E+00
  0.00000000E+00  0.00000000E+00  0.00000000E+00
  0.00000000E+00  0.00000000E+00  0.00000000E+00
  0.00000000E+00  0.00000000E+00  0.00000000E+00
  0.00000000E+00  0.00000000E+00  0.00000000E+00
  0.00000000E+00  0.00000000E+00  0.00000000E+00
  0.00000000E+00  0.00000000E+00  0.00000000E+00
  0.00000000E+00  0.00000000E+00  0.00000000E+00
  0.00000000E+00  0.00000000E+00  0.00000000E+00
  0.00000000E+00  0.00000000E+00  0.00000000E+00
  0.00000000E+00  0.00000000E+00  0.00000000E+00
  0.00000000E+00  0.00000000E+00  0.00000000E+00
  0.00000000E+00  0.00000000E+00  0.00000000E+00
  0.00000000E+00  0.00000000E+00  0.00000000E+00
  0.00000000E+00  0.00000000E+00  0.00000000E+00
  0.00000000E+00  0.00000000E+00  0.00000000E+00
  0.00000000E+00  0.00000000E+00  0.00000000E+00
  0.00000000E+00  0.00000000E+00  0.00000000E+00
  0.00000000E+00  0.00000000E+00  0.00000000E+00
  0.00000000E+00  0.00000000E+00  0.00000000E+00
  0.00000000E+00  0.00000000E+00  0.00000000E+00
  0.00000000E+00  0.00000000E+00  0.00000000E+00
  0.00000000E+00  0.00000000E+00  0.00000000E+00
  0.00000000E+00  0.00000000E+00  0.00000000E+00
  0.00000000E+00  0.00000000E+00  0.00000000E+00
  0.00000000E+00  0.00000000E+00  0.00000000E+00
  0.00000000E+00  0.00000000E+00  0.00000000E+00
  0.00000000E+00  0.00000000E+00  0.00000000E+00
  0.00000000E+00  0.00000000E+00  0.00000000E+00
  0.00000000E+00  0.00000000E+00  0.00000000E+00
  0.00000000E+00  0.00000000E+00  0.00000000E+00
  0.00000000E+00  0.00000000E+00  0.00000000E+00
