CONTCAR\(3)                             
   1.00000000000000     
    12.3312997818000003    0.0000000000000000    0.0000000000000000
     0.0001127485000000   12.8291997905000006    0.0000000000000000
     0.0005937186000000    0.0011528207000000   19.9943999824000009
   C    N    Fe   Ni   H 
    55     1     1     1     1
Direct
  0.0556616629367231  0.0544033316048297  0.0509809381355877
  0.1559353007021261  0.1099607872288569  0.0510501739060079
  0.1565314463262053  0.2207905125035576  0.0500812688709661
  0.0566266023668415  0.2758521134413398  0.0488211908808546
  0.2562907868130495  0.0554521394991581  0.0528293711376129
  0.3564882445416655  0.1114700538063631  0.0556476301262615
  0.3570672594243984  0.2228945690276167  0.0556271858908498
  0.2564661860031630  0.2767298236980146  0.0515542251994063
  0.4563171687612721  0.0558313657900242  0.0589754022267203
  0.5565999370257009  0.1123245252853110  0.0616254871299503
  0.5573702011550148  0.2240486313650727  0.0632190428315679
  0.4569339399218640  0.2807562261326464  0.0603252077572681
  0.6561174836427702  0.0539738347162981  0.0610980937772497
  0.7559561744447166  0.1104571418747928  0.0580026769358413
  0.7565850872615907  0.2224163700810659  0.0580020072410349
  0.6580655057599766  0.2816315554003335  0.0638760561359732
  0.8551910891580826  0.0536126488874517  0.0548598027059466
  0.9554367252248774  0.1093764137213467  0.0520147653457557
  0.9562797274862792  0.2206670699751207  0.0507825667730603
  0.8567816361743600  0.2768895949396181  0.0529720809541583
  0.0576711668285774  0.3869398641588511  0.0475140262392103
  0.1564364797648533  0.4432506316505886  0.0479506613282811
  0.1565250858734008  0.5548415490602752  0.0478858318660596
  0.0572212800025977  0.6103147081783665  0.0470979476088704
  0.2558797092778422  0.3876796145424090  0.0503486216043652
  0.3546067934820586  0.4435575083797966  0.0544224382109463
  0.3551633734204888  0.5562680694565475  0.0546485639773082
  0.2552850871868746  0.6113536469987221  0.0505020994283629
  0.7610589870202705  0.4469062253153814  0.0570005192111270
  0.8587442425028110  0.3882868462968621  0.0510054543815833
  0.9585009352995784  0.4425413747277299  0.0477916782664016
  0.9588650246052914  0.5532227403025244  0.0476183762038156
  0.8591381223005478  0.6069247412716371  0.0506584530876540
  0.0561322766731079  0.7215012962663609  0.0480396737876109
  0.1549424221332407  0.7776703295107367  0.0489881472458479
  0.1553734099562259  0.8887462945498025  0.0501326384077743
  0.0551071185038461  0.9434681724260621  0.0505192551341018
  0.2544608599982487  0.7222585211969041  0.0504586144599507
  0.3533720262139385  0.7777515786567597  0.0542817402010930
  0.3551785434392149  0.8888495551206964  0.0551635182574438
  0.2555097353035701  0.9444348652661136  0.0523702221522638
  0.4518193852303258  0.7206665484655664  0.0623184660106120
  0.5547111097009340  0.8866583884610578  0.0644461390719128
  0.4554666800245484  0.9443022858703053  0.0595538635658829
  0.7547340305116738  0.8835272529402607  0.0584423196217281
  0.6555912185373411  0.9423707845263640  0.0620948810122450
  0.8568023969666472  0.7197652374063580  0.0520867150926555
  0.9558794333307600  0.7762128039036555  0.0499521389710358
  0.9551322899536798  0.8873250939844893  0.0514121163486145
  0.8544224684469581  0.9414037422725889  0.0548072719248501
  0.4546606291940177  0.3915576775529714  0.0606377012255500
  0.6613357144529026  0.3926305143878586  0.0685731295109068
  0.5507556098856407  0.7768875220629045  0.0697278555557919
  0.7555096960217210  0.7713051453934061  0.0574212046096278
  0.4540090849760690  0.6090863278723239  0.0634788191069097
  0.7637330936430147  0.5551529061861320  0.0559206971494308
  0.6471158180542942  0.6650903466056346  0.0732343533271261
  0.5578810928612764  0.4933047775822834  0.0831143543243393
  0.6122454322909592  0.5744557362138883  0.1347443295486207
 
  0.00000000E+00  0.00000000E+00  0.00000000E+00
  0.00000000E+00  0.00000000E+00  0.00000000E+00
  0.00000000E+00  0.00000000E+00  0.00000000E+00
  0.00000000E+00  0.00000000E+00  0.00000000E+00
  0.00000000E+00  0.00000000E+00  0.00000000E+00
  0.00000000E+00  0.00000000E+00  0.00000000E+00
  0.00000000E+00  0.00000000E+00  0.00000000E+00
  0.00000000E+00  0.00000000E+00  0.00000000E+00
  0.00000000E+00  0.00000000E+00  0.00000000E+00
  0.00000000E+00  0.00000000E+00  0.00000000E+00
  0.00000000E+00  0.00000000E+00  0.00000000E+00
  0.00000000E+00  0.00000000E+00  0.00000000E+00
  0.00000000E+00  0.00000000E+00  0.00000000E+00
  0.00000000E+00  0.00000000E+00  0.00000000E+00
  0.00000000E+00  0.00000000E+00  0.00000000E+00
  0.00000000E+00  0.00000000E+00  0.00000000E+00
  0.00000000E+00  0.00000000E+00  0.00000000E+00
  0.00000000E+00  0.00000000E+00  0.00000000E+00
  0.00000000E+00  0.00000000E+00  0.00000000E+00
  0.00000000E+00  0.00000000E+00  0.00000000E+00
  0.00000000E+00  0.00000000E+00  0.00000000E+00
  0.00000000E+00  0.00000000E+00  0.00000000E+00
  0.00000000E+00  0.00000000E+00  0.00000000E+00
  0.00000000E+00  0.00000000E+00  0.00000000E+00
  0.00000000E+00  0.00000000E+00  0.00000000E+00
  0.00000000E+00  0.00000000E+00  0.00000000E+00
  0.00000000E+00  0.00000000E+00  0.00000000E+00
  0.00000000E+00  0.00000000E+00  0.00000000E+00
  0.00000000E+00  0.00000000E+00  0.00000000E+00
  0.00000000E+00  0.00000000E+00  0.00000000E+00
  0.00000000E+00  0.00000000E+00  0.00000000E+00
  0.00000000E+00  0.00000000E+00  0.00000000E+00
  0.00000000E+00  0.00000000E+00  0.00000000E+00
  0.00000000E+00  0.00000000E+00  0.00000000E+00
  0.00000000E+00  0.00000000E+00  0.00000000E+00
  0.00000000E+00  0.00000000E+00  0.00000000E+00
  0.00000000E+00  0.00000000E+00  0.00000000E+00
  0.00000000E+00  0.00000000E+00  0.00000000E+00
  0.00000000E+00  0.00000000E+00  0.00000000E+00
  0.00000000E+00  0.00000000E+00  0.00000000E+00
  0.00000000E+00  0.00000000E+00  0.00000000E+00
  0.00000000E+00  0.00000000E+00  0.00000000E+00
  0.00000000E+00  0.00000000E+00  0.00000000E+00
  0.00000000E+00  0.00000000E+00  0.00000000E+00
  0.00000000E+00  0.00000000E+00  0.00000000E+00
  0.00000000E+00  0.00000000E+00  0.00000000E+00
  0.00000000E+00  0.00000000E+00  0.00000000E+00
  0.00000000E+00  0.00000000E+00  0.00000000E+00
  0.00000000E+00  0.00000000E+00  0.00000000E+00
  0.00000000E+00  0.00000000E+00  0.00000000E+00
  0.00000000E+00  0.00000000E+00  0.00000000E+00
  0.00000000E+00  0.00000000E+00  0.00000000E+00
  0.00000000E+00  0.00000000E+00  0.00000000E+00
  0.00000000E+00  0.00000000E+00  0.00000000E+00
  0.00000000E+00  0.00000000E+00  0.00000000E+00
  0.00000000E+00  0.00000000E+00  0.00000000E+00
  0.00000000E+00  0.00000000E+00  0.00000000E+00
  0.00000000E+00  0.00000000E+00  0.00000000E+00
  0.00000000E+00  0.00000000E+00  0.00000000E+00
