CONTCAR                                 
   1.00000000000000     
    12.3312997818000003    0.0000000000000000    0.0000000000000000
     0.0001127485000000   12.8291997905000006    0.0000000000000000
     0.0005937186000000    0.0011528207000000   19.9943999824000009
   C    N    Fe   Ni   H 
    55     1     1     1     2
Direct
  0.0554130614953207  0.0520217313840493  0.0542710156801213
  0.1554084547534624  0.1083303006871514  0.0543076488515521
  0.1565506400728465  0.2192090966557587  0.0542271801065352
  0.0565632168017846  0.2736645797969393  0.0539361086338861
  0.2552966767565110  0.0537861789794952  0.0543126876557543
  0.3556305783228998  0.1095836588649590  0.0542221651852234
  0.3570528903453668  0.2211770010555949  0.0540863787568820
  0.2567547923518544  0.2754724797375468  0.0542245403057446
  0.4547918978671958  0.0532046317133559  0.0541616644268655
  0.5554299319639019  0.1080518694039601  0.0540918626503559
  0.5563629082653494  0.2188659939426691  0.0533978476333739
  0.4575853274187337  0.2781811266015525  0.0535005506180205
  0.6547976059623393  0.0494120396778452  0.0547770496158362
  0.7554781649960262  0.1053252765748546  0.0544132575895497
  0.7569443138982243  0.2166016447514792  0.0538009943496749
  0.6576091234494915  0.2735880798966152  0.0533006163944738
  0.8550021492423474  0.0495692346373309  0.0544457100740216
  0.9552353747384879  0.1062749107046955  0.0541405935967342
  0.9564542247177275  0.2174783028836461  0.0538309491797183
  0.8567962184726777  0.2727554320137527  0.0535108720522224
  0.0575437651638304  0.3848812044624673  0.0536313698549374
  0.1568230157315483  0.4411305562662854  0.0536911271137640
  0.1568619234481748  0.5525040177915896  0.0533581777711041
  0.0566379688081320  0.6071565796736959  0.0533026241380081
  0.2570613395022487  0.3865706368151393  0.0540734133124422
  0.3570273905928894  0.4427166312039000  0.0539205242817231
  0.3585624137595028  0.5563367201636503  0.0539422348965888
  0.2565388146928106  0.6092438608323235  0.0534632009412207
  0.7585874577392698  0.4404434190055297  0.0540264975471570
  0.8584837588129410  0.3840341477577028  0.0533843125715637
  0.9576841462423289  0.4397215870484285  0.0533692425066759
  0.9568906301090415  0.5506070199241283  0.0533972880573882
  0.8565510092996329  0.6051816909416643  0.0542561575247019
  0.0558511666487522  0.7185849990650174  0.0533994760325017
  0.1542290646320429  0.7751143705213717  0.0534988504243652
  0.1542509233048384  0.8862715068985778  0.0539024284498540
  0.0544394691555671  0.9410572912225932  0.0541615301664996
  0.2537552246955839  0.7199515855057025  0.0534513752166550
  0.3514916723798265  0.7769344950156865  0.0536348495629989
  0.3528309992597738  0.8875667222024998  0.0539454818769877
  0.2537402972034156  0.9428583203833103  0.0540790006118719
  0.4506148383961302  0.7221390082721744  0.0535010743122327
  0.5514123374700216  0.8840896556911007  0.0549572289033730
  0.4530106292098643  0.9423941916312797  0.0541292761400953
  0.7535739746437164  0.8797960223909429  0.0563885753601522
  0.6538305901606415  0.9379128800213388  0.0557938920817318
  0.8576452149389011  0.7173911448210877  0.0551818620126371
  0.9561086052314891  0.7737286903455770  0.0539991855689831
  0.9548044797228660  0.8846061052928313  0.0543755879350489
  0.8538659292646172  0.9379672563774206  0.0549698759172153
  0.4567843617447278  0.3896293365894641  0.0532827692653478
  0.4588401102612417  0.6112345786437098  0.0537304521321190
  0.6610797962720260  0.3821940123162875  0.0529340486603423
  0.7547350025006434  0.5529165050084556  0.0556144703802482
  0.7566451296358594  0.7684638425785135  0.0579803018086127
  0.5462730978615794  0.7787012192503514  0.0551392371709962
  0.6416393119814929  0.6657376978388787  0.0634033116482821
  0.5683415362349887  0.4888259911293452  0.0507136184752078
  0.6608236444916482  0.6707496497693001  0.1622452095765018
  0.6030313749028202  0.6462912823674154  0.1604211524353243
 
  0.00000000E+00  0.00000000E+00  0.00000000E+00
  0.00000000E+00  0.00000000E+00  0.00000000E+00
  0.00000000E+00  0.00000000E+00  0.00000000E+00
  0.00000000E+00  0.00000000E+00  0.00000000E+00
  0.00000000E+00  0.00000000E+00  0.00000000E+00
  0.00000000E+00  0.00000000E+00  0.00000000E+00
  0.00000000E+00  0.00000000E+00  0.00000000E+00
  0.00000000E+00  0.00000000E+00  0.00000000E+00
  0.00000000E+00  0.00000000E+00  0.00000000E+00
  0.00000000E+00  0.00000000E+00  0.00000000E+00
  0.00000000E+00  0.00000000E+00  0.00000000E+00
  0.00000000E+00  0.00000000E+00  0.00000000E+00
  0.00000000E+00  0.00000000E+00  0.00000000E+00
  0.00000000E+00  0.00000000E+00  0.00000000E+00
  0.00000000E+00  0.00000000E+00  0.00000000E+00
  0.00000000E+00  0.00000000E+00  0.00000000E+00
  0.00000000E+00  0.00000000E+00  0.00000000E+00
  0.00000000E+00  0.00000000E+00  0.00000000E+00
  0.00000000E+00  0.00000000E+00  0.00000000E+00
  0.00000000E+00  0.00000000E+00  0.00000000E+00
  0.00000000E+00  0.00000000E+00  0.00000000E+00
  0.00000000E+00  0.00000000E+00  0.00000000E+00
  0.00000000E+00  0.00000000E+00  0.00000000E+00
  0.00000000E+00  0.00000000E+00  0.00000000E+00
  0.00000000E+00  0.00000000E+00  0.00000000E+00
  0.00000000E+00  0.00000000E+00  0.00000000E+00
  0.00000000E+00  0.00000000E+00  0.00000000E+00
  0.00000000E+00  0.00000000E+00  0.00000000E+00
  0.00000000E+00  0.00000000E+00  0.00000000E+00
  0.00000000E+00  0.00000000E+00  0.00000000E+00
  0.00000000E+00  0.00000000E+00  0.00000000E+00
  0.00000000E+00  0.00000000E+00  0.00000000E+00
  0.00000000E+00  0.00000000E+00  0.00000000E+00
  0.00000000E+00  0.00000000E+00  0.00000000E+00
  0.00000000E+00  0.00000000E+00  0.00000000E+00
  0.00000000E+00  0.00000000E+00  0.00000000E+00
  0.00000000E+00  0.00000000E+00  0.00000000E+00
  0.00000000E+00  0.00000000E+00  0.00000000E+00
  0.00000000E+00  0.00000000E+00  0.00000000E+00
  0.00000000E+00  0.00000000E+00  0.00000000E+00
  0.00000000E+00  0.00000000E+00  0.00000000E+00
  0.00000000E+00  0.00000000E+00  0.00000000E+00
  0.00000000E+00  0.00000000E+00  0.00000000E+00
  0.00000000E+00  0.00000000E+00  0.00000000E+00
  0.00000000E+00  0.00000000E+00  0.00000000E+00
  0.00000000E+00  0.00000000E+00  0.00000000E+00
  0.00000000E+00  0.00000000E+00  0.00000000E+00
  0.00000000E+00  0.00000000E+00  0.00000000E+00
  0.00000000E+00  0.00000000E+00  0.00000000E+00
  0.00000000E+00  0.00000000E+00  0.00000000E+00
  0.00000000E+00  0.00000000E+00  0.00000000E+00
  0.00000000E+00  0.00000000E+00  0.00000000E+00
  0.00000000E+00  0.00000000E+00  0.00000000E+00
  0.00000000E+00  0.00000000E+00  0.00000000E+00
  0.00000000E+00  0.00000000E+00  0.00000000E+00
  0.00000000E+00  0.00000000E+00  0.00000000E+00
  0.00000000E+00  0.00000000E+00  0.00000000E+00
  0.00000000E+00  0.00000000E+00  0.00000000E+00
  0.00000000E+00  0.00000000E+00  0.00000000E+00
  0.00000000E+00  0.00000000E+00  0.00000000E+00
