POSCAR\(2)                              
   1.00000000000000     
    12.3312997818000003    0.0000000000000000    0.0000000000000000
     0.0001127485000000   12.8291997905000006    0.0000000000000000
     0.0005937186000000    0.0011528207000000   19.9943999824000009
   C    N    Fe   Ni
    54     2     1     1
Direct
  0.0559440643620592  0.0545183356258236  0.0557837860516660
  0.1562179615108480  0.1103314335086396  0.0558016965857974
  0.1572126116474698  0.2213507976004242  0.0557835480029756
  0.0573562737377226  0.2757283542348851  0.0557578609779336
  0.2563359926766609  0.0558005842213629  0.0558111851532153
  0.3568119212543642  0.1119145042282138  0.0557812072234305
  0.3578399830115590  0.2237816677339520  0.0557499110559862
  0.2572720875552111  0.2779408016588495  0.0557718332961652
  0.4560970046935861  0.0559380997754983  0.0557512176637579
  0.5566321445753312  0.1119923073402057  0.0557146119373886
  0.5575091518049506  0.2234869318375146  0.0556905361060601
  0.4580928955674534  0.2812147936191842  0.0556935021499520
  0.6559162385766590  0.0529948887362490  0.0556827571679321
  0.7560882882746692  0.1094648537061457  0.0556977669223716
  0.7571487044347148  0.2214783733676711  0.0557041904479378
  0.6586247543544664  0.2805461914413876  0.0556631286008416
  0.8551788209997611  0.0528731813605696  0.0557053819360691
  0.9557633125865931  0.1090207800164499  0.0557478001036846
  0.9570234748557914  0.2201188443865135  0.0557442450494296
  0.8575684442870862  0.2760585578393890  0.0557159185749022
  0.0585182406710548  0.3868264526607608  0.0557479592929117
  0.1570783007937605  0.4434224098759063  0.0557766578955686
  0.1562916005189618  0.5548229356889541  0.0557864598253670
  0.0572642602017053  0.6099757175377444  0.0557637967545839
  0.2569380120907103  0.3890760460031928  0.0557692525573801
  0.3565994877325857  0.4456166369852426  0.0557266150378737
  0.3555399956437180  0.5588492537904449  0.0557167475729023
  0.2549370092003652  0.6120101839876826  0.0557742189973129
  0.7622332059973385  0.4454352998397552  0.0556453299017332
  0.8601179388691186  0.3872673907596940  0.0556909360502249
  0.9594357313430689  0.4420697924529912  0.0557066634089787
  0.9586536921506070  0.5527762884761296  0.0556990225915799
  0.8586859156509727  0.6061630001653645  0.0556551658966758
  0.0558969481790654  0.7212990264025670  0.0557796828091760
  0.1540578484751784  0.7779690342194066  0.0558135060258610
  0.1549405038574200  0.8890198248514216  0.0558208171432616
  0.0550291345091865  0.9434812832064263  0.0557902505635311
  0.2530805446055043  0.7226640197498858  0.0557889443393565
  0.3517848216449562  0.7779154215399467  0.0557511543655225
  0.3546088272903342  0.8891041498271360  0.0557775198999170
  0.2551487999167035  0.9447785991220933  0.0558205593976325
  0.4496715018410213  0.7204557025296117  0.0556705032820560
  0.5533173508622783  0.8857569773963951  0.0556525867382509
  0.4549516520904746  0.9442329602440722  0.0557345597000480
  0.7540609539297778  0.8824465208992864  0.0556343858867088
  0.6550287646369788  0.9413615426840299  0.0556455285755968
  0.8570485272029118  0.7190202495631205  0.0556568558088678
  0.9560268184404351  0.7757207390145986  0.0557298503770670
  0.9551116965218897  0.8868368528987347  0.0557360540519705
  0.8540881483081681  0.9406145706349013  0.0556794633991909
  0.4560670174936431  0.3929162091201830  0.0556730421660075
  0.6621776540017177  0.3907438405240120  0.0556301134619823
  0.5491309440850347  0.7757974844041146  0.0556152400753039
  0.7561364859407395  0.7695712296331151  0.0556180316754246
  0.7624784096586779  0.5542072791083354  0.0556168276432305
  0.4511957111392800  0.6116393200102199  0.0556514776012582
  0.6436097439984422  0.6660342942715098  0.0556017424533429
  0.5637936037392520  0.4941471366820813  0.0556203947687956
 
  0.00000000E+00  0.00000000E+00  0.00000000E+00
  0.00000000E+00  0.00000000E+00  0.00000000E+00
  0.00000000E+00  0.00000000E+00  0.00000000E+00
  0.00000000E+00  0.00000000E+00  0.00000000E+00
  0.00000000E+00  0.00000000E+00  0.00000000E+00
  0.00000000E+00  0.00000000E+00  0.00000000E+00
  0.00000000E+00  0.00000000E+00  0.00000000E+00
  0.00000000E+00  0.00000000E+00  0.00000000E+00
  0.00000000E+00  0.00000000E+00  0.00000000E+00
  0.00000000E+00  0.00000000E+00  0.00000000E+00
  0.00000000E+00  0.00000000E+00  0.00000000E+00
  0.00000000E+00  0.00000000E+00  0.00000000E+00
  0.00000000E+00  0.00000000E+00  0.00000000E+00
  0.00000000E+00  0.00000000E+00  0.00000000E+00
  0.00000000E+00  0.00000000E+00  0.00000000E+00
  0.00000000E+00  0.00000000E+00  0.00000000E+00
  0.00000000E+00  0.00000000E+00  0.00000000E+00
  0.00000000E+00  0.00000000E+00  0.00000000E+00
  0.00000000E+00  0.00000000E+00  0.00000000E+00
  0.00000000E+00  0.00000000E+00  0.00000000E+00
  0.00000000E+00  0.00000000E+00  0.00000000E+00
  0.00000000E+00  0.00000000E+00  0.00000000E+00
  0.00000000E+00  0.00000000E+00  0.00000000E+00
  0.00000000E+00  0.00000000E+00  0.00000000E+00
  0.00000000E+00  0.00000000E+00  0.00000000E+00
  0.00000000E+00  0.00000000E+00  0.00000000E+00
  0.00000000E+00  0.00000000E+00  0.00000000E+00
  0.00000000E+00  0.00000000E+00  0.00000000E+00
  0.00000000E+00  0.00000000E+00  0.00000000E+00
  0.00000000E+00  0.00000000E+00  0.00000000E+00
  0.00000000E+00  0.00000000E+00  0.00000000E+00
  0.00000000E+00  0.00000000E+00  0.00000000E+00
  0.00000000E+00  0.00000000E+00  0.00000000E+00
  0.00000000E+00  0.00000000E+00  0.00000000E+00
  0.00000000E+00  0.00000000E+00  0.00000000E+00
  0.00000000E+00  0.00000000E+00  0.00000000E+00
  0.00000000E+00  0.00000000E+00  0.00000000E+00
  0.00000000E+00  0.00000000E+00  0.00000000E+00
  0.00000000E+00  0.00000000E+00  0.00000000E+00
  0.00000000E+00  0.00000000E+00  0.00000000E+00
  0.00000000E+00  0.00000000E+00  0.00000000E+00
  0.00000000E+00  0.00000000E+00  0.00000000E+00
  0.00000000E+00  0.00000000E+00  0.00000000E+00
  0.00000000E+00  0.00000000E+00  0.00000000E+00
  0.00000000E+00  0.00000000E+00  0.00000000E+00
  0.00000000E+00  0.00000000E+00  0.00000000E+00
  0.00000000E+00  0.00000000E+00  0.00000000E+00
  0.00000000E+00  0.00000000E+00  0.00000000E+00
  0.00000000E+00  0.00000000E+00  0.00000000E+00
  0.00000000E+00  0.00000000E+00  0.00000000E+00
  0.00000000E+00  0.00000000E+00  0.00000000E+00
  0.00000000E+00  0.00000000E+00  0.00000000E+00
  0.00000000E+00  0.00000000E+00  0.00000000E+00
  0.00000000E+00  0.00000000E+00  0.00000000E+00
  0.00000000E+00  0.00000000E+00  0.00000000E+00
  0.00000000E+00  0.00000000E+00  0.00000000E+00
  0.00000000E+00  0.00000000E+00  0.00000000E+00
  0.00000000E+00  0.00000000E+00  0.00000000E+00
