CONTCAR\(6)                             
   1.00000000000000     
    12.3312997818000003    0.0000000000000000    0.0000000000000000
     0.0001127485000000   12.8291997905000006    0.0000000000000000
     0.0005937186000000    0.0011528207000000   19.9943999824000009
   C    N    Fe   Ni   H 
    51     5     1     1     2
Direct
  0.0542829280098935  0.0526508695909443  0.0527010623788098
  0.1549610022763260  0.1082174478979908  0.0524358703052759
  0.1550346008408955  0.2190468186490355  0.0510538996914289
  0.0548762131522181  0.2740503994679137  0.0505732962053908
  0.2555727367163836  0.0539204073859750  0.0538808043546454
  0.3559204358288719  0.1099825289408769  0.0565111011159403
  0.3554860586287275  0.2219056833639843  0.0551968399968872
  0.2546944571578083  0.2752630373769956  0.0511099757534080
  0.4561900531915312  0.0544183857014673  0.0603392013398180
  0.5553694221274008  0.1127868944173489  0.0631038888629163
  0.5561508926685039  0.2279162102297231  0.0634463256148623
  0.4539074864266380  0.2827390502700325  0.0584574451547596
  0.6530506144435879  0.0516045745833565  0.0635970154661058
  0.7529914587038489  0.1087769813997733  0.0612743506196507
  0.7542713837864101  0.2219952301480775  0.0617702523538795
  0.6574533253327833  0.2845375112069071  0.0657476130747563
  0.8530616033674351  0.0518943011149714  0.0575931048100895
  0.9536907547115593  0.1074322768040123  0.0547633728099703
  0.9545374041604470  0.2189510110442555  0.0540260472274755
  0.8553661977489303  0.2755371931697101  0.0571100375799302
  0.0558504691553867  0.3847959901884820  0.0478762516397617
  0.1547178645899538  0.4415576058006762  0.0460471044642507
  0.1551550575522290  0.5523729118213213  0.0447567212366819
  0.0567220060375242  0.6085803770822015  0.0448334717923204
  0.2538290076328938  0.3865277629248912  0.0484796211222729
  0.3527573849782767  0.4419133541379421  0.0512097618604580
  0.3529660246675905  0.5545223690350877  0.0521697028790199
  0.2540981357087103  0.6086037009613681  0.0473249162273422
  0.7607324765876078  0.4459605277636675  0.0609484241010875
  0.8578366453085488  0.3868144499444225  0.0547266340977448
  0.9574273329932806  0.4406273066210603  0.0491291529169327
  0.9584037314970455  0.5514300708425364  0.0475529674287314
  0.8601987118276545  0.6052849675910774  0.0519401182110971
  0.0559820794923332  0.7195259397366908  0.0458651068258193
  0.1547772203420361  0.7758609419800484  0.0474365110646888
  0.1547603977557977  0.8869014367235077  0.0499662655234466
  0.0541395589404629  0.9417554113004329  0.0511402315201377
  0.2535651783072765  0.7199236415530125  0.0489164232167549
  0.3524396251171208  0.7748808395405238  0.0541661805499998
  0.3542914736573299  0.8865127998754733  0.0558814157430186
  0.2549512279084526  0.9423664221774213  0.0529710374663318
  0.4498170980739490  0.7165465572852874  0.0603946451240109
  0.5516966149742589  0.8804936334076108  0.0649736978442830
  0.4549913837519154  0.9412578360613778  0.0608090113521317
  0.7535509359369702  0.8801439677942390  0.0608478993612975
  0.6524961580447970  0.9369183856627352  0.0642646930283491
  0.8584492679222792  0.7171313204592692  0.0517979720058336
  0.9563348080422464  0.7742578218827046  0.0487624106306329
  0.9541879028936896  0.8856478623484759  0.0517661899098408
  0.8528659206924348  0.9394621949775126  0.0565360219546604
  0.7575264565889286  0.7679961810069352  0.0591577869626191
  0.4492853500369310  0.3898269063994719  0.0563611906964581
  0.4496585570731984  0.6078411602203189  0.0609765352297620
  0.6640178278420488  0.3945822845435695  0.0699400155540473
  0.7629674230705197  0.5540642502536394  0.0586335816163990
  0.5466101906875513  0.7697130089088179  0.0666505547330314
  0.6510551176334146  0.6641583772001701  0.0715371505008678
  0.5531959698821804  0.4967077624130585  0.0763195814828230
  0.6880707667383232  0.6928882857806014  0.1388286587452393
  0.6090915787766416  0.5757066140290064  0.1263328666637950
 
  0.00000000E+00  0.00000000E+00  0.00000000E+00
  0.00000000E+00  0.00000000E+00  0.00000000E+00
  0.00000000E+00  0.00000000E+00  0.00000000E+00
  0.00000000E+00  0.00000000E+00  0.00000000E+00
  0.00000000E+00  0.00000000E+00  0.00000000E+00
  0.00000000E+00  0.00000000E+00  0.00000000E+00
  0.00000000E+00  0.00000000E+00  0.00000000E+00
  0.00000000E+00  0.00000000E+00  0.00000000E+00
  0.00000000E+00  0.00000000E+00  0.00000000E+00
  0.00000000E+00  0.00000000E+00  0.00000000E+00
  0.00000000E+00  0.00000000E+00  0.00000000E+00
  0.00000000E+00  0.00000000E+00  0.00000000E+00
  0.00000000E+00  0.00000000E+00  0.00000000E+00
  0.00000000E+00  0.00000000E+00  0.00000000E+00
  0.00000000E+00  0.00000000E+00  0.00000000E+00
  0.00000000E+00  0.00000000E+00  0.00000000E+00
  0.00000000E+00  0.00000000E+00  0.00000000E+00
  0.00000000E+00  0.00000000E+00  0.00000000E+00
  0.00000000E+00  0.00000000E+00  0.00000000E+00
  0.00000000E+00  0.00000000E+00  0.00000000E+00
  0.00000000E+00  0.00000000E+00  0.00000000E+00
  0.00000000E+00  0.00000000E+00  0.00000000E+00
  0.00000000E+00  0.00000000E+00  0.00000000E+00
  0.00000000E+00  0.00000000E+00  0.00000000E+00
  0.00000000E+00  0.00000000E+00  0.00000000E+00
  0.00000000E+00  0.00000000E+00  0.00000000E+00
  0.00000000E+00  0.00000000E+00  0.00000000E+00
  0.00000000E+00  0.00000000E+00  0.00000000E+00
  0.00000000E+00  0.00000000E+00  0.00000000E+00
  0.00000000E+00  0.00000000E+00  0.00000000E+00
  0.00000000E+00  0.00000000E+00  0.00000000E+00
  0.00000000E+00  0.00000000E+00  0.00000000E+00
  0.00000000E+00  0.00000000E+00  0.00000000E+00
  0.00000000E+00  0.00000000E+00  0.00000000E+00
  0.00000000E+00  0.00000000E+00  0.00000000E+00
  0.00000000E+00  0.00000000E+00  0.00000000E+00
  0.00000000E+00  0.00000000E+00  0.00000000E+00
  0.00000000E+00  0.00000000E+00  0.00000000E+00
  0.00000000E+00  0.00000000E+00  0.00000000E+00
  0.00000000E+00  0.00000000E+00  0.00000000E+00
  0.00000000E+00  0.00000000E+00  0.00000000E+00
  0.00000000E+00  0.00000000E+00  0.00000000E+00
  0.00000000E+00  0.00000000E+00  0.00000000E+00
  0.00000000E+00  0.00000000E+00  0.00000000E+00
  0.00000000E+00  0.00000000E+00  0.00000000E+00
  0.00000000E+00  0.00000000E+00  0.00000000E+00
  0.00000000E+00  0.00000000E+00  0.00000000E+00
  0.00000000E+00  0.00000000E+00  0.00000000E+00
  0.00000000E+00  0.00000000E+00  0.00000000E+00
  0.00000000E+00  0.00000000E+00  0.00000000E+00
  0.00000000E+00  0.00000000E+00  0.00000000E+00
  0.00000000E+00  0.00000000E+00  0.00000000E+00
  0.00000000E+00  0.00000000E+00  0.00000000E+00
  0.00000000E+00  0.00000000E+00  0.00000000E+00
  0.00000000E+00  0.00000000E+00  0.00000000E+00
  0.00000000E+00  0.00000000E+00  0.00000000E+00
  0.00000000E+00  0.00000000E+00  0.00000000E+00
  0.00000000E+00  0.00000000E+00  0.00000000E+00
  0.00000000E+00  0.00000000E+00  0.00000000E+00
  0.00000000E+00  0.00000000E+00  0.00000000E+00
