CONTCAR\(2)                             
   1.00000000000000     
    12.3312997818000003    0.0000000000000000    0.0000000000000000
     0.0001127485000000   12.8291997905000006    0.0000000000000000
     0.0005937186000000    0.0011528207000000   19.9943999824000009
   C    N    Fe   Ni   O 
    53     3     1     1     2
Direct
  0.0556984841309778  0.0541795887947467  0.0493261406550784
  0.1561531809787093  0.1098761975573121  0.0494943003033848
  0.1565283384630132  0.2207744112097077  0.0485226334362742
  0.0563679241952667  0.2757808288560803  0.0476377872373030
  0.2568287862886704  0.0555915866972554  0.0513583254367303
  0.3571771815367695  0.1120797038698765  0.0541406960550041
  0.3576824441196983  0.2239320136143084  0.0536587395015031
  0.2564002640552545  0.2769031415839203  0.0496988658616031
  0.4570293357617053  0.0563238222271569  0.0577455954821992
  0.5577605040991577  0.1128393595099549  0.0603066784520402
  0.5586029018890807  0.2260024711641938  0.0613756462379281
  0.4578289812388567  0.2827609194739567  0.0580504875192339
  0.6566649429252012  0.0530133902198085  0.0599216689496219
  0.7558404794124933  0.1096940218672313  0.0566955750942670
  0.7571023752180025  0.2220996146225403  0.0567251718058792
  0.6601387879132584  0.2824275250771613  0.0619638022401762
  0.8550396880357386  0.0530527571676144  0.0534121680720408
  0.9555241493720917  0.1087531130327024  0.0505833158399877
  0.9565438752144870  0.2201655202315450  0.0497787113954825
  0.8573130211385290  0.2763008044128514  0.0522711364746548
  0.0562432958680135  0.3871022443495735  0.0461299450436669
  0.1549337545029334  0.4433198136594292  0.0461914660704556
  0.1546203136898306  0.5547994977523297  0.0458525567352788
  0.0554717502876169  0.6102553923228081  0.0449627740231140
  0.2543581858803959  0.3877863626374166  0.0485567617345160
  0.3522483145726204  0.4442060841646228  0.0525988988771559
  0.3525807209477758  0.5559878929535899  0.0546362693217402
  0.2536892483414964  0.6112590205436880  0.0489483104682586
  0.7600464046670388  0.4448719623659574  0.0559107404961723
  0.8583155481137650  0.3874899238734109  0.0504681186211597
  0.9570938414741230  0.4428628014094498  0.0465632833742492
  0.9562810150007817  0.5540392419110043  0.0458629140146581
  0.8557061808350377  0.6066441979110757  0.0488885746290733
  0.0550570528826142  0.7211716016835666  0.0456487168932838
  0.1541667166803338  0.7775696384153402  0.0471039762638845
  0.1554091052172445  0.8885842479990498  0.0483932161026495
  0.0551248229210445  0.9431760527099136  0.0486306050805737
  0.2534581879028072  0.7221695150239181  0.0492954986653670
  0.3528340989458798  0.7766907932521341  0.0538785169396235
  0.3554667872701739  0.8882770693285780  0.0541180171452821
  0.2558841300156355  0.9441648910806819  0.0509314488729861
  0.4508969415729129  0.7186071278108275  0.0628348591773874
  0.5544249890975087  0.8857039210872871  0.0630207021463418
  0.4557186461654765  0.9442767925142576  0.0583695632344063
  0.7558370373296518  0.8818771436752296  0.0576912014454445
  0.6561446442951930  0.9400035896872014  0.0611936733323918
  0.8555078683600578  0.7202204254257265  0.0500737397434068
  0.9549857561918069  0.7756916807851804  0.0475613366861291
  0.9553309308378424  0.8871078279116459  0.0494997149532813
  0.8547424356749281  0.9407483236523215  0.0533750613102664
  0.4528288545119460  0.3939489707818252  0.0581702610178118
  0.4524864029396144  0.6062128252090485  0.0660282145927407
  0.5487226178046738  0.7761535478285266  0.0677808049713432
  0.6647607077923141  0.3907073826627611  0.0658412091464703
  0.7594689281561533  0.5528184254018307  0.0531883494070837
  0.7580198676610230  0.7722093461508927  0.0565468299040130
  0.6480807874151973  0.6710869988469156  0.0736956035153366
  0.5578716242832917  0.4912792872862861  0.0852033620911409
  0.6214503040221158  0.5477731875300845  0.1638412606132378
  0.6478157458842068  0.6524742622146809  0.1611761912881840
 
  0.00000000E+00  0.00000000E+00  0.00000000E+00
  0.00000000E+00  0.00000000E+00  0.00000000E+00
  0.00000000E+00  0.00000000E+00  0.00000000E+00
  0.00000000E+00  0.00000000E+00  0.00000000E+00
  0.00000000E+00  0.00000000E+00  0.00000000E+00
  0.00000000E+00  0.00000000E+00  0.00000000E+00
  0.00000000E+00  0.00000000E+00  0.00000000E+00
  0.00000000E+00  0.00000000E+00  0.00000000E+00
  0.00000000E+00  0.00000000E+00  0.00000000E+00
  0.00000000E+00  0.00000000E+00  0.00000000E+00
  0.00000000E+00  0.00000000E+00  0.00000000E+00
  0.00000000E+00  0.00000000E+00  0.00000000E+00
  0.00000000E+00  0.00000000E+00  0.00000000E+00
  0.00000000E+00  0.00000000E+00  0.00000000E+00
  0.00000000E+00  0.00000000E+00  0.00000000E+00
  0.00000000E+00  0.00000000E+00  0.00000000E+00
  0.00000000E+00  0.00000000E+00  0.00000000E+00
  0.00000000E+00  0.00000000E+00  0.00000000E+00
  0.00000000E+00  0.00000000E+00  0.00000000E+00
  0.00000000E+00  0.00000000E+00  0.00000000E+00
  0.00000000E+00  0.00000000E+00  0.00000000E+00
  0.00000000E+00  0.00000000E+00  0.00000000E+00
  0.00000000E+00  0.00000000E+00  0.00000000E+00
  0.00000000E+00  0.00000000E+00  0.00000000E+00
  0.00000000E+00  0.00000000E+00  0.00000000E+00
  0.00000000E+00  0.00000000E+00  0.00000000E+00
  0.00000000E+00  0.00000000E+00  0.00000000E+00
  0.00000000E+00  0.00000000E+00  0.00000000E+00
  0.00000000E+00  0.00000000E+00  0.00000000E+00
  0.00000000E+00  0.00000000E+00  0.00000000E+00
  0.00000000E+00  0.00000000E+00  0.00000000E+00
  0.00000000E+00  0.00000000E+00  0.00000000E+00
  0.00000000E+00  0.00000000E+00  0.00000000E+00
  0.00000000E+00  0.00000000E+00  0.00000000E+00
  0.00000000E+00  0.00000000E+00  0.00000000E+00
  0.00000000E+00  0.00000000E+00  0.00000000E+00
  0.00000000E+00  0.00000000E+00  0.00000000E+00
  0.00000000E+00  0.00000000E+00  0.00000000E+00
  0.00000000E+00  0.00000000E+00  0.00000000E+00
  0.00000000E+00  0.00000000E+00  0.00000000E+00
  0.00000000E+00  0.00000000E+00  0.00000000E+00
  0.00000000E+00  0.00000000E+00  0.00000000E+00
  0.00000000E+00  0.00000000E+00  0.00000000E+00
  0.00000000E+00  0.00000000E+00  0.00000000E+00
  0.00000000E+00  0.00000000E+00  0.00000000E+00
  0.00000000E+00  0.00000000E+00  0.00000000E+00
  0.00000000E+00  0.00000000E+00  0.00000000E+00
  0.00000000E+00  0.00000000E+00  0.00000000E+00
  0.00000000E+00  0.00000000E+00  0.00000000E+00
  0.00000000E+00  0.00000000E+00  0.00000000E+00
  0.00000000E+00  0.00000000E+00  0.00000000E+00
  0.00000000E+00  0.00000000E+00  0.00000000E+00
  0.00000000E+00  0.00000000E+00  0.00000000E+00
  0.00000000E+00  0.00000000E+00  0.00000000E+00
  0.00000000E+00  0.00000000E+00  0.00000000E+00
  0.00000000E+00  0.00000000E+00  0.00000000E+00
  0.00000000E+00  0.00000000E+00  0.00000000E+00
  0.00000000E+00  0.00000000E+00  0.00000000E+00
  0.00000000E+00  0.00000000E+00  0.00000000E+00
  0.00000000E+00  0.00000000E+00  0.00000000E+00
