POSCAR                                  
   1.00000000000000     
    12.3312997818000003    0.0000000000000000    0.0000000000000000
     0.0001127485000000   12.8291997905000006    0.0000000000000000
     0.0005937186000000    0.0011528207000000   19.9943999824000009
   C    N    Fe   Ni   H 
    52     4     1     1     2
Direct
  0.0566097736129539  0.0527784977349416  0.0520358324353205
  0.1569280732141009  0.1082286276456636  0.0514869250181958
  0.1564767070892178  0.2191877343463424  0.0507855985995078
  0.0563325322883032  0.2746249035562980  0.0509235203088652
  0.2575602389551255  0.0533083156751384  0.0519386212254072
  0.3578036510788799  0.1095654379068358  0.0536892655433856
  0.3571209392317212  0.2216072209684573  0.0529499684169823
  0.2560987399460863  0.2750076453456619  0.0505191477903221
  0.4578325837905368  0.0534118782168551  0.0563260140573440
  0.5571548644627257  0.1113422763464665  0.0591142306618637
  0.5571201331426024  0.2254152239922001  0.0590435314718473
  0.4558556119991563  0.2818331635041106  0.0547142066733037
  0.6561825765369421  0.0513338310830715  0.0606733486389260
  0.7556423770116574  0.1085601932550454  0.0589634938579588
  0.7565036882473403  0.2207840493609763  0.0591300836013265
  0.6583056941951640  0.2813956482103985  0.0618006669674255
  0.8555677353566982  0.0522963975658438  0.0563032763681606
  0.9561002399711158  0.1076187510408327  0.0537755328749448
  0.9565954743112561  0.2188381401698286  0.0533416555052544
  0.8572081666401421  0.2748657081884388  0.0558856104569410
  0.0563405262664994  0.3857933913909910  0.0494898044045296
  0.1553652457878989  0.4416237546019187  0.0478554675861915
  0.1553184406941795  0.5524639430766712  0.0466763313758094
  0.0561830309678227  0.6086499032880136  0.0476524526085899
  0.2548875779930470  0.3860731280248801  0.0488122829765248
  0.3540441138978532  0.4407807296137292  0.0491185533938499
  0.3545137215681118  0.5531131302725606  0.0488776002654214
  0.2548311537015613  0.6080572232241817  0.0467100467267290
  0.7601703750042538  0.4425976723486327  0.0614339376709909
  0.8585272205427260  0.3859549079118104  0.0551650845383822
  0.9570729008090841  0.4420469154328541  0.0510840614588184
  0.9563241332195744  0.5533686188769663  0.0504695191702809
  0.8560925891998773  0.6082789601850874  0.0549105335325541
  0.0566407190084890  0.7194926378559042  0.0478944987786029
  0.1558647518446985  0.7753317067804764  0.0476291901016048
  0.1569663920826214  0.8864884048210677  0.0493784988492449
  0.0568137712541482  0.9419883121617860  0.0510646303869999
  0.2549585762450265  0.7191793006610382  0.0472575439979363
  0.3549504720595354  0.7731162867290703  0.0501253592263704
  0.3571669919167361  0.8851287770648331  0.0521954467846945
  0.2572955627759518  0.9415641210997817  0.0507963296613021
  0.4527492780694215  0.7134300582117241  0.0548208278176274
  0.5554361945401632  0.8808522504686022  0.0614610022729870
  0.4572500433891489  0.9408515713079861  0.0563657743717148
  0.7573603942695019  0.8813253247553879  0.0607131971354441
  0.6562645319338605  0.9378906094590168  0.0621576283270478
  0.8582484456345246  0.7210511615900298  0.0549029662984709
  0.9570603221006097  0.7755438280166025  0.0507619623609626
  0.9569193706874068  0.8866229954746695  0.0525447378424948
  0.8560879583549021  0.9403808545720587  0.0563640635010432
  0.7561061914636681  0.5539257723652941  0.0630235114625639
  0.5506995078558022  0.7697328398375717  0.0647302863089584
  0.4514294841664767  0.3895129165753818  0.0514668430511734
  0.4519340719549271  0.6040800547209004  0.0533064762654682
  0.6635065376620459  0.3887892813057423  0.0660832101642821
  0.7612065415940583  0.7730197161109411  0.0622716365091794
  0.6539674780645480  0.6677996051941023  0.0884123839068583
  0.5606923084577874  0.4947960189035666  0.0608601343122842
  0.6042109916410064  0.6582122804557976  0.1625455106217391
  0.5965721592387198  0.5920773561389429  0.1441901675009849
 
  0.00000000E+00  0.00000000E+00  0.00000000E+00
  0.00000000E+00  0.00000000E+00  0.00000000E+00
  0.00000000E+00  0.00000000E+00  0.00000000E+00
  0.00000000E+00  0.00000000E+00  0.00000000E+00
  0.00000000E+00  0.00000000E+00  0.00000000E+00
  0.00000000E+00  0.00000000E+00  0.00000000E+00
  0.00000000E+00  0.00000000E+00  0.00000000E+00
  0.00000000E+00  0.00000000E+00  0.00000000E+00
  0.00000000E+00  0.00000000E+00  0.00000000E+00
  0.00000000E+00  0.00000000E+00  0.00000000E+00
  0.00000000E+00  0.00000000E+00  0.00000000E+00
  0.00000000E+00  0.00000000E+00  0.00000000E+00
  0.00000000E+00  0.00000000E+00  0.00000000E+00
  0.00000000E+00  0.00000000E+00  0.00000000E+00
  0.00000000E+00  0.00000000E+00  0.00000000E+00
  0.00000000E+00  0.00000000E+00  0.00000000E+00
  0.00000000E+00  0.00000000E+00  0.00000000E+00
  0.00000000E+00  0.00000000E+00  0.00000000E+00
  0.00000000E+00  0.00000000E+00  0.00000000E+00
  0.00000000E+00  0.00000000E+00  0.00000000E+00
  0.00000000E+00  0.00000000E+00  0.00000000E+00
  0.00000000E+00  0.00000000E+00  0.00000000E+00
  0.00000000E+00  0.00000000E+00  0.00000000E+00
  0.00000000E+00  0.00000000E+00  0.00000000E+00
  0.00000000E+00  0.00000000E+00  0.00000000E+00
  0.00000000E+00  0.00000000E+00  0.00000000E+00
  0.00000000E+00  0.00000000E+00  0.00000000E+00
  0.00000000E+00  0.00000000E+00  0.00000000E+00
  0.00000000E+00  0.00000000E+00  0.00000000E+00
  0.00000000E+00  0.00000000E+00  0.00000000E+00
  0.00000000E+00  0.00000000E+00  0.00000000E+00
  0.00000000E+00  0.00000000E+00  0.00000000E+00
  0.00000000E+00  0.00000000E+00  0.00000000E+00
  0.00000000E+00  0.00000000E+00  0.00000000E+00
  0.00000000E+00  0.00000000E+00  0.00000000E+00
  0.00000000E+00  0.00000000E+00  0.00000000E+00
  0.00000000E+00  0.00000000E+00  0.00000000E+00
  0.00000000E+00  0.00000000E+00  0.00000000E+00
  0.00000000E+00  0.00000000E+00  0.00000000E+00
  0.00000000E+00  0.00000000E+00  0.00000000E+00
  0.00000000E+00  0.00000000E+00  0.00000000E+00
  0.00000000E+00  0.00000000E+00  0.00000000E+00
  0.00000000E+00  0.00000000E+00  0.00000000E+00
  0.00000000E+00  0.00000000E+00  0.00000000E+00
  0.00000000E+00  0.00000000E+00  0.00000000E+00
  0.00000000E+00  0.00000000E+00  0.00000000E+00
  0.00000000E+00  0.00000000E+00  0.00000000E+00
  0.00000000E+00  0.00000000E+00  0.00000000E+00
  0.00000000E+00  0.00000000E+00  0.00000000E+00
  0.00000000E+00  0.00000000E+00  0.00000000E+00
  0.00000000E+00  0.00000000E+00  0.00000000E+00
  0.00000000E+00  0.00000000E+00  0.00000000E+00
  0.00000000E+00  0.00000000E+00  0.00000000E+00
  0.00000000E+00  0.00000000E+00  0.00000000E+00
  0.00000000E+00  0.00000000E+00  0.00000000E+00
  0.00000000E+00  0.00000000E+00  0.00000000E+00
  0.00000000E+00  0.00000000E+00  0.00000000E+00
  0.00000000E+00  0.00000000E+00  0.00000000E+00
  0.00000000E+00  0.00000000E+00  0.00000000E+00
  0.00000000E+00  0.00000000E+00  0.00000000E+00
