an6                                     
   1.00000000000000     
    12.3312997818000003    0.0000000000000000    0.0000000000000000
     0.0001127485000000   12.8291997905000006    0.0000000000000000
     0.0005937186000000    0.0011528207000000   19.9943999824000009
   C    N    Fe   Ni
    54     2     1     1
Direct
  0.0561969235467579  0.0543813624396508  0.0557760411563433
  0.1563357770038262  0.1102638227880306  0.0557956621168816
  0.1570365468741586  0.2212183270023784  0.0557821639419992
  0.0572962245159686  0.2759585104520250  0.0557555527684601
  0.2563409223667649  0.0558875583947740  0.0558071483460166
  0.3564907772395908  0.1122797570139986  0.0557700730463650
  0.3570136739867955  0.2241420411086242  0.0557371726309245
  0.2565764361368059  0.2776020292989636  0.0557675440326280
  0.4557045370570615  0.0563944557891820  0.0557395591569988
  0.5554967071913154  0.1130928164155050  0.0556961233707149
  0.5560593229290709  0.2251153481903424  0.0556654041390504
  0.4562036979484962  0.2828729971994141  0.0556688156781092
  0.6552725098957860  0.0542162621695181  0.0556877587783463
  0.7559670925086505  0.1098945191795417  0.0557023293995089
  0.7571427086846098  0.2214082941881801  0.0556977173171201
  0.6576444017297965  0.2800254384310039  0.0556614860240029
  0.8552767153283095  0.0530876468363278  0.0557080041836227
  0.9559466289758470  0.1088209065107135  0.0557381792599040
  0.9572773655274595  0.2199071149397248  0.0557284031722775
  0.8580604978795300  0.2756555877966691  0.0556981426027920
  0.0588624710319045  0.3871395829685087  0.0557467670862957
  0.1574591332146947  0.4436661915708316  0.0557688655571069
  0.1569591662378662  0.5547385029924820  0.0557821414203719
  0.0571987890489806  0.6099522521842259  0.0557674364250523
  0.2570783676166140  0.3888162130618333  0.0557597690841614
  0.3569005294892698  0.4436328529404487  0.0557161851637081
  0.3572593317909342  0.5571299107369648  0.0557176861633564
  0.2559920851730336  0.6107175388673359  0.0557755646537750
  0.7632194676863723  0.4433307172322685  0.0556604415660893
  0.8613821880694498  0.3863805080733159  0.0556806366168145
  0.9596860766962493  0.4424440394900929  0.0557075245566239
  0.9583311509028264  0.5534911214147218  0.0557107563041028
  0.8578032851282963  0.6079108255764998  0.0556734105771654
  0.0559882242312126  0.7213763976342479  0.0557848666077456
  0.1547393670061952  0.7773708182670791  0.0558140366087685
  0.1553953634814655  0.8887323076894744  0.0558235084097608
  0.0554488311442825  0.9435386197481407  0.0557895656365280
  0.2540230778736586  0.7218484030606530  0.0557905123461529
  0.3527710307146706  0.7772585710810982  0.0557543924209767
  0.3549239408442295  0.8888780729311525  0.0557783595401835
  0.2553330164519598  0.9445135676290163  0.0558210135034618
  0.4513389517492416  0.7200609995923669  0.0556672592300306
  0.5533228343408289  0.8869431493092769  0.0556597540165157
  0.4546700185574076  0.9448632922457699  0.0557345249672296
  0.7537709002252458  0.8830542600802820  0.0556456187731742
  0.6546035528479052  0.9425130475217952  0.0556573685883419
  0.8570224701197204  0.7207395085971463  0.0556832567884627
  0.9560215735463420  0.7766474724005614  0.0557443669776762
  0.9552382028347691  0.8875945419886653  0.0557411129945493
  0.8542592628676657  0.9411465388512797  0.0556885363107704
  0.6639287602664836  0.3891130453505235  0.0556504610067862
  0.7585963869254556  0.5540947709066129  0.0556480262905333
  0.5499959396423136  0.7773969335142468  0.0556148906615383
  0.7556795860315362  0.7709662088316158  0.0556281252394001
  0.4538395267738823  0.3915994777268037  0.0556563479856085
  0.4534359262556236  0.6103297409168403  0.0556481217626666
  0.6398761107916938  0.6630712192571486  0.0555986646094555
  0.5656356780631355  0.4933139296140853  0.0556168544269595
 
  0.00000000E+00  0.00000000E+00  0.00000000E+00
  0.00000000E+00  0.00000000E+00  0.00000000E+00
  0.00000000E+00  0.00000000E+00  0.00000000E+00
  0.00000000E+00  0.00000000E+00  0.00000000E+00
  0.00000000E+00  0.00000000E+00  0.00000000E+00
  0.00000000E+00  0.00000000E+00  0.00000000E+00
  0.00000000E+00  0.00000000E+00  0.00000000E+00
  0.00000000E+00  0.00000000E+00  0.00000000E+00
  0.00000000E+00  0.00000000E+00  0.00000000E+00
  0.00000000E+00  0.00000000E+00  0.00000000E+00
  0.00000000E+00  0.00000000E+00  0.00000000E+00
  0.00000000E+00  0.00000000E+00  0.00000000E+00
  0.00000000E+00  0.00000000E+00  0.00000000E+00
  0.00000000E+00  0.00000000E+00  0.00000000E+00
  0.00000000E+00  0.00000000E+00  0.00000000E+00
  0.00000000E+00  0.00000000E+00  0.00000000E+00
  0.00000000E+00  0.00000000E+00  0.00000000E+00
  0.00000000E+00  0.00000000E+00  0.00000000E+00
  0.00000000E+00  0.00000000E+00  0.00000000E+00
  0.00000000E+00  0.00000000E+00  0.00000000E+00
  0.00000000E+00  0.00000000E+00  0.00000000E+00
  0.00000000E+00  0.00000000E+00  0.00000000E+00
  0.00000000E+00  0.00000000E+00  0.00000000E+00
  0.00000000E+00  0.00000000E+00  0.00000000E+00
  0.00000000E+00  0.00000000E+00  0.00000000E+00
  0.00000000E+00  0.00000000E+00  0.00000000E+00
  0.00000000E+00  0.00000000E+00  0.00000000E+00
  0.00000000E+00  0.00000000E+00  0.00000000E+00
  0.00000000E+00  0.00000000E+00  0.00000000E+00
  0.00000000E+00  0.00000000E+00  0.00000000E+00
  0.00000000E+00  0.00000000E+00  0.00000000E+00
  0.00000000E+00  0.00000000E+00  0.00000000E+00
  0.00000000E+00  0.00000000E+00  0.00000000E+00
  0.00000000E+00  0.00000000E+00  0.00000000E+00
  0.00000000E+00  0.00000000E+00  0.00000000E+00
  0.00000000E+00  0.00000000E+00  0.00000000E+00
  0.00000000E+00  0.00000000E+00  0.00000000E+00
  0.00000000E+00  0.00000000E+00  0.00000000E+00
  0.00000000E+00  0.00000000E+00  0.00000000E+00
  0.00000000E+00  0.00000000E+00  0.00000000E+00
  0.00000000E+00  0.00000000E+00  0.00000000E+00
  0.00000000E+00  0.00000000E+00  0.00000000E+00
  0.00000000E+00  0.00000000E+00  0.00000000E+00
  0.00000000E+00  0.00000000E+00  0.00000000E+00
  0.00000000E+00  0.00000000E+00  0.00000000E+00
  0.00000000E+00  0.00000000E+00  0.00000000E+00
  0.00000000E+00  0.00000000E+00  0.00000000E+00
  0.00000000E+00  0.00000000E+00  0.00000000E+00
  0.00000000E+00  0.00000000E+00  0.00000000E+00
  0.00000000E+00  0.00000000E+00  0.00000000E+00
  0.00000000E+00  0.00000000E+00  0.00000000E+00
  0.00000000E+00  0.00000000E+00  0.00000000E+00
  0.00000000E+00  0.00000000E+00  0.00000000E+00
  0.00000000E+00  0.00000000E+00  0.00000000E+00
  0.00000000E+00  0.00000000E+00  0.00000000E+00
  0.00000000E+00  0.00000000E+00  0.00000000E+00
  0.00000000E+00  0.00000000E+00  0.00000000E+00
  0.00000000E+00  0.00000000E+00  0.00000000E+00
