CONTCAR\(2)\(3)                         
   1.00000000000000     
    12.3312997818000003    0.0000000000000000    0.0000000000000000
     0.0001127485000000   12.8291997905000006    0.0000000000000000
     0.0005937186000000    0.0011528207000000   19.9943999824000009
   C    N    Fe   Ni   O 
    53     3     1     1     2
Direct
  0.0556680661869238  0.0557876269501855  0.0489393076039040
  0.1560489860495657  0.1111874038864256  0.0482741527403120
  0.1560880403763117  0.2221774298915546  0.0475308703141176
  0.0557917975379927  0.2770551051999918  0.0472852704040497
  0.2561538711073678  0.0562004146625333  0.0492010451861794
  0.3566203466068484  0.1114382340045608  0.0515591363879381
  0.3562981270478897  0.2233790180299415  0.0515592226900380
  0.2560395272996831  0.2778260786973361  0.0483880011484487
  0.4561687764745009  0.0549655103490163  0.0543482484553693
  0.5551740276057937  0.1119054376625642  0.0576023723459910
  0.5551966882610603  0.2246531664918505  0.0597380142952833
  0.4551409028891443  0.2817243360637485  0.0559561009012513
  0.6541919264002642  0.0524693974387255  0.0582344694417249
  0.7545190308380119  0.1097325450984575  0.0562460888575237
  0.7553955730505932  0.2219008863837456  0.0566907329417970
  0.6561641830317824  0.2805366477880068  0.0623141942737065
  0.8547057500274130  0.0540785810304401  0.0533722771311450
  0.9548723409796046  0.1104198858518686  0.0504385951914928
  0.9551921853505895  0.2218499958167520  0.0497358102860354
  0.8553414530222718  0.2779607335930496  0.0527207451460371
  0.0566857292943967  0.3879688361574252  0.0461569352080190
  0.1564981332652028  0.4439288017020898  0.0456796761107204
  0.1570208342307276  0.5549460530483552  0.0456265524585953
  0.0580520138314411  0.6106953837463108  0.0463587055047274
  0.2563480172562084  0.3892482662016828  0.0474705792870731
  0.3566316635580055  0.4442337781928655  0.0505273390264714
  0.3575511478723697  0.5579924750760826  0.0510155148591715
  0.2564793028287241  0.6107587200009321  0.0472474024832102
  0.7577935955144359  0.4488964151151329  0.0594279991674220
  0.8568116690533396  0.3897852883395437  0.0520262307601834
  0.9571421286599384  0.4436354585455706  0.0478497806037233
  0.9585723503329144  0.5545843988761289  0.0483292243495267
  0.8604366679480822  0.6103060901281838  0.0533283972718440
  0.0576069112495966  0.7219906885566975  0.0470712507626065
  0.1561748421254362  0.7779680305442490  0.0468173644454148
  0.1558821428606535  0.8893940659327969  0.0477020052786163
  0.0558216596015588  0.9449206189354150  0.0489464573230640
  0.2550624636245178  0.7218783701058117  0.0476389940788345
  0.3537091290501345  0.7774140313039585  0.0498355787909893
  0.3550636988151299  0.8886215031128796  0.0501327678946360
  0.2557062229396321  0.9448362101424592  0.0486291496395011
  0.4516228934941847  0.7199253526261855  0.0539979297397630
  0.5530848435396091  0.8823184480999775  0.0566911751585511
  0.4556399989467481  0.9425143808659823  0.0535928392167377
  0.7553254872229003  0.8833648151573172  0.0600446829641399
  0.6538890695107815  0.9392900152288775  0.0592640104202332
  0.8609971965294116  0.7222153491477856  0.0555378915019217
  0.9584745495387178  0.7781111947014954  0.0503830983782896
  0.9561239947203198  0.8890420429416389  0.0512686898273824
  0.8548671108153397  0.9422722448136565  0.0545126603667977
  0.6618061606162331  0.3897662424221922  0.0688632664049028
  0.7591792717329086  0.5611328565111414  0.0595983138789903
  0.7608621062222175  0.7726635095727098  0.0645946533724764
  0.4526753550203461  0.3902350914592024  0.0561904482067586
  0.5489131082555841  0.7728604543741517  0.0562948004034567
  0.4533209254898510  0.6125016870090860  0.0567081204257347
  0.6537182080162404  0.6708120669725515  0.0838671825313816
  0.5553271383830019  0.4831235482474465  0.0884181147784501
  0.6062871317418803  0.5294676639970168  0.1699027314373975
  0.6465934421476567  0.6323810351962841  0.1662668359399534
 
  0.00000000E+00  0.00000000E+00  0.00000000E+00
  0.00000000E+00  0.00000000E+00  0.00000000E+00
  0.00000000E+00  0.00000000E+00  0.00000000E+00
  0.00000000E+00  0.00000000E+00  0.00000000E+00
  0.00000000E+00  0.00000000E+00  0.00000000E+00
  0.00000000E+00  0.00000000E+00  0.00000000E+00
  0.00000000E+00  0.00000000E+00  0.00000000E+00
  0.00000000E+00  0.00000000E+00  0.00000000E+00
  0.00000000E+00  0.00000000E+00  0.00000000E+00
  0.00000000E+00  0.00000000E+00  0.00000000E+00
  0.00000000E+00  0.00000000E+00  0.00000000E+00
  0.00000000E+00  0.00000000E+00  0.00000000E+00
  0.00000000E+00  0.00000000E+00  0.00000000E+00
  0.00000000E+00  0.00000000E+00  0.00000000E+00
  0.00000000E+00  0.00000000E+00  0.00000000E+00
  0.00000000E+00  0.00000000E+00  0.00000000E+00
  0.00000000E+00  0.00000000E+00  0.00000000E+00
  0.00000000E+00  0.00000000E+00  0.00000000E+00
  0.00000000E+00  0.00000000E+00  0.00000000E+00
  0.00000000E+00  0.00000000E+00  0.00000000E+00
  0.00000000E+00  0.00000000E+00  0.00000000E+00
  0.00000000E+00  0.00000000E+00  0.00000000E+00
  0.00000000E+00  0.00000000E+00  0.00000000E+00
  0.00000000E+00  0.00000000E+00  0.00000000E+00
  0.00000000E+00  0.00000000E+00  0.00000000E+00
  0.00000000E+00  0.00000000E+00  0.00000000E+00
  0.00000000E+00  0.00000000E+00  0.00000000E+00
  0.00000000E+00  0.00000000E+00  0.00000000E+00
  0.00000000E+00  0.00000000E+00  0.00000000E+00
  0.00000000E+00  0.00000000E+00  0.00000000E+00
  0.00000000E+00  0.00000000E+00  0.00000000E+00
  0.00000000E+00  0.00000000E+00  0.00000000E+00
  0.00000000E+00  0.00000000E+00  0.00000000E+00
  0.00000000E+00  0.00000000E+00  0.00000000E+00
  0.00000000E+00  0.00000000E+00  0.00000000E+00
  0.00000000E+00  0.00000000E+00  0.00000000E+00
  0.00000000E+00  0.00000000E+00  0.00000000E+00
  0.00000000E+00  0.00000000E+00  0.00000000E+00
  0.00000000E+00  0.00000000E+00  0.00000000E+00
  0.00000000E+00  0.00000000E+00  0.00000000E+00
  0.00000000E+00  0.00000000E+00  0.00000000E+00
  0.00000000E+00  0.00000000E+00  0.00000000E+00
  0.00000000E+00  0.00000000E+00  0.00000000E+00
  0.00000000E+00  0.00000000E+00  0.00000000E+00
  0.00000000E+00  0.00000000E+00  0.00000000E+00
  0.00000000E+00  0.00000000E+00  0.00000000E+00
  0.00000000E+00  0.00000000E+00  0.00000000E+00
  0.00000000E+00  0.00000000E+00  0.00000000E+00
  0.00000000E+00  0.00000000E+00  0.00000000E+00
  0.00000000E+00  0.00000000E+00  0.00000000E+00
  0.00000000E+00  0.00000000E+00  0.00000000E+00
  0.00000000E+00  0.00000000E+00  0.00000000E+00
  0.00000000E+00  0.00000000E+00  0.00000000E+00
  0.00000000E+00  0.00000000E+00  0.00000000E+00
  0.00000000E+00  0.00000000E+00  0.00000000E+00
  0.00000000E+00  0.00000000E+00  0.00000000E+00
  0.00000000E+00  0.00000000E+00  0.00000000E+00
  0.00000000E+00  0.00000000E+00  0.00000000E+00
  0.00000000E+00  0.00000000E+00  0.00000000E+00
  0.00000000E+00  0.00000000E+00  0.00000000E+00
