CONTCAR\(8)                             
   1.00000000000000     
    12.3312997818000003    0.0000000000000000    0.0000000000000000
     0.0001127485000000   12.8291997905000006    0.0000000000000000
     0.0005937186000000    0.0011528207000000   19.9943999824000009
   C    N    Fe   Ni   H 
    54     2     1     1     1
Direct
  0.0553388223929122  0.0545620279480511  0.0544281053564641
  0.1555935680551523  0.1104788133170728  0.0546822059354092
  0.1568152362724374  0.2213089774544418  0.0540928005135793
  0.0568391819274855  0.2758645612979155  0.0527836786249293
  0.2558491013361319  0.0560490935820789  0.0554199718785064
  0.3564485027312024  0.1115333882893279  0.0574215630900915
  0.3575344676024447  0.2231480278500263  0.0578315110190616
  0.2570971660421999  0.2773623607114851  0.0550438720689494
  0.4560787537195251  0.0555202507608903  0.0589542796254507
  0.5565951601042088  0.1113746421238164  0.0608727676657803
  0.5575709300456706  0.2231694454353558  0.0623162996548119
  0.4577189765895475  0.2805308042801869  0.0609506026862580
  0.6554087056691020  0.0519573862458375  0.0602922726529804
  0.7553250885589602  0.1089953703169933  0.0583947236130237
  0.7565068177215082  0.2214553835254596  0.0580440362315716
  0.6582696940696653  0.2807978515090461  0.0619926719805702
  0.8546063837344072  0.0524981886086656  0.0565824660885911
  0.9549908953306893  0.1090530264556205  0.0549381144738120
  0.9562770535424060  0.2205140186962099  0.0538827312574733
  0.8566258548757191  0.2766901560112139  0.0546990316909705
  0.0584491916341662  0.3869704457897589  0.0513396465501302
  0.1573920915632811  0.4433846795661658  0.0512839088622483
  0.1575466109405456  0.5548907427974015  0.0505513995059111
  0.0578949985933270  0.6098877369215125  0.0502735371487979
  0.2573691763001831  0.3884845930720430  0.0533687363520215
  0.3567470895059677  0.4447117906963927  0.0553834718759810
  0.3579188819165600  0.5582013622205600  0.0533499457930504
  0.2565198743732321  0.6117660355687637  0.0511957695182171
  0.7608966051798527  0.4474628705886715  0.0560528090137064
  0.8589217192814351  0.3883667448624395  0.0528815399207497
  0.9591397588049277  0.4422783617994032  0.0509994605749835
  0.9595016992891197  0.5527347240822773  0.0507319929388192
  0.8595888578981766  0.6066474860114012  0.0523263229873987
  0.0565327304959734  0.7212118214558153  0.0509426188655710
  0.1547151851717943  0.7777696974866256  0.0511249402769913
  0.1546248829984308  0.8889433941482211  0.0526339854776587
  0.0545031919958089  0.9434181435214484  0.0537127327940106
  0.2542188983130312  0.7225188708937604  0.0509754907668084
  0.3520977490225431  0.7793420461260623  0.0527140998528674
  0.3537098473989207  0.8900082657511152  0.0545973900282837
  0.2543778278422868  0.9452545526337988  0.0540213226592030
  0.4505873845106549  0.7240793576272655  0.0560292893172113
  0.5525128688905353  0.8845869552649746  0.0602304034287413
  0.4542978049066573  0.9440476881187175  0.0578895800245361
  0.7538840504834748  0.8809637165228302  0.0590226930875056
  0.6546709198963304  0.9394214379390802  0.0605319292961354
  0.8581267332485617  0.7188146979107878  0.0540217367514666
  0.9565001052972425  0.7756500323000113  0.0527789552371876
  0.9548591253807072  0.8867700285784005  0.0543043678016185
  0.8535973783774662  0.9400570732227960  0.0566753028902544
  0.4561759985981783  0.3917427310423066  0.0609969361009428
  0.4568917926971168  0.6134870259093900  0.0565048677839868
  0.6613474312988481  0.3916864219414998  0.0645586152771488
  0.7563961276189805  0.7678777932987723  0.0583955028380965
  0.7627399330628603  0.5566669041060607  0.0547258062503898
  0.5472974269888171  0.7781816464478665  0.0607502442428637
  0.6428615868704191  0.6651909583035276  0.0637091457382568
  0.5614546790129340  0.4945262537281412  0.0751092312561760
  0.6131113430192986  0.5858011733242455  0.1257005708057786
 
  0.00000000E+00  0.00000000E+00  0.00000000E+00
  0.00000000E+00  0.00000000E+00  0.00000000E+00
  0.00000000E+00  0.00000000E+00  0.00000000E+00
  0.00000000E+00  0.00000000E+00  0.00000000E+00
  0.00000000E+00  0.00000000E+00  0.00000000E+00
  0.00000000E+00  0.00000000E+00  0.00000000E+00
  0.00000000E+00  0.00000000E+00  0.00000000E+00
  0.00000000E+00  0.00000000E+00  0.00000000E+00
  0.00000000E+00  0.00000000E+00  0.00000000E+00
  0.00000000E+00  0.00000000E+00  0.00000000E+00
  0.00000000E+00  0.00000000E+00  0.00000000E+00
  0.00000000E+00  0.00000000E+00  0.00000000E+00
  0.00000000E+00  0.00000000E+00  0.00000000E+00
  0.00000000E+00  0.00000000E+00  0.00000000E+00
  0.00000000E+00  0.00000000E+00  0.00000000E+00
  0.00000000E+00  0.00000000E+00  0.00000000E+00
  0.00000000E+00  0.00000000E+00  0.00000000E+00
  0.00000000E+00  0.00000000E+00  0.00000000E+00
  0.00000000E+00  0.00000000E+00  0.00000000E+00
  0.00000000E+00  0.00000000E+00  0.00000000E+00
  0.00000000E+00  0.00000000E+00  0.00000000E+00
  0.00000000E+00  0.00000000E+00  0.00000000E+00
  0.00000000E+00  0.00000000E+00  0.00000000E+00
  0.00000000E+00  0.00000000E+00  0.00000000E+00
  0.00000000E+00  0.00000000E+00  0.00000000E+00
  0.00000000E+00  0.00000000E+00  0.00000000E+00
  0.00000000E+00  0.00000000E+00  0.00000000E+00
  0.00000000E+00  0.00000000E+00  0.00000000E+00
  0.00000000E+00  0.00000000E+00  0.00000000E+00
  0.00000000E+00  0.00000000E+00  0.00000000E+00
  0.00000000E+00  0.00000000E+00  0.00000000E+00
  0.00000000E+00  0.00000000E+00  0.00000000E+00
  0.00000000E+00  0.00000000E+00  0.00000000E+00
  0.00000000E+00  0.00000000E+00  0.00000000E+00
  0.00000000E+00  0.00000000E+00  0.00000000E+00
  0.00000000E+00  0.00000000E+00  0.00000000E+00
  0.00000000E+00  0.00000000E+00  0.00000000E+00
  0.00000000E+00  0.00000000E+00  0.00000000E+00
  0.00000000E+00  0.00000000E+00  0.00000000E+00
  0.00000000E+00  0.00000000E+00  0.00000000E+00
  0.00000000E+00  0.00000000E+00  0.00000000E+00
  0.00000000E+00  0.00000000E+00  0.00000000E+00
  0.00000000E+00  0.00000000E+00  0.00000000E+00
  0.00000000E+00  0.00000000E+00  0.00000000E+00
  0.00000000E+00  0.00000000E+00  0.00000000E+00
  0.00000000E+00  0.00000000E+00  0.00000000E+00
  0.00000000E+00  0.00000000E+00  0.00000000E+00
  0.00000000E+00  0.00000000E+00  0.00000000E+00
  0.00000000E+00  0.00000000E+00  0.00000000E+00
  0.00000000E+00  0.00000000E+00  0.00000000E+00
  0.00000000E+00  0.00000000E+00  0.00000000E+00
  0.00000000E+00  0.00000000E+00  0.00000000E+00
  0.00000000E+00  0.00000000E+00  0.00000000E+00
  0.00000000E+00  0.00000000E+00  0.00000000E+00
  0.00000000E+00  0.00000000E+00  0.00000000E+00
  0.00000000E+00  0.00000000E+00  0.00000000E+00
  0.00000000E+00  0.00000000E+00  0.00000000E+00
  0.00000000E+00  0.00000000E+00  0.00000000E+00
  0.00000000E+00  0.00000000E+00  0.00000000E+00
