POSCAR\(2)                              
   1.00000000000000     
    12.3312997818000003    0.0000000000000000    0.0000000000000000
     0.0001127485000000   12.8291997905000006    0.0000000000000000
     0.0005937186000000    0.0011528207000000   19.9943999824000009
   C    N    Fe   Ni
    51     5     1     1
Direct
  0.0557799629398808  0.0542787766268032  0.0557773784321760
  0.1561694069351504  0.1096751702722008  0.0557806262807977
  0.1560340611242514  0.2204399999339947  0.0557653859261334
  0.0562147984536433  0.2758698822621138  0.0557525329900828
  0.2568645909250527  0.0551401654023143  0.0557947618362478
  0.3571733903263512  0.1111917107236849  0.0557680788695018
  0.3564388100123043  0.2229353085082351  0.0557493424534868
  0.2555420064591315  0.2764380148379818  0.0557629071938711
  0.4576861094750557  0.0558191498711810  0.0557358303536537
  0.5573323930577324  0.1142064288107251  0.0556864094016972
  0.5576629915757196  0.2290617965403326  0.0556710238301305
  0.4546869015411681  0.2835871233701114  0.0556914501077555
  0.6558879208706700  0.0533283428873540  0.0556765000575283
  0.7549451566222130  0.1110260706737165  0.0557053055281617
  0.7557627949278510  0.2240098988467207  0.0557056253653217
  0.6587498653485752  0.2863650205297478  0.0556694768499184
  0.8546691601369577  0.0538527284219233  0.0557210847641664
  0.9554015294146725  0.1090860949470261  0.0557495223327488
  0.9562334145775186  0.2205016014803770  0.0557428370693727
  0.8571414416932930  0.2771455034743913  0.0557263721861026
  0.0571805308147391  0.3869483075042639  0.0557553189360019
  0.1555938009562657  0.4432745049901404  0.0557696084940072
  0.1557770015369730  0.5539675120970976  0.0557746567978575
  0.0574882983274589  0.6105226226073256  0.0557651897144500
  0.2544373705086344  0.3875152223858942  0.0557592110432053
  0.3532579184364404  0.4420331577139855  0.0557168651365714
  0.3534386685387394  0.5548796162163986  0.0557160576254292
  0.2544355606980837  0.6099976103086101  0.0557654138465449
  0.7629431955778688  0.4465098192303136  0.0556678177504076
  0.8601452162345898  0.3881639728287175  0.0557078417577601
  0.9589995814803159  0.4432472090974309  0.0557316627270401
  0.9590296657566921  0.5543650532049790  0.0557265963137007
  0.8598517765195123  0.6083038862810949  0.0556681135913343
  0.0565739716413049  0.7211283130874953  0.0557788394152901
  0.1551331409689845  0.7774734944808185  0.0557964975396585
  0.1561352442927833  0.8883508552292287  0.0558040664900852
  0.0558095608141574  0.9434206736643129  0.0557875003662982
  0.2537545661289884  0.7213212978759047  0.0557723976979513
  0.3527299946974766  0.7759792777227130  0.0557368151235837
  0.3560645413487284  0.8877371089411198  0.0557645809462250
  0.2564102965341242  0.9437208591267500  0.0558013024387001
  0.4500440871186669  0.7167177642983089  0.0556665722130573
  0.5548642458620094  0.8826040890799268  0.0556542957221994
  0.4569178725957590  0.9431100275937514  0.0557280738903828
  0.7565228906245050  0.8815973652284610  0.0556441761976324
  0.6557378938022631  0.9390963098412544  0.0556415834598308
  0.8584240480019596  0.7207681332770818  0.0556735111275659
  0.9570184968321259  0.7762878851274173  0.0557421241382606
  0.9562079120195605  0.8876702842673763  0.0557473652111699
  0.8549978293941152  0.9414386489696286  0.0557003554921125
  0.5498683815153075  0.7709396389978462  0.0556253328425012
  0.4496881014202072  0.3903951121591285  0.0556768332009519
  0.6650456584991357  0.3964273676951622  0.0556549254877144
  0.7635445673979585  0.5541025372042528  0.0556334474042664
  0.7603586249321245  0.7723905693641535  0.0556169582035796
  0.4500431860188828  0.6074181710777343  0.0556565364065311
  0.6484738534571418  0.6614067840802251  0.0556129971624669
  0.5580456762782180  0.5034101077227581  0.0556461092587697
 
  0.00000000E+00  0.00000000E+00  0.00000000E+00
  0.00000000E+00  0.00000000E+00  0.00000000E+00
  0.00000000E+00  0.00000000E+00  0.00000000E+00
  0.00000000E+00  0.00000000E+00  0.00000000E+00
  0.00000000E+00  0.00000000E+00  0.00000000E+00
  0.00000000E+00  0.00000000E+00  0.00000000E+00
  0.00000000E+00  0.00000000E+00  0.00000000E+00
  0.00000000E+00  0.00000000E+00  0.00000000E+00
  0.00000000E+00  0.00000000E+00  0.00000000E+00
  0.00000000E+00  0.00000000E+00  0.00000000E+00
  0.00000000E+00  0.00000000E+00  0.00000000E+00
  0.00000000E+00  0.00000000E+00  0.00000000E+00
  0.00000000E+00  0.00000000E+00  0.00000000E+00
  0.00000000E+00  0.00000000E+00  0.00000000E+00
  0.00000000E+00  0.00000000E+00  0.00000000E+00
  0.00000000E+00  0.00000000E+00  0.00000000E+00
  0.00000000E+00  0.00000000E+00  0.00000000E+00
  0.00000000E+00  0.00000000E+00  0.00000000E+00
  0.00000000E+00  0.00000000E+00  0.00000000E+00
  0.00000000E+00  0.00000000E+00  0.00000000E+00
  0.00000000E+00  0.00000000E+00  0.00000000E+00
  0.00000000E+00  0.00000000E+00  0.00000000E+00
  0.00000000E+00  0.00000000E+00  0.00000000E+00
  0.00000000E+00  0.00000000E+00  0.00000000E+00
  0.00000000E+00  0.00000000E+00  0.00000000E+00
  0.00000000E+00  0.00000000E+00  0.00000000E+00
  0.00000000E+00  0.00000000E+00  0.00000000E+00
  0.00000000E+00  0.00000000E+00  0.00000000E+00
  0.00000000E+00  0.00000000E+00  0.00000000E+00
  0.00000000E+00  0.00000000E+00  0.00000000E+00
  0.00000000E+00  0.00000000E+00  0.00000000E+00
  0.00000000E+00  0.00000000E+00  0.00000000E+00
  0.00000000E+00  0.00000000E+00  0.00000000E+00
  0.00000000E+00  0.00000000E+00  0.00000000E+00
  0.00000000E+00  0.00000000E+00  0.00000000E+00
  0.00000000E+00  0.00000000E+00  0.00000000E+00
  0.00000000E+00  0.00000000E+00  0.00000000E+00
  0.00000000E+00  0.00000000E+00  0.00000000E+00
  0.00000000E+00  0.00000000E+00  0.00000000E+00
  0.00000000E+00  0.00000000E+00  0.00000000E+00
  0.00000000E+00  0.00000000E+00  0.00000000E+00
  0.00000000E+00  0.00000000E+00  0.00000000E+00
  0.00000000E+00  0.00000000E+00  0.00000000E+00
  0.00000000E+00  0.00000000E+00  0.00000000E+00
  0.00000000E+00  0.00000000E+00  0.00000000E+00
  0.00000000E+00  0.00000000E+00  0.00000000E+00
  0.00000000E+00  0.00000000E+00  0.00000000E+00
  0.00000000E+00  0.00000000E+00  0.00000000E+00
  0.00000000E+00  0.00000000E+00  0.00000000E+00
  0.00000000E+00  0.00000000E+00  0.00000000E+00
  0.00000000E+00  0.00000000E+00  0.00000000E+00
  0.00000000E+00  0.00000000E+00  0.00000000E+00
  0.00000000E+00  0.00000000E+00  0.00000000E+00
  0.00000000E+00  0.00000000E+00  0.00000000E+00
  0.00000000E+00  0.00000000E+00  0.00000000E+00
  0.00000000E+00  0.00000000E+00  0.00000000E+00
  0.00000000E+00  0.00000000E+00  0.00000000E+00
  0.00000000E+00  0.00000000E+00  0.00000000E+00
