CONTCAR                                 
   1.00000000000000     
    12.3312997818000003    0.0000000000000000    0.0000000000000000
     0.0001127485000000   12.8291997905000006    0.0000000000000000
     0.0005937186000000    0.0011528207000000   19.9943999824000009
   C    N    Fe   Ni   O    H 
    53     3     1     1     2     2
Direct
  0.0553656569012550  0.0538849608807954  0.0445936151833953
  0.1557010834943661  0.1092023434038798  0.0450332122019061
  0.1559007235516265  0.2202452439710700  0.0443873824712954
  0.0561014894677109  0.2755022797409821  0.0435793002519299
  0.2559125415062763  0.0541992798203122  0.0471966572643727
  0.3561582224081564  0.1099769267979271  0.0500043886338259
  0.3559012456048486  0.2216682069003467  0.0500414434020076
  0.2557637022172061  0.2761933806587040  0.0463436492606813
  0.4558788477353665  0.0544645038609806  0.0533039634082033
  0.5553143367609272  0.1121896225850942  0.0559497412457470
  0.5557758615590827  0.2242253960619630  0.0584002582017025
  0.4544202049589846  0.2798926787131815  0.0555241648286467
  0.6550081645495077  0.0535990498364701  0.0549605019078098
  0.7550482224853403  0.1098483446297957  0.0514733177605407
  0.7558139739395118  0.2218217954079305  0.0524548446032291
  0.6573289650270946  0.2806803748237676  0.0598717440463229
  0.8547374690909429  0.0535329511389193  0.0479182798294701
  0.9550998608935289  0.1092496811137127  0.0454543189114720
  0.9555679887757151  0.2205809039954631  0.0452080809258565
  0.8558736568911147  0.2767882602730303  0.0485214001926619
  0.0574395487446844  0.3865224594253301  0.0430518546257700
  0.1565646834413148  0.4426927221528905  0.0434054584394427
  0.1567402169281071  0.5537170486666243  0.0437630356300687
  0.0572898840399074  0.6093133966112853  0.0436705002314491
  0.2564045683339622  0.3874306080701581  0.0459346808298853
  0.3563706581995446  0.4418870816611440  0.0510531421497091
  0.3575844898584257  0.5562055477772466  0.0529191065168170
  0.2561479315778257  0.6094777638357762  0.0470650561796796
  0.7606236219307672  0.4474660713832032  0.0582535464483545
  0.8578033210707263  0.3882663358384875  0.0491146925682401
  0.9579916625906371  0.4422610100779626  0.0450931502453453
  0.9583693412490697  0.5527579944578357  0.0456270303404975
  0.8581202722788424  0.6064536293314845  0.0506055529133069
  0.0561961916115217  0.7205366362207940  0.0442519103059068
  0.1551098313666473  0.7764061851072638  0.0449698038133729
  0.1553912584625250  0.8876034781294307  0.0452779661210555
  0.0551590458527100  0.9427019034516101  0.0446666172605472
  0.2547691657624373  0.7205356163789201  0.0474629348068851
  0.3538287209683408  0.7756715884433055  0.0514858376550713
  0.3553649577630674  0.8872142566787167  0.0507888501839058
  0.2555549835750434  0.9430047654344614  0.0473871981126353
  0.4516473924474790  0.7171870379201255  0.0586234042535621
  0.5543403072209188  0.8837253778713207  0.0581941761088779
  0.4554517879266541  0.9424380087520177  0.0539642230501919
  0.7545350233963809  0.8846293470438106  0.0524681864150117
  0.6546861921899642  0.9416448071196120  0.0560454880145189
  0.8566228717107612  0.7193407725376914  0.0488182584928747
  0.9559449444014376  0.7754683293462904  0.0455900085000060
  0.9551083765257691  0.8867824939264577  0.0456207269494037
  0.8544350936370486  0.9417124153990791  0.0480441917291642
  0.6631093834098288  0.3902246901502557  0.0683385744007041
  0.5517411763463634  0.7730840694604070  0.0632287785619674
  0.7569882830046043  0.7732788262479611  0.0538911462916520
  0.4513405328955227  0.3876991011583188  0.0578935578832063
  0.4518587547282586  0.6091949012135399  0.0614190630685356
  0.7626834653985874  0.5555244576742644  0.0590604078767897
  0.6586634384696501  0.6764126683099061  0.0897706815739695
  0.5533361132031637  0.4684059071934203  0.1011072930887127
  0.5952861733947329  0.4963915855081739  0.1838915261524015
  0.6774865537365738  0.6891636049447206  0.1803671892175506
  0.6690073879583616  0.7586545443984557  0.1991704786237573
  0.6164600845732987  0.5690948670758851  0.1939744588381339
 
  0.00000000E+00  0.00000000E+00  0.00000000E+00
  0.00000000E+00  0.00000000E+00  0.00000000E+00
  0.00000000E+00  0.00000000E+00  0.00000000E+00
  0.00000000E+00  0.00000000E+00  0.00000000E+00
  0.00000000E+00  0.00000000E+00  0.00000000E+00
  0.00000000E+00  0.00000000E+00  0.00000000E+00
  0.00000000E+00  0.00000000E+00  0.00000000E+00
  0.00000000E+00  0.00000000E+00  0.00000000E+00
  0.00000000E+00  0.00000000E+00  0.00000000E+00
  0.00000000E+00  0.00000000E+00  0.00000000E+00
  0.00000000E+00  0.00000000E+00  0.00000000E+00
  0.00000000E+00  0.00000000E+00  0.00000000E+00
  0.00000000E+00  0.00000000E+00  0.00000000E+00
  0.00000000E+00  0.00000000E+00  0.00000000E+00
  0.00000000E+00  0.00000000E+00  0.00000000E+00
  0.00000000E+00  0.00000000E+00  0.00000000E+00
  0.00000000E+00  0.00000000E+00  0.00000000E+00
  0.00000000E+00  0.00000000E+00  0.00000000E+00
  0.00000000E+00  0.00000000E+00  0.00000000E+00
  0.00000000E+00  0.00000000E+00  0.00000000E+00
  0.00000000E+00  0.00000000E+00  0.00000000E+00
  0.00000000E+00  0.00000000E+00  0.00000000E+00
  0.00000000E+00  0.00000000E+00  0.00000000E+00
  0.00000000E+00  0.00000000E+00  0.00000000E+00
  0.00000000E+00  0.00000000E+00  0.00000000E+00
  0.00000000E+00  0.00000000E+00  0.00000000E+00
  0.00000000E+00  0.00000000E+00  0.00000000E+00
  0.00000000E+00  0.00000000E+00  0.00000000E+00
  0.00000000E+00  0.00000000E+00  0.00000000E+00
  0.00000000E+00  0.00000000E+00  0.00000000E+00
  0.00000000E+00  0.00000000E+00  0.00000000E+00
  0.00000000E+00  0.00000000E+00  0.00000000E+00
  0.00000000E+00  0.00000000E+00  0.00000000E+00
  0.00000000E+00  0.00000000E+00  0.00000000E+00
  0.00000000E+00  0.00000000E+00  0.00000000E+00
  0.00000000E+00  0.00000000E+00  0.00000000E+00
  0.00000000E+00  0.00000000E+00  0.00000000E+00
  0.00000000E+00  0.00000000E+00  0.00000000E+00
  0.00000000E+00  0.00000000E+00  0.00000000E+00
  0.00000000E+00  0.00000000E+00  0.00000000E+00
  0.00000000E+00  0.00000000E+00  0.00000000E+00
  0.00000000E+00  0.00000000E+00  0.00000000E+00
  0.00000000E+00  0.00000000E+00  0.00000000E+00
  0.00000000E+00  0.00000000E+00  0.00000000E+00
  0.00000000E+00  0.00000000E+00  0.00000000E+00
  0.00000000E+00  0.00000000E+00  0.00000000E+00
  0.00000000E+00  0.00000000E+00  0.00000000E+00
  0.00000000E+00  0.00000000E+00  0.00000000E+00
  0.00000000E+00  0.00000000E+00  0.00000000E+00
  0.00000000E+00  0.00000000E+00  0.00000000E+00
  0.00000000E+00  0.00000000E+00  0.00000000E+00
  0.00000000E+00  0.00000000E+00  0.00000000E+00
  0.00000000E+00  0.00000000E+00  0.00000000E+00
  0.00000000E+00  0.00000000E+00  0.00000000E+00
  0.00000000E+00  0.00000000E+00  0.00000000E+00
  0.00000000E+00  0.00000000E+00  0.00000000E+00
  0.00000000E+00  0.00000000E+00  0.00000000E+00
  0.00000000E+00  0.00000000E+00  0.00000000E+00
  0.00000000E+00  0.00000000E+00  0.00000000E+00
  0.00000000E+00  0.00000000E+00  0.00000000E+00
  0.00000000E+00  0.00000000E+00  0.00000000E+00
  0.00000000E+00  0.00000000E+00  0.00000000E+00
