CONTCAR\(3)                             
   1.00000000000000     
    12.3312997818000003    0.0000000000000000    0.0000000000000000
     0.0001127485000000   12.8291997905000006    0.0000000000000000
     0.0005937186000000    0.0011528207000000   19.9943999824000009
   C    N    Fe   Ni   O 
    53     3     1     1     2
Direct
  0.0565849153739077  0.0545431574971162  0.0508533611172933
  0.1566235520045803  0.1101842190267927  0.0511893738285852
  0.1564750433487796  0.2210991201861582  0.0502773759270999
  0.0567988392885073  0.2765182086175689  0.0487477137385563
  0.2571640092688286  0.0556554175299520  0.0529519151438411
  0.3573212241384676  0.1121771088661744  0.0551013567497653
  0.3569728413156912  0.2238433758229781  0.0548267937004271
  0.2559569155948587  0.2769393566604734  0.0515816697946856
  0.4572202704312880  0.0569409541068596  0.0577102580766094
  0.5571446240709990  0.1141221354149705  0.0590536281638043
  0.5571832795073214  0.2274691615854026  0.0595739912976009
  0.4556102981582430  0.2833906869006233  0.0581100271248534
  0.6567220456279707  0.0544076233476238  0.0581784450834550
  0.7563356207139059  0.1106947319360125  0.0550569641896800
  0.7575017645934087  0.2225533598515316  0.0543640418807993
  0.6595886645746014  0.2829476793137795  0.0582694797419712
  0.8556220608848611  0.0539473387590733  0.0530390892343724
  0.9562391685865089  0.1093736915902623  0.0510856388523268
  0.9570970848267644  0.2205135176039332  0.0498198557933551
  0.8578738365358503  0.2766511395355700  0.0508383101294925
  0.0571221599681472  0.3878560599388780  0.0473493276423983
  0.1558143710106107  0.4437194047069503  0.0479921764978612
  0.1559614505574839  0.5549949971667405  0.0480696734691134
  0.0565184566032478  0.6105628080114711  0.0472511767887361
  0.2549436038716015  0.3875070383263267  0.0503536889425187
  0.3537412756638714  0.4420170690873297  0.0539057496934448
  0.3557637125960220  0.5543304222153751  0.0544896025912867
  0.2557818013557313  0.6102699404489871  0.0506497455318593
  0.7607567242438688  0.4438390460044976  0.0524318785170851
  0.8593339516435493  0.3877104596198696  0.0492287425392516
  0.9578287986232702  0.4440164140778764  0.0468665285161242
  0.9568363148941150  0.5550367161820003  0.0466030234123034
  0.8556034277341394  0.6094094760117048  0.0480629354178243
  0.0562908350114927  0.7216536549061591  0.0484890499510110
  0.1556270985246010  0.7771730393267573  0.0498978256251506
  0.1565329051272799  0.8885123810891816  0.0509335247017913
  0.0565385699071104  0.9437088859707745  0.0506903016264201
  0.2553173868529334  0.7213183181686126  0.0513665690653944
  0.3545249663890100  0.7767420028770373  0.0553695281027920
  0.3565315294953081  0.8885210101180353  0.0555924873071261
  0.2566960222888209  0.9442636395870241  0.0529198609249439
  0.4534065691142615  0.7191160492605594  0.0618937484755418
  0.5554653957284589  0.8870842638498279  0.0622746228653650
  0.4562869407353473  0.9449425323831513  0.0584965002153046
  0.7566162218632759  0.8831137402031354  0.0562729949396866
  0.6568783543565188  0.9417972337573122  0.0596369761298639
  0.8564167284664176  0.7228452637074176  0.0502537167741996
  0.9562856300668442  0.7773712247416774  0.0496632341235863
  0.9564760560968765  0.8882051312592619  0.0510170289739361
  0.8556250991733342  0.9418359768537454  0.0532866754418227
  0.4558437916339529  0.6063661222266188  0.0616066403317246
  0.7565343621741774  0.5550159426187599  0.0506633796892581
  0.5501159344160652  0.7784932315761177  0.0674762687820768
  0.4505735999556804  0.3914456141562659  0.0588736333584239
  0.6647076654191183  0.3891511040781803  0.0590811296933555
  0.7588576634776725  0.7738907161422802  0.0547632806106709
  0.6428689489667800  0.6648761516495952  0.0734507771526219
  0.5621957103930886  0.4949497340131476  0.0748823138997007
  0.5971806808886013  0.5382604806377749  0.1659913131827678
  0.6378830998659614  0.6380047098907291  0.1626330749270723
 
  0.00000000E+00  0.00000000E+00  0.00000000E+00
  0.00000000E+00  0.00000000E+00  0.00000000E+00
  0.00000000E+00  0.00000000E+00  0.00000000E+00
  0.00000000E+00  0.00000000E+00  0.00000000E+00
  0.00000000E+00  0.00000000E+00  0.00000000E+00
  0.00000000E+00  0.00000000E+00  0.00000000E+00
  0.00000000E+00  0.00000000E+00  0.00000000E+00
  0.00000000E+00  0.00000000E+00  0.00000000E+00
  0.00000000E+00  0.00000000E+00  0.00000000E+00
  0.00000000E+00  0.00000000E+00  0.00000000E+00
  0.00000000E+00  0.00000000E+00  0.00000000E+00
  0.00000000E+00  0.00000000E+00  0.00000000E+00
  0.00000000E+00  0.00000000E+00  0.00000000E+00
  0.00000000E+00  0.00000000E+00  0.00000000E+00
  0.00000000E+00  0.00000000E+00  0.00000000E+00
  0.00000000E+00  0.00000000E+00  0.00000000E+00
  0.00000000E+00  0.00000000E+00  0.00000000E+00
  0.00000000E+00  0.00000000E+00  0.00000000E+00
  0.00000000E+00  0.00000000E+00  0.00000000E+00
  0.00000000E+00  0.00000000E+00  0.00000000E+00
  0.00000000E+00  0.00000000E+00  0.00000000E+00
  0.00000000E+00  0.00000000E+00  0.00000000E+00
  0.00000000E+00  0.00000000E+00  0.00000000E+00
  0.00000000E+00  0.00000000E+00  0.00000000E+00
  0.00000000E+00  0.00000000E+00  0.00000000E+00
  0.00000000E+00  0.00000000E+00  0.00000000E+00
  0.00000000E+00  0.00000000E+00  0.00000000E+00
  0.00000000E+00  0.00000000E+00  0.00000000E+00
  0.00000000E+00  0.00000000E+00  0.00000000E+00
  0.00000000E+00  0.00000000E+00  0.00000000E+00
  0.00000000E+00  0.00000000E+00  0.00000000E+00
  0.00000000E+00  0.00000000E+00  0.00000000E+00
  0.00000000E+00  0.00000000E+00  0.00000000E+00
  0.00000000E+00  0.00000000E+00  0.00000000E+00
  0.00000000E+00  0.00000000E+00  0.00000000E+00
  0.00000000E+00  0.00000000E+00  0.00000000E+00
  0.00000000E+00  0.00000000E+00  0.00000000E+00
  0.00000000E+00  0.00000000E+00  0.00000000E+00
  0.00000000E+00  0.00000000E+00  0.00000000E+00
  0.00000000E+00  0.00000000E+00  0.00000000E+00
  0.00000000E+00  0.00000000E+00  0.00000000E+00
  0.00000000E+00  0.00000000E+00  0.00000000E+00
  0.00000000E+00  0.00000000E+00  0.00000000E+00
  0.00000000E+00  0.00000000E+00  0.00000000E+00
  0.00000000E+00  0.00000000E+00  0.00000000E+00
  0.00000000E+00  0.00000000E+00  0.00000000E+00
  0.00000000E+00  0.00000000E+00  0.00000000E+00
  0.00000000E+00  0.00000000E+00  0.00000000E+00
  0.00000000E+00  0.00000000E+00  0.00000000E+00
  0.00000000E+00  0.00000000E+00  0.00000000E+00
  0.00000000E+00  0.00000000E+00  0.00000000E+00
  0.00000000E+00  0.00000000E+00  0.00000000E+00
  0.00000000E+00  0.00000000E+00  0.00000000E+00
  0.00000000E+00  0.00000000E+00  0.00000000E+00
  0.00000000E+00  0.00000000E+00  0.00000000E+00
  0.00000000E+00  0.00000000E+00  0.00000000E+00
  0.00000000E+00  0.00000000E+00  0.00000000E+00
  0.00000000E+00  0.00000000E+00  0.00000000E+00
  0.00000000E+00  0.00000000E+00  0.00000000E+00
  0.00000000E+00  0.00000000E+00  0.00000000E+00
