CONTCAR\(3)                             
   1.00000000000000     
    12.3312997818000003    0.0000000000000000    0.0000000000000000
     0.0001127485000000   12.8291997905000006    0.0000000000000000
     0.0005937186000000    0.0011528207000000   19.9943999824000009
   C    N    Fe   Ni   O    H 
    53     3     1     1     2     2
Direct
  0.0585799759556253  0.0562521849879473  0.0456777224827591
  0.1588327039799960  0.1127200103654043  0.0467374131086041
  0.1604242507801984  0.2239225209497227  0.0471472609426404
  0.0601933015239525  0.2778197536261596  0.0457793635702846
  0.2584908387580820  0.0577793629002364  0.0479131542686071
  0.3593126708368152  0.1129167515850504  0.0506615045361117
  0.3603163641151862  0.2242912421693295  0.0529812159274249
  0.2607936446788806  0.2802497504984565  0.0500372686565526
  0.4588844884954194  0.0571037825113359  0.0519951822931273
  0.5595681459793486  0.1123233804812178  0.0542067840427962
  0.5607266560677504  0.2238846261326554  0.0586674416029609
  0.4603401305059657  0.2802078430897955  0.0602533011135272
  0.6578893175340651  0.0524446538737293  0.0519395414767777
  0.7582230317630645  0.1089879425971426  0.0494135344774642
  0.7603582986869657  0.2209066627902336  0.0503071612931681
  0.6629340766758175  0.2794500857417971  0.0572610699734517
  0.8577260958371111  0.0534658944333455  0.0469363707070242
  0.9581623054937068  0.1103272807269417  0.0457892081381780
  0.9598645167252544  0.2215412885938154  0.0458249708075795
  0.8601642512469208  0.2768188012413518  0.0477315870810327
  0.0611259333218761  0.3888037274767736  0.0458355567291957
  0.1608695123791563  0.4452208557755867  0.0467769516004594
  0.1606869335957617  0.5565026241329367  0.0471371772771963
  0.0605511120293075  0.6108220929374776  0.0470140691248944
  0.2617493033878870  0.3918941630171040  0.0496704646085206
  0.3623150555772310  0.4489451390224328  0.0558821226492025
  0.3633193892998723  0.5630978561175454  0.0529894950168457
  0.2600813169425055  0.6136977167207998  0.0486165146822683
  0.7610054190324297  0.4442271557805018  0.0551270564124227
  0.8607592668675114  0.3881163331847266  0.0486637138913887
  0.9608754129034311  0.4435019215216862  0.0469375250805260
  0.9610229271627854  0.5539960150619032  0.0482304069734391
  0.8604634188268814  0.6074007850508624  0.0516037421133090
  0.0590255445215566  0.7223123523933247  0.0468241297548380
  0.1570746044368165  0.7792237355186055  0.0462657007825690
  0.1572569175049118  0.8905135745563714  0.0460733084044671
  0.0575213167411754  0.9451340518655447  0.0456487723764201
  0.2564804671551463  0.7243598879707676  0.0473438452351766
  0.3539452372154811  0.7815705404060006  0.0483648021591269
  0.3560773700583054  0.8919932361087551  0.0484218958336750
  0.2568038730373209  0.9470392540118290  0.0472248389549678
  0.4517879216962340  0.7258210890204662  0.0511594027724162
  0.5540567718220523  0.8853281284670518  0.0521784022340940
  0.4568482364966100  0.9455451285721731  0.0504863406442562
  0.7564478247782872  0.8828118301225494  0.0503753116700200
  0.6563991130778225  0.9402334372608745  0.0520881354784778
  0.8608075414639088  0.7201953408371284  0.0499640990809476
  0.9592478685653334  0.7771888858052872  0.0474109369947238
  0.9577163065282831  0.8881798315299262  0.0463446048196121
  0.8566158516144182  0.9414968068580194  0.0472666809188520
  0.4563519598598695  0.3904017875755654  0.0681014223478683
  0.7590152229161534  0.5562263669057146  0.0575049893267922
  0.7607512960800384  0.7714653580899755  0.0523113799039105
  0.6666821653822297  0.3857762202785652  0.0635045324387788
  0.5483244164756458  0.7786164661414515  0.0532556392671435
  0.4573917036023261  0.6197585353016571  0.0533463912962458
  0.6521609955046735  0.6711845263208613  0.0791074901607296
  0.5656427700704505  0.4570812329858389  0.1101905515517960
  0.5131607075289920  0.4989903759016993  0.1880015717538560
  0.6382387320249212  0.6800935044649211  0.1706044262280394
  0.6997398356604373  0.6553686452202250  0.1967734587641315
  0.5322475212138256  0.5737497054128449  0.1902411001863228
 
  0.00000000E+00  0.00000000E+00  0.00000000E+00
  0.00000000E+00  0.00000000E+00  0.00000000E+00
  0.00000000E+00  0.00000000E+00  0.00000000E+00
  0.00000000E+00  0.00000000E+00  0.00000000E+00
  0.00000000E+00  0.00000000E+00  0.00000000E+00
  0.00000000E+00  0.00000000E+00  0.00000000E+00
  0.00000000E+00  0.00000000E+00  0.00000000E+00
  0.00000000E+00  0.00000000E+00  0.00000000E+00
  0.00000000E+00  0.00000000E+00  0.00000000E+00
  0.00000000E+00  0.00000000E+00  0.00000000E+00
  0.00000000E+00  0.00000000E+00  0.00000000E+00
  0.00000000E+00  0.00000000E+00  0.00000000E+00
  0.00000000E+00  0.00000000E+00  0.00000000E+00
  0.00000000E+00  0.00000000E+00  0.00000000E+00
  0.00000000E+00  0.00000000E+00  0.00000000E+00
  0.00000000E+00  0.00000000E+00  0.00000000E+00
  0.00000000E+00  0.00000000E+00  0.00000000E+00
  0.00000000E+00  0.00000000E+00  0.00000000E+00
  0.00000000E+00  0.00000000E+00  0.00000000E+00
  0.00000000E+00  0.00000000E+00  0.00000000E+00
  0.00000000E+00  0.00000000E+00  0.00000000E+00
  0.00000000E+00  0.00000000E+00  0.00000000E+00
  0.00000000E+00  0.00000000E+00  0.00000000E+00
  0.00000000E+00  0.00000000E+00  0.00000000E+00
  0.00000000E+00  0.00000000E+00  0.00000000E+00
  0.00000000E+00  0.00000000E+00  0.00000000E+00
  0.00000000E+00  0.00000000E+00  0.00000000E+00
  0.00000000E+00  0.00000000E+00  0.00000000E+00
  0.00000000E+00  0.00000000E+00  0.00000000E+00
  0.00000000E+00  0.00000000E+00  0.00000000E+00
  0.00000000E+00  0.00000000E+00  0.00000000E+00
  0.00000000E+00  0.00000000E+00  0.00000000E+00
  0.00000000E+00  0.00000000E+00  0.00000000E+00
  0.00000000E+00  0.00000000E+00  0.00000000E+00
  0.00000000E+00  0.00000000E+00  0.00000000E+00
  0.00000000E+00  0.00000000E+00  0.00000000E+00
  0.00000000E+00  0.00000000E+00  0.00000000E+00
  0.00000000E+00  0.00000000E+00  0.00000000E+00
  0.00000000E+00  0.00000000E+00  0.00000000E+00
  0.00000000E+00  0.00000000E+00  0.00000000E+00
  0.00000000E+00  0.00000000E+00  0.00000000E+00
  0.00000000E+00  0.00000000E+00  0.00000000E+00
  0.00000000E+00  0.00000000E+00  0.00000000E+00
  0.00000000E+00  0.00000000E+00  0.00000000E+00
  0.00000000E+00  0.00000000E+00  0.00000000E+00
  0.00000000E+00  0.00000000E+00  0.00000000E+00
  0.00000000E+00  0.00000000E+00  0.00000000E+00
  0.00000000E+00  0.00000000E+00  0.00000000E+00
  0.00000000E+00  0.00000000E+00  0.00000000E+00
  0.00000000E+00  0.00000000E+00  0.00000000E+00
  0.00000000E+00  0.00000000E+00  0.00000000E+00
  0.00000000E+00  0.00000000E+00  0.00000000E+00
  0.00000000E+00  0.00000000E+00  0.00000000E+00
  0.00000000E+00  0.00000000E+00  0.00000000E+00
  0.00000000E+00  0.00000000E+00  0.00000000E+00
  0.00000000E+00  0.00000000E+00  0.00000000E+00
  0.00000000E+00  0.00000000E+00  0.00000000E+00
  0.00000000E+00  0.00000000E+00  0.00000000E+00
  0.00000000E+00  0.00000000E+00  0.00000000E+00
  0.00000000E+00  0.00000000E+00  0.00000000E+00
  0.00000000E+00  0.00000000E+00  0.00000000E+00
  0.00000000E+00  0.00000000E+00  0.00000000E+00
