CONTCAR\(2)\(3)                         
   1.00000000000000     
    12.3312997818000003    0.0000000000000000    0.0000000000000000
     0.0001127485000000   12.8291997905000006    0.0000000000000000
     0.0005937186000000    0.0011528207000000   19.9943999824000009
   C    N    Fe   Ni   O 
    53     3     1     1     2
Direct
  0.0549890060994171  0.0543350146080380  0.0495822709377193
  0.1552620188640919  0.1100358295340403  0.0498330731474041
  0.1559080881929689  0.2209194607550731  0.0493675409302428
  0.0561698674649335  0.2759532422930630  0.0486796814488613
  0.2555753707858963  0.0556963285362227  0.0512174815188328
  0.3560437526209697  0.1114106866511759  0.0535537630356849
  0.3563170217780139  0.2230775308945142  0.0536372027776161
  0.2558435420808699  0.2768462066842038  0.0506464605686774
  0.4557214650069926  0.0559025869747670  0.0561109707571872
  0.5553156057970968  0.1128237365231717  0.0584707488366314
  0.5559816216970103  0.2253412190591256  0.0602968117034189
  0.4552975930940357  0.2815307789592659  0.0575622733067231
  0.6543493463459666  0.0532896445115730  0.0577897088554754
  0.7545441443716279  0.1097899702398479  0.0551045531302521
  0.7557191461521496  0.2220964393005296  0.0554922572559925
  0.6573584161650409  0.2818783570071478  0.0612180721326649
  0.8541506638409383  0.0532699862144621  0.0523784687719279
  0.9546481123987572  0.1093320443042727  0.0504614172697664
  0.9556416359697959  0.2207391643279300  0.0501078271321661
  0.8560239539766958  0.2769497098722336  0.0521581668308496
  0.0579542121018545  0.3870325262248399  0.0478597405552873
  0.1569951792452964  0.4434138844504643  0.0480557256859166
  0.1577088381635752  0.5547045512195358  0.0479660644447969
  0.0581547917489867  0.6099548081071904  0.0477137618278978
  0.2565740452682537  0.3878380097339421  0.0497688894725172
  0.3563030302578276  0.4425845103429375  0.0523816009213416
  0.3593917776696408  0.5562985836856497  0.0526510353398202
  0.2575425766659735  0.6103533780419932  0.0494381302573026
  0.7609529988964526  0.4478233637619424  0.0567045901010801
  0.8585746457143012  0.3885170263263383  0.0512838684816052
  0.9586472000769336  0.4425388351422672  0.0484820557010490
  0.9592785931800851  0.5531031669022474  0.0485257487656364
  0.8593273907691615  0.6068021448618108  0.0504774596910327
  0.0567253089882643  0.7211315376475136  0.0480116454683160
  0.1553829759638717  0.7771135852173349  0.0485406012142043
  0.1549567289302477  0.8884860311939488  0.0491153381155398
  0.0546448212565010  0.9432006087359294  0.0492576869583739
  0.2551523765017156  0.7214226692124526  0.0497055784665582
  0.3531991035925256  0.7783364850943407  0.0524245641762179
  0.3541367551567002  0.8893715969195819  0.0527838400424810
  0.2545992878747553  0.9447156384863236  0.0507406859108560
  0.4518546195452606  0.7228290274935520  0.0576449801371672
  0.5525504955682551  0.8848466767944885  0.0590176167487199
  0.4543151138787742  0.9440031527184838  0.0559973936874581
  0.7536834418130682  0.8828578835944275  0.0556697079882712
  0.6539565198777104  0.9406667992163827  0.0582794321557581
  0.8575601832498077  0.7193087175651884  0.0505563911029047
  0.9563515187442093  0.7757841412491709  0.0490897317111520
  0.9547105723122064  0.8869872579747328  0.0500030335283627
  0.8537070648372206  0.9410830459140516  0.0523900705402279
  0.6629244881361682  0.3917280779459617  0.0673543443849499
  0.7568686857391245  0.7709825245841222  0.0553998998100994
  0.4588094519753252  0.6114318653256304  0.0592221015218996
  0.4523545332385214  0.3898183676131071  0.0577540072491939
  0.7629244896345512  0.5559860081220049  0.0540776165314706
  0.5480172851101487  0.7781766707054198  0.0610434025579833
  0.6482392150901241  0.6682162388817176  0.0709455612077732
  0.5560312051990398  0.4856076505393317  0.0882344527124803
  0.6121311344619219  0.5425383257336935  0.1647344087687418
  0.6464569388623564  0.6464066524692941  0.1610084977094568
 
  0.00000000E+00  0.00000000E+00  0.00000000E+00
  0.00000000E+00  0.00000000E+00  0.00000000E+00
  0.00000000E+00  0.00000000E+00  0.00000000E+00
  0.00000000E+00  0.00000000E+00  0.00000000E+00
  0.00000000E+00  0.00000000E+00  0.00000000E+00
  0.00000000E+00  0.00000000E+00  0.00000000E+00
  0.00000000E+00  0.00000000E+00  0.00000000E+00
  0.00000000E+00  0.00000000E+00  0.00000000E+00
  0.00000000E+00  0.00000000E+00  0.00000000E+00
  0.00000000E+00  0.00000000E+00  0.00000000E+00
  0.00000000E+00  0.00000000E+00  0.00000000E+00
  0.00000000E+00  0.00000000E+00  0.00000000E+00
  0.00000000E+00  0.00000000E+00  0.00000000E+00
  0.00000000E+00  0.00000000E+00  0.00000000E+00
  0.00000000E+00  0.00000000E+00  0.00000000E+00
  0.00000000E+00  0.00000000E+00  0.00000000E+00
  0.00000000E+00  0.00000000E+00  0.00000000E+00
  0.00000000E+00  0.00000000E+00  0.00000000E+00
  0.00000000E+00  0.00000000E+00  0.00000000E+00
  0.00000000E+00  0.00000000E+00  0.00000000E+00
  0.00000000E+00  0.00000000E+00  0.00000000E+00
  0.00000000E+00  0.00000000E+00  0.00000000E+00
  0.00000000E+00  0.00000000E+00  0.00000000E+00
  0.00000000E+00  0.00000000E+00  0.00000000E+00
  0.00000000E+00  0.00000000E+00  0.00000000E+00
  0.00000000E+00  0.00000000E+00  0.00000000E+00
  0.00000000E+00  0.00000000E+00  0.00000000E+00
  0.00000000E+00  0.00000000E+00  0.00000000E+00
  0.00000000E+00  0.00000000E+00  0.00000000E+00
  0.00000000E+00  0.00000000E+00  0.00000000E+00
  0.00000000E+00  0.00000000E+00  0.00000000E+00
  0.00000000E+00  0.00000000E+00  0.00000000E+00
  0.00000000E+00  0.00000000E+00  0.00000000E+00
  0.00000000E+00  0.00000000E+00  0.00000000E+00
  0.00000000E+00  0.00000000E+00  0.00000000E+00
  0.00000000E+00  0.00000000E+00  0.00000000E+00
  0.00000000E+00  0.00000000E+00  0.00000000E+00
  0.00000000E+00  0.00000000E+00  0.00000000E+00
  0.00000000E+00  0.00000000E+00  0.00000000E+00
  0.00000000E+00  0.00000000E+00  0.00000000E+00
  0.00000000E+00  0.00000000E+00  0.00000000E+00
  0.00000000E+00  0.00000000E+00  0.00000000E+00
  0.00000000E+00  0.00000000E+00  0.00000000E+00
  0.00000000E+00  0.00000000E+00  0.00000000E+00
  0.00000000E+00  0.00000000E+00  0.00000000E+00
  0.00000000E+00  0.00000000E+00  0.00000000E+00
  0.00000000E+00  0.00000000E+00  0.00000000E+00
  0.00000000E+00  0.00000000E+00  0.00000000E+00
  0.00000000E+00  0.00000000E+00  0.00000000E+00
  0.00000000E+00  0.00000000E+00  0.00000000E+00
  0.00000000E+00  0.00000000E+00  0.00000000E+00
  0.00000000E+00  0.00000000E+00  0.00000000E+00
  0.00000000E+00  0.00000000E+00  0.00000000E+00
  0.00000000E+00  0.00000000E+00  0.00000000E+00
  0.00000000E+00  0.00000000E+00  0.00000000E+00
  0.00000000E+00  0.00000000E+00  0.00000000E+00
  0.00000000E+00  0.00000000E+00  0.00000000E+00
  0.00000000E+00  0.00000000E+00  0.00000000E+00
  0.00000000E+00  0.00000000E+00  0.00000000E+00
  0.00000000E+00  0.00000000E+00  0.00000000E+00
