an6                                     
   1.00000000000000     
    12.3312997818000003    0.0000000000000000    0.0000000000000000
     0.0001127485000000   12.8291997905000006    0.0000000000000000
     0.0005937186000000    0.0011528207000000   19.9943999824000009
   C    N    Fe   Ni
    54     2     1     1
Direct
  0.0564409089354494  0.0550740862420829  0.0557873106672532
  0.1562562209643441  0.1109834187902992  0.0557937846451503
  0.1568682052454248  0.2218700830617097  0.0557792821766613
  0.0569209589701164  0.2765703989171608  0.0557617298452583
  0.2562329808409316  0.0561241698311232  0.0557992150135436
  0.3565953481939611  0.1116770446673074  0.0557728962796268
  0.3574451629030538  0.2234441383846565  0.0557481287333653
  0.2569516413725604  0.2777069612216013  0.0557641331213614
  0.4557824842145411  0.0550684685066039  0.0557435103389963
  0.5565012345541249  0.1100419807337624  0.0557034352071754
  0.5569463069514571  0.2214157375524558  0.0556954443876883
  0.4576750576323085  0.2806536250181031  0.0556991041470117
  0.6560276992961812  0.0510096460421239  0.0556538816489292
  0.7560607149707076  0.1079263016997438  0.0556691102948619
  0.7572325589969422  0.2195165062340978  0.0556696959046010
  0.6580301874711387  0.2766641604064599  0.0556646906928597
  0.8561377336472545  0.0533911039854132  0.0557001409572758
  0.9564047140649686  0.1093843770630018  0.0557405993505912
  0.9572931825723134  0.2202862905374235  0.0557279965877461
  0.8575299413557911  0.2750588398100313  0.0556857748403642
  0.0574238796406574  0.3879843253031496  0.0557612174968187
  0.1563399352788750  0.4437214342465530  0.0557755874380640
  0.1557131380913408  0.5551265215546439  0.0557782887859246
  0.0559282653592469  0.6102282323716846  0.0557699638663637
  0.2564126601554932  0.3887349720700105  0.0557603119605793
  0.3556675636719084  0.4446745502940370  0.0557251570141930
  0.3562315575732365  0.5581548207936282  0.0557237981382121
  0.2550048044395209  0.6116664851860633  0.0557693785149025
  0.7601619096662671  0.4414951822019328  0.0556409053143642
  0.8595939684561952  0.3861150443563144  0.0556757748275393
  0.9576820445346980  0.4431632771380858  0.0557275846425131
  0.9560278055038172  0.5546271836196779  0.0557342532842476
  0.8551075077754661  0.6096326416563963  0.0556859420027388
  0.0561350023902363  0.7214991210767000  0.0557837975411211
  0.1544406585867808  0.7778344085483795  0.0558047063055390
  0.1552284285425629  0.8889736479256090  0.0558166371987591
  0.0558958182040568  0.9442184342716108  0.0557998388438971
  0.2534451010162030  0.7223059836980421  0.0557821821770614
  0.3516212380774669  0.7785157231230003  0.0557478595924082
  0.3538149795197726  0.8892953722266876  0.0557683646069480
  0.2548424918209181  0.9451118855157178  0.0558087525231421
  0.4501136276537473  0.7228614586344909  0.0556801371376555
  0.5521595005342860  0.8844384733817564  0.0556430072485907
  0.4541512420987295  0.9439765732076100  0.0557281572138888
  0.7575259075803180  0.8836205634092718  0.0556277111047140
  0.6555340941214450  0.9384863714880536  0.0556143331366580
  0.8580388204072675  0.7233493226380929  0.0556794115398115
  0.9571469951744681  0.7774585449876980  0.0557488222675701
  0.9565818834214734  0.8883547606936374  0.0557548198328090
  0.8561731257803776  0.9422032672324104  0.0556953288593724
  0.4556827640874206  0.3923876657739972  0.0556785887991552
  0.4563308725529986  0.6116357338950084  0.0556818492981587
  0.6613713747317638  0.3858324504238176  0.0556376361826569
  0.7552660005087284  0.5530647505104874  0.0556427727346932
  0.5458640874130951  0.7790518739631314  0.0556237029119632
  0.7621737457764212  0.7762972447077554  0.0556057554451299
  0.6484812796029653  0.6653535194469887  0.0556155710835936
  0.5666827200962222  0.4932207877226882  0.0556322402878874
 
  0.00000000E+00  0.00000000E+00  0.00000000E+00
  0.00000000E+00  0.00000000E+00  0.00000000E+00
  0.00000000E+00  0.00000000E+00  0.00000000E+00
  0.00000000E+00  0.00000000E+00  0.00000000E+00
  0.00000000E+00  0.00000000E+00  0.00000000E+00
  0.00000000E+00  0.00000000E+00  0.00000000E+00
  0.00000000E+00  0.00000000E+00  0.00000000E+00
  0.00000000E+00  0.00000000E+00  0.00000000E+00
  0.00000000E+00  0.00000000E+00  0.00000000E+00
  0.00000000E+00  0.00000000E+00  0.00000000E+00
  0.00000000E+00  0.00000000E+00  0.00000000E+00
  0.00000000E+00  0.00000000E+00  0.00000000E+00
  0.00000000E+00  0.00000000E+00  0.00000000E+00
  0.00000000E+00  0.00000000E+00  0.00000000E+00
  0.00000000E+00  0.00000000E+00  0.00000000E+00
  0.00000000E+00  0.00000000E+00  0.00000000E+00
  0.00000000E+00  0.00000000E+00  0.00000000E+00
  0.00000000E+00  0.00000000E+00  0.00000000E+00
  0.00000000E+00  0.00000000E+00  0.00000000E+00
  0.00000000E+00  0.00000000E+00  0.00000000E+00
  0.00000000E+00  0.00000000E+00  0.00000000E+00
  0.00000000E+00  0.00000000E+00  0.00000000E+00
  0.00000000E+00  0.00000000E+00  0.00000000E+00
  0.00000000E+00  0.00000000E+00  0.00000000E+00
  0.00000000E+00  0.00000000E+00  0.00000000E+00
  0.00000000E+00  0.00000000E+00  0.00000000E+00
  0.00000000E+00  0.00000000E+00  0.00000000E+00
  0.00000000E+00  0.00000000E+00  0.00000000E+00
  0.00000000E+00  0.00000000E+00  0.00000000E+00
  0.00000000E+00  0.00000000E+00  0.00000000E+00
  0.00000000E+00  0.00000000E+00  0.00000000E+00
  0.00000000E+00  0.00000000E+00  0.00000000E+00
  0.00000000E+00  0.00000000E+00  0.00000000E+00
  0.00000000E+00  0.00000000E+00  0.00000000E+00
  0.00000000E+00  0.00000000E+00  0.00000000E+00
  0.00000000E+00  0.00000000E+00  0.00000000E+00
  0.00000000E+00  0.00000000E+00  0.00000000E+00
  0.00000000E+00  0.00000000E+00  0.00000000E+00
  0.00000000E+00  0.00000000E+00  0.00000000E+00
  0.00000000E+00  0.00000000E+00  0.00000000E+00
  0.00000000E+00  0.00000000E+00  0.00000000E+00
  0.00000000E+00  0.00000000E+00  0.00000000E+00
  0.00000000E+00  0.00000000E+00  0.00000000E+00
  0.00000000E+00  0.00000000E+00  0.00000000E+00
  0.00000000E+00  0.00000000E+00  0.00000000E+00
  0.00000000E+00  0.00000000E+00  0.00000000E+00
  0.00000000E+00  0.00000000E+00  0.00000000E+00
  0.00000000E+00  0.00000000E+00  0.00000000E+00
  0.00000000E+00  0.00000000E+00  0.00000000E+00
  0.00000000E+00  0.00000000E+00  0.00000000E+00
  0.00000000E+00  0.00000000E+00  0.00000000E+00
  0.00000000E+00  0.00000000E+00  0.00000000E+00
  0.00000000E+00  0.00000000E+00  0.00000000E+00
  0.00000000E+00  0.00000000E+00  0.00000000E+00
  0.00000000E+00  0.00000000E+00  0.00000000E+00
  0.00000000E+00  0.00000000E+00  0.00000000E+00
  0.00000000E+00  0.00000000E+00  0.00000000E+00
  0.00000000E+00  0.00000000E+00  0.00000000E+00
