POSCAR\(2)                              
   1.00000000000000     
    12.3312997818000003    0.0000000000000000    0.0000000000000000
     0.0001127485000000   12.8291997905000006    0.0000000000000000
     0.0005937186000000    0.0011528207000000   19.9943999824000009
   C    N    Fe   Ni
    54     2     1     1
Direct
  0.0559802098781685  0.0537031574642892  0.0557731998963643
  0.1562594751496684  0.1098383393971851  0.0557944559940161
  0.1570361100720376  0.2207528029416294  0.0557810628936069
  0.0574170348663342  0.2754563087985657  0.0557483797537284
  0.2566841319881794  0.0558710677015243  0.0558090791445744
  0.3569928996156277  0.1127793992529061  0.0557628525728949
  0.3577541970075644  0.2244351438180405  0.0557339480897224
  0.2567761404374578  0.2774207889266578  0.0557684186265187
  0.4566863318801989  0.0575523043193291  0.0557286303194881
  0.5574763630919432  0.1140124929872671  0.0556904817502082
  0.5586973652955051  0.2262747993320524  0.0556689769647194
  0.4581692198890254  0.2831581170749697  0.0556813965669815
  0.6563047577080094  0.0545878919512863  0.0556945312275738
  0.7565053647132974  0.1098118204938012  0.0557048470207530
  0.7580390656536041  0.2216735491218168  0.0556988326353538
  0.6607076055006572  0.2816346960493011  0.0556621637775120
  0.8554487019864502  0.0527827831998431  0.0557065342472343
  0.9560943068910741  0.1083491599551212  0.0557357860651196
  0.9576203601973508  0.2194749092948532  0.0557295613516249
  0.8586479663441615  0.2753349831879145  0.0557051902366503
  0.0578369328488552  0.3867581236690733  0.0557402580227938
  0.1560753151170543  0.4435597859600853  0.0557738801259781
  0.1555912079832591  0.5551853047512761  0.0557945735510563
  0.0562274279858855  0.6100039198039036  0.0557690895995195
  0.2552800402055723  0.3882936036422728  0.0557694943115685
  0.3536564352108277  0.4448289031881505  0.0557310002947510
  0.3549292015503142  0.5572552085994166  0.0557290130256651
  0.2551078830623480  0.6117448868043924  0.0557852409188290
  0.7624953674661971  0.4425057079293909  0.0556419180432190
  0.8606358309973846  0.3861676700972086  0.0556867214556268
  0.9589727481181279  0.4419625421694200  0.0557072910908433
  0.9571316558872826  0.5527723429675939  0.0557053623061612
  0.8563328102221868  0.6047432499031037  0.0556464067545775
  0.0552801956309745  0.7211864195517149  0.0557809019262252
  0.1543116664610914  0.7775723625396090  0.0558200531421728
  0.1551633192157518  0.8885706933347542  0.0558269326415341
  0.0549406963330684  0.9426758255854256  0.0557809017755893
  0.2539076562600323  0.7226313781257150  0.0558033694652203
  0.3529869413761859  0.7779084551060841  0.0557677930081149
  0.3551705109441906  0.8893346503701025  0.0557883350975672
  0.2555394489482499  0.9446766049545173  0.0558286928553482
  0.4525199815874876  0.7207077109726413  0.0556839226589805
  0.5540693020053838  0.8885833686916779  0.0556884852738655
  0.4552334309326105  0.9459098040991729  0.0557381218924404
  0.7539561741589954  0.8830249998147438  0.0556406646168454
  0.6554793906721681  0.9429558800913440  0.0556727386789783
  0.8549656188616578  0.7180492507285043  0.0556492646838939
  0.9550070735323836  0.7748601704933278  0.0557173055346082
  0.9547066535934405  0.8862055507379673  0.0557209136650385
  0.8541695706886170  0.9406076750484581  0.0556747937406758
  0.4533210766036779  0.3938116392457360  0.0556701214503734
  0.5499986573920449  0.7794319846490415  0.0556487465540071
  0.7544975854097441  0.7702350797611252  0.0556160027362732
  0.4565449825577749  0.6080220199052657  0.0556633874114106
  0.6659971742141600  0.3892995074289622  0.0556322386316952
  0.7597453959394285  0.5503313475035323  0.0556026080151649
  0.6396068496817607  0.6674745301109981  0.0556201060181179
  0.5646801161775040  0.4938472853959344  0.0556250228905747
 
  0.00000000E+00  0.00000000E+00  0.00000000E+00
  0.00000000E+00  0.00000000E+00  0.00000000E+00
  0.00000000E+00  0.00000000E+00  0.00000000E+00
  0.00000000E+00  0.00000000E+00  0.00000000E+00
  0.00000000E+00  0.00000000E+00  0.00000000E+00
  0.00000000E+00  0.00000000E+00  0.00000000E+00
  0.00000000E+00  0.00000000E+00  0.00000000E+00
  0.00000000E+00  0.00000000E+00  0.00000000E+00
  0.00000000E+00  0.00000000E+00  0.00000000E+00
  0.00000000E+00  0.00000000E+00  0.00000000E+00
  0.00000000E+00  0.00000000E+00  0.00000000E+00
  0.00000000E+00  0.00000000E+00  0.00000000E+00
  0.00000000E+00  0.00000000E+00  0.00000000E+00
  0.00000000E+00  0.00000000E+00  0.00000000E+00
  0.00000000E+00  0.00000000E+00  0.00000000E+00
  0.00000000E+00  0.00000000E+00  0.00000000E+00
  0.00000000E+00  0.00000000E+00  0.00000000E+00
  0.00000000E+00  0.00000000E+00  0.00000000E+00
  0.00000000E+00  0.00000000E+00  0.00000000E+00
  0.00000000E+00  0.00000000E+00  0.00000000E+00
  0.00000000E+00  0.00000000E+00  0.00000000E+00
  0.00000000E+00  0.00000000E+00  0.00000000E+00
  0.00000000E+00  0.00000000E+00  0.00000000E+00
  0.00000000E+00  0.00000000E+00  0.00000000E+00
  0.00000000E+00  0.00000000E+00  0.00000000E+00
  0.00000000E+00  0.00000000E+00  0.00000000E+00
  0.00000000E+00  0.00000000E+00  0.00000000E+00
  0.00000000E+00  0.00000000E+00  0.00000000E+00
  0.00000000E+00  0.00000000E+00  0.00000000E+00
  0.00000000E+00  0.00000000E+00  0.00000000E+00
  0.00000000E+00  0.00000000E+00  0.00000000E+00
  0.00000000E+00  0.00000000E+00  0.00000000E+00
  0.00000000E+00  0.00000000E+00  0.00000000E+00
  0.00000000E+00  0.00000000E+00  0.00000000E+00
  0.00000000E+00  0.00000000E+00  0.00000000E+00
  0.00000000E+00  0.00000000E+00  0.00000000E+00
  0.00000000E+00  0.00000000E+00  0.00000000E+00
  0.00000000E+00  0.00000000E+00  0.00000000E+00
  0.00000000E+00  0.00000000E+00  0.00000000E+00
  0.00000000E+00  0.00000000E+00  0.00000000E+00
  0.00000000E+00  0.00000000E+00  0.00000000E+00
  0.00000000E+00  0.00000000E+00  0.00000000E+00
  0.00000000E+00  0.00000000E+00  0.00000000E+00
  0.00000000E+00  0.00000000E+00  0.00000000E+00
  0.00000000E+00  0.00000000E+00  0.00000000E+00
  0.00000000E+00  0.00000000E+00  0.00000000E+00
  0.00000000E+00  0.00000000E+00  0.00000000E+00
  0.00000000E+00  0.00000000E+00  0.00000000E+00
  0.00000000E+00  0.00000000E+00  0.00000000E+00
  0.00000000E+00  0.00000000E+00  0.00000000E+00
  0.00000000E+00  0.00000000E+00  0.00000000E+00
  0.00000000E+00  0.00000000E+00  0.00000000E+00
  0.00000000E+00  0.00000000E+00  0.00000000E+00
  0.00000000E+00  0.00000000E+00  0.00000000E+00
  0.00000000E+00  0.00000000E+00  0.00000000E+00
  0.00000000E+00  0.00000000E+00  0.00000000E+00
  0.00000000E+00  0.00000000E+00  0.00000000E+00
  0.00000000E+00  0.00000000E+00  0.00000000E+00
