1                                       
   1.00000000000000     
    12.3312997818000003    0.0000000000000000    0.0000000000000000
     0.0001127485000000   12.8291997905000006    0.0000000000000000
     0.0005937186000000    0.0011528207000000   19.9943999824000009
   C    N    Fe   Ni   O 
    55     1     1     1     1
Direct
  0.0556326047849610  0.0548714054710434  0.0526577339400529
  0.1557770066239390  0.1098760423338674  0.0519482970405795
  0.1553512025688240  0.2207174921415468  0.0507267982132083
  0.0557249992190021  0.2764590394126547  0.0495013612987072
  0.2562775901990763  0.0550305256143936  0.0527475502132365
  0.3564098486129753  0.1110310027223272  0.0554261766714588
  0.3557385100551091  0.2226968378763737  0.0556093798502007
  0.2550416417176772  0.2762072888426172  0.0516487862768550
  0.4561452543663329  0.0556944017610352  0.0581570951541774
  0.5552990855203990  0.1133263162684693  0.0617052522085773
  0.5550711249057058  0.2253810202718776  0.0637971394391769
  0.4541464958013397  0.2813855075527447  0.0602773197625435
  0.6555696665572728  0.0550923225300497  0.0623359423292625
  0.7555740484021938  0.1114029970990453  0.0603237634405376
  0.7557452370097055  0.2233311726486249  0.0598747001174510
  0.6562804276766013  0.2817973673198224  0.0651462254057317
  0.8548618076535295  0.0544621034337630  0.0575868738221244
  0.9551806834351868  0.1101496563706075  0.0540781729735985
  0.9552858878928263  0.2214626739682225  0.0523749442451901
  0.8557372945419104  0.2782200113088690  0.0549341988871166
  0.0565035597464456  0.3877147744520151  0.0470102014971561
  0.1557120414264612  0.4432496798447819  0.0464454324208605
  0.1566413298115184  0.5548455051135804  0.0457360085250074
  0.0575597317091084  0.6105917083046357  0.0459235378315021
  0.2546405102412079  0.3867461341847625  0.0493765958803970
  0.3543520511273066  0.4407579320752716  0.0525079523027420
  0.3568323677091707  0.5540035175634315  0.0504489954364765
  0.2564307463794869  0.6099476439698357  0.0468666817436068
  0.7581697321037028  0.4480722869601048  0.0585646232629625
  0.8572677188264380  0.3896506860615173  0.0524103308794257
  0.9570041924975333  0.4438302450944355  0.0473530486004176
  0.9580573976730101  0.5546703446699747  0.0466199561347924
  0.8591570044116594  0.6106718711967167  0.0506963627990873
  0.0568401976552774  0.7220976772892344  0.0477310022687376
  0.1562908962463901  0.7771769825570917  0.0481987572359379
  0.1561813032604317  0.8885635855606382  0.0502355411323680
  0.0559563770116410  0.9439334880354606  0.0523172515906541
  0.2562911228829471  0.7210009708102163  0.0479593624171890
  0.3559544526064470  0.7761898141037359  0.0509863704353710
  0.3565957994822518  0.8878404504649434  0.0525272164513578
  0.2563940539614659  0.9438530206679104  0.0513700690676096
  0.4560556864195320  0.7187748533431106  0.0549342649856123
  0.5560507515578469  0.8863161501771949  0.0602295448799233
  0.4563087188501363  0.9436662676989916  0.0568509497942604
  0.7550880999286427  0.8846316491346708  0.0630315429768110
  0.6560708305265601  0.9435886700048730  0.0629477094900750
  0.8575505600667376  0.7227011802608930  0.0549535543430851
  0.9568267759712599  0.7780147637516435  0.0516165568193654
  0.9558694299882641  0.8886282366994915  0.0543649498043099
  0.8548196418160743  0.9424253457211997  0.0585200497589307
  0.4558261431070876  0.6065503628961844  0.0566586937306340
  0.6613678382999941  0.3912784275575903  0.0705698856852219
  0.7603304657526613  0.5592928010283394  0.0564763332698552
  0.5542893017945967  0.7764735268461759  0.0600245565125306
  0.7563738655258508  0.7724130611922685  0.0642357007131189
  0.4502500839007241  0.3896006157169158  0.0600143166843605
  0.6457324634175174  0.6628489141257777  0.0836701748973907
  0.5538149322388758  0.4895137586138276  0.0881403622459691
  0.6251813455231914  0.5759180403025822  0.1466978502050959
 
  0.00000000E+00  0.00000000E+00  0.00000000E+00
  0.00000000E+00  0.00000000E+00  0.00000000E+00
  0.00000000E+00  0.00000000E+00  0.00000000E+00
  0.00000000E+00  0.00000000E+00  0.00000000E+00
  0.00000000E+00  0.00000000E+00  0.00000000E+00
  0.00000000E+00  0.00000000E+00  0.00000000E+00
  0.00000000E+00  0.00000000E+00  0.00000000E+00
  0.00000000E+00  0.00000000E+00  0.00000000E+00
  0.00000000E+00  0.00000000E+00  0.00000000E+00
  0.00000000E+00  0.00000000E+00  0.00000000E+00
  0.00000000E+00  0.00000000E+00  0.00000000E+00
  0.00000000E+00  0.00000000E+00  0.00000000E+00
  0.00000000E+00  0.00000000E+00  0.00000000E+00
  0.00000000E+00  0.00000000E+00  0.00000000E+00
  0.00000000E+00  0.00000000E+00  0.00000000E+00
  0.00000000E+00  0.00000000E+00  0.00000000E+00
  0.00000000E+00  0.00000000E+00  0.00000000E+00
  0.00000000E+00  0.00000000E+00  0.00000000E+00
  0.00000000E+00  0.00000000E+00  0.00000000E+00
  0.00000000E+00  0.00000000E+00  0.00000000E+00
  0.00000000E+00  0.00000000E+00  0.00000000E+00
  0.00000000E+00  0.00000000E+00  0.00000000E+00
  0.00000000E+00  0.00000000E+00  0.00000000E+00
  0.00000000E+00  0.00000000E+00  0.00000000E+00
  0.00000000E+00  0.00000000E+00  0.00000000E+00
  0.00000000E+00  0.00000000E+00  0.00000000E+00
  0.00000000E+00  0.00000000E+00  0.00000000E+00
  0.00000000E+00  0.00000000E+00  0.00000000E+00
  0.00000000E+00  0.00000000E+00  0.00000000E+00
  0.00000000E+00  0.00000000E+00  0.00000000E+00
  0.00000000E+00  0.00000000E+00  0.00000000E+00
  0.00000000E+00  0.00000000E+00  0.00000000E+00
  0.00000000E+00  0.00000000E+00  0.00000000E+00
  0.00000000E+00  0.00000000E+00  0.00000000E+00
  0.00000000E+00  0.00000000E+00  0.00000000E+00
  0.00000000E+00  0.00000000E+00  0.00000000E+00
  0.00000000E+00  0.00000000E+00  0.00000000E+00
  0.00000000E+00  0.00000000E+00  0.00000000E+00
  0.00000000E+00  0.00000000E+00  0.00000000E+00
  0.00000000E+00  0.00000000E+00  0.00000000E+00
  0.00000000E+00  0.00000000E+00  0.00000000E+00
  0.00000000E+00  0.00000000E+00  0.00000000E+00
  0.00000000E+00  0.00000000E+00  0.00000000E+00
  0.00000000E+00  0.00000000E+00  0.00000000E+00
  0.00000000E+00  0.00000000E+00  0.00000000E+00
  0.00000000E+00  0.00000000E+00  0.00000000E+00
  0.00000000E+00  0.00000000E+00  0.00000000E+00
  0.00000000E+00  0.00000000E+00  0.00000000E+00
  0.00000000E+00  0.00000000E+00  0.00000000E+00
  0.00000000E+00  0.00000000E+00  0.00000000E+00
  0.00000000E+00  0.00000000E+00  0.00000000E+00
  0.00000000E+00  0.00000000E+00  0.00000000E+00
  0.00000000E+00  0.00000000E+00  0.00000000E+00
  0.00000000E+00  0.00000000E+00  0.00000000E+00
  0.00000000E+00  0.00000000E+00  0.00000000E+00
  0.00000000E+00  0.00000000E+00  0.00000000E+00
  0.00000000E+00  0.00000000E+00  0.00000000E+00
  0.00000000E+00  0.00000000E+00  0.00000000E+00
  0.00000000E+00  0.00000000E+00  0.00000000E+00
