1h\(2)                                  
   1.00000000000000     
    12.3312997818000003    0.0000000000000000    0.0000000000000000
     0.0001127485000000   12.8291997905000006    0.0000000000000000
     0.0005937186000000    0.0011528207000000   19.9943999824000009
   C    N    Fe   Ni
    53     3     1     1
Direct
  0.0557876198680671  0.0544203276580583  0.0549441518245432
  0.1559980770924849  0.1102269393195768  0.0550511917350014
  0.1565183577581966  0.2210516826845492  0.0547361000850492
  0.0568123419259362  0.2762587395989550  0.0543873158126844
  0.2562781534651816  0.0558943366594110  0.0557049082010003
  0.3567928642032375  0.1118125429960371  0.0564108560353754
  0.3570741363483064  0.2235726697780221  0.0562564370809978
  0.2562926225631464  0.2769198113381499  0.0551936269461337
  0.4563763712191591  0.0560474317929876  0.0572117836478486
  0.5564678664525947  0.1128670371965744  0.0575296327101925
  0.5568496351136728  0.2254080786180447  0.0575936494594433
  0.4562698999592933  0.2824266788669308  0.0571567473472622
  0.6564197491987934  0.0534144436988176  0.0573805328508536
  0.7561156111932701  0.1101481657740148  0.0566377656851048
  0.7570328631289146  0.2221246389675505  0.0565938789563675
  0.6584604862270778  0.2817149917615724  0.0574824656511710
  0.8550698707856452  0.0530021909156796  0.0558621421974036
  0.9556190514893731  0.1090787439675644  0.0551613408575692
  0.9567286780023337  0.2206462266443481  0.0549230197265382
  0.8574319287673223  0.2770765820506408  0.0555715933557326
  0.0583483175908056  0.3875743360841564  0.0540307755700259
  0.1571278883915740  0.4438574151860675  0.0541051966467079
  0.1568907889462243  0.5548225797928897  0.0541069313220245
  0.0570641724716516  0.6104370533578335  0.0539471910677903
  0.2565705495663259  0.3878059729071659  0.0549169480518151
  0.3558163897826877  0.4423897114115546  0.0560719283999743
  0.3575165639718231  0.5553713861953353  0.0562097006514458
  0.2564037129171607  0.6103359327504095  0.0550401533663460
  0.7628965763014574  0.4469205382374474  0.0565705848258891
  0.8604939853861236  0.3884861878329336  0.0553513798059986
  0.9594994737364321  0.4434415334317292  0.0543552778287918
  0.9582858510722839  0.5544473839352271  0.0543166824718227
  0.8573496305665930  0.6084498307322967  0.0553765302119772
  0.0556368362327789  0.7212619589571185  0.0541831729794334
  0.1544731982292048  0.7773385087112593  0.0545811369469934
  0.1553527430859066  0.8884921385062950  0.0549177481313454
  0.0552948538841183  0.9433826059690782  0.0548413306012696
  0.2539590862822016  0.7216676552712765  0.0552319064578127
  0.3519244355505898  0.7781261437256461  0.0565012260992158
  0.3547268044750981  0.8892065453377145  0.0565980317234434
  0.2552989325122699  0.9447088223688705  0.0556934807792777
  0.4505583883271997  0.7216046143483307  0.0578084438977700
  0.5546140491454543  0.8864615564141224  0.0580762458580344
  0.4554178096149454  0.9444836854372625  0.0574263892874717
  0.7554395328088999  0.8812526905468742  0.0568117396584923
  0.6561253578438816  0.9407675696027736  0.0575967660240437
  0.8560517743916927  0.7211443777740377  0.0555173804141517
  0.9555915693537071  0.7762176985059397  0.0547188458608630
  0.9556093675491921  0.8873377128905690  0.0550213912661950
  0.8545265239161789  0.9405360468853243  0.0558580680849320
  0.4573572946678131  0.6102776113934886  0.0577673863779931
  0.6635880675932836  0.3916197778851325  0.0577907375926108
  0.5491410032748786  0.7772642733950837  0.0586093267418423
  0.4529913779603251  0.3907422366072040  0.0573086670913056
  0.7612172532276351  0.5558831590823884  0.0566246680306026
  0.7571867596231060  0.7710230315042174  0.0567421634900243
  0.6388314559636220  0.6633749495172706  0.0581234975868817
  0.5636354830228730  0.4946827452201641  0.0585618236311222
 
  0.00000000E+00  0.00000000E+00  0.00000000E+00
  0.00000000E+00  0.00000000E+00  0.00000000E+00
  0.00000000E+00  0.00000000E+00  0.00000000E+00
  0.00000000E+00  0.00000000E+00  0.00000000E+00
  0.00000000E+00  0.00000000E+00  0.00000000E+00
  0.00000000E+00  0.00000000E+00  0.00000000E+00
  0.00000000E+00  0.00000000E+00  0.00000000E+00
  0.00000000E+00  0.00000000E+00  0.00000000E+00
  0.00000000E+00  0.00000000E+00  0.00000000E+00
  0.00000000E+00  0.00000000E+00  0.00000000E+00
  0.00000000E+00  0.00000000E+00  0.00000000E+00
  0.00000000E+00  0.00000000E+00  0.00000000E+00
  0.00000000E+00  0.00000000E+00  0.00000000E+00
  0.00000000E+00  0.00000000E+00  0.00000000E+00
  0.00000000E+00  0.00000000E+00  0.00000000E+00
  0.00000000E+00  0.00000000E+00  0.00000000E+00
  0.00000000E+00  0.00000000E+00  0.00000000E+00
  0.00000000E+00  0.00000000E+00  0.00000000E+00
  0.00000000E+00  0.00000000E+00  0.00000000E+00
  0.00000000E+00  0.00000000E+00  0.00000000E+00
  0.00000000E+00  0.00000000E+00  0.00000000E+00
  0.00000000E+00  0.00000000E+00  0.00000000E+00
  0.00000000E+00  0.00000000E+00  0.00000000E+00
  0.00000000E+00  0.00000000E+00  0.00000000E+00
  0.00000000E+00  0.00000000E+00  0.00000000E+00
  0.00000000E+00  0.00000000E+00  0.00000000E+00
  0.00000000E+00  0.00000000E+00  0.00000000E+00
  0.00000000E+00  0.00000000E+00  0.00000000E+00
  0.00000000E+00  0.00000000E+00  0.00000000E+00
  0.00000000E+00  0.00000000E+00  0.00000000E+00
  0.00000000E+00  0.00000000E+00  0.00000000E+00
  0.00000000E+00  0.00000000E+00  0.00000000E+00
  0.00000000E+00  0.00000000E+00  0.00000000E+00
  0.00000000E+00  0.00000000E+00  0.00000000E+00
  0.00000000E+00  0.00000000E+00  0.00000000E+00
  0.00000000E+00  0.00000000E+00  0.00000000E+00
  0.00000000E+00  0.00000000E+00  0.00000000E+00
  0.00000000E+00  0.00000000E+00  0.00000000E+00
  0.00000000E+00  0.00000000E+00  0.00000000E+00
  0.00000000E+00  0.00000000E+00  0.00000000E+00
  0.00000000E+00  0.00000000E+00  0.00000000E+00
  0.00000000E+00  0.00000000E+00  0.00000000E+00
  0.00000000E+00  0.00000000E+00  0.00000000E+00
  0.00000000E+00  0.00000000E+00  0.00000000E+00
  0.00000000E+00  0.00000000E+00  0.00000000E+00
  0.00000000E+00  0.00000000E+00  0.00000000E+00
  0.00000000E+00  0.00000000E+00  0.00000000E+00
  0.00000000E+00  0.00000000E+00  0.00000000E+00
  0.00000000E+00  0.00000000E+00  0.00000000E+00
  0.00000000E+00  0.00000000E+00  0.00000000E+00
  0.00000000E+00  0.00000000E+00  0.00000000E+00
  0.00000000E+00  0.00000000E+00  0.00000000E+00
  0.00000000E+00  0.00000000E+00  0.00000000E+00
  0.00000000E+00  0.00000000E+00  0.00000000E+00
  0.00000000E+00  0.00000000E+00  0.00000000E+00
  0.00000000E+00  0.00000000E+00  0.00000000E+00
  0.00000000E+00  0.00000000E+00  0.00000000E+00
  0.00000000E+00  0.00000000E+00  0.00000000E+00
