1h\(2)                                  
   1.00000000000000     
    12.3312997818000003    0.0000000000000000    0.0000000000000000
     0.0001127485000000   12.8291997905000006    0.0000000000000000
     0.0005937186000000    0.0011528207000000   19.9943999824000009
   C    N    Fe   Ni
    52     4     1     1
Direct
  0.0556143807976860  0.0544990626884626  0.0550713138741813
  0.1559980229028362  0.1105937071471078  0.0553361388526163
  0.1569069673131591  0.2215881753853781  0.0551642484496690
  0.0567024721170086  0.2760536921155788  0.0546315630861582
  0.2562279908727367  0.0563487627820146  0.0559169890154387
  0.3567955473243898  0.1122556027746541  0.0568683954958029
  0.3573651591352605  0.2241659627325526  0.0569469418587288
  0.2567018636463041  0.2779810571818289  0.0557963984587067
  0.4562800560854023  0.0559438468692613  0.0575935174352848
  0.5557546319572837  0.1127801733083120  0.0580007821713944
  0.5566379230663318  0.2258824093037298  0.0581332580052945
  0.4566313121328043  0.2832923779872368  0.0579006080037867
  0.6543489981619103  0.0525839263568280  0.0576910071603295
  0.7547188342382711  0.1093252617554083  0.0570088547545976
  0.7560824787918096  0.2216981169412020  0.0569418159969439
  0.6577143629026694  0.2820293820850011  0.0577577684513862
  0.8543979546064997  0.0525599870528744  0.0561012084755845
  0.9549433255131488  0.1088814506201343  0.0554118154239817
  0.9561950156321465  0.2204312284702337  0.0551767919863863
  0.8566840892134828  0.2767379821102748  0.0557763731813286
  0.0586298553975374  0.3868465923066262  0.0539853970890440
  0.1575655029292355  0.4438849816775285  0.0540443254358916
  0.1575272964205266  0.5545119038177265  0.0536794397478932
  0.0582730059006571  0.6101914325849686  0.0532092347445084
  0.2574428541280117  0.3893945359828626  0.0553331392002196
  0.3570488375131144  0.4450829362813528  0.0566176844842998
  0.3574900757101858  0.5576093461313220  0.0564047176632010
  0.2568007737617198  0.6107454283747379  0.0547809692339979
  0.7626317530943526  0.4477842429916304  0.0562963924767107
  0.8600172048988087  0.3882682582549430  0.0552643632487629
  0.9598367920441579  0.4423770986583663  0.0540617406019885
  0.9598500937689651  0.5530283636523439  0.0536775802443681
  0.8602582227142339  0.6070994707686737  0.0547115341774644
  0.0569496736382600  0.7210513057967837  0.0534397325058296
  0.1553547453082032  0.7775763235550902  0.0540212518157490
  0.1553156180284331  0.8888458603374734  0.0546196119687743
  0.0550136831018382  0.9435074413690204  0.0546959574183096
  0.2543303923184921  0.7219325398277925  0.0548334737297364
  0.3524275651286970  0.7782364244614042  0.0562277758957113
  0.3543105008465249  0.8893458161650345  0.0564538009243311
  0.2550915353514139  0.9449962950817866  0.0555891249352435
  0.4502461007566487  0.7215482235086438  0.0575493474896570
  0.5520287508363363  0.8843602058292395  0.0580183849053399
  0.4548054753518226  0.9438736059530970  0.0575175617464286
  0.7534224271263171  0.8808462412417943  0.0567295207150665
  0.6533139204171320  0.9392074416704248  0.0576529444757044
  0.8588640895628398  0.7186743894572510  0.0549233851075962
  0.9570774597446773  0.7757019750358196  0.0541484082035310
  0.9550663937834220  0.8868583113754350  0.0547751110241120
  0.8535074514491483  0.9401338589046205  0.0558609950332088
  0.6633499949289824  0.3924995743459376  0.0577035278787403
  0.7575650836272965  0.7686495106148952  0.0563615577466589
  0.4540189744665641  0.3915349500020075  0.0581992675365321
  0.4548360316923635  0.6135874466980845  0.0578515854950308
  0.7630445705627378  0.5565433358829143  0.0560190104067574
  0.5466978041607807  0.7754937069341886  0.0583014995734717
  0.6435442650822648  0.6658173791646776  0.0574621824091849
  0.5629538820361614  0.4940313176354028  0.0588526675733523
 
  0.00000000E+00  0.00000000E+00  0.00000000E+00
  0.00000000E+00  0.00000000E+00  0.00000000E+00
  0.00000000E+00  0.00000000E+00  0.00000000E+00
  0.00000000E+00  0.00000000E+00  0.00000000E+00
  0.00000000E+00  0.00000000E+00  0.00000000E+00
  0.00000000E+00  0.00000000E+00  0.00000000E+00
  0.00000000E+00  0.00000000E+00  0.00000000E+00
  0.00000000E+00  0.00000000E+00  0.00000000E+00
  0.00000000E+00  0.00000000E+00  0.00000000E+00
  0.00000000E+00  0.00000000E+00  0.00000000E+00
  0.00000000E+00  0.00000000E+00  0.00000000E+00
  0.00000000E+00  0.00000000E+00  0.00000000E+00
  0.00000000E+00  0.00000000E+00  0.00000000E+00
  0.00000000E+00  0.00000000E+00  0.00000000E+00
  0.00000000E+00  0.00000000E+00  0.00000000E+00
  0.00000000E+00  0.00000000E+00  0.00000000E+00
  0.00000000E+00  0.00000000E+00  0.00000000E+00
  0.00000000E+00  0.00000000E+00  0.00000000E+00
  0.00000000E+00  0.00000000E+00  0.00000000E+00
  0.00000000E+00  0.00000000E+00  0.00000000E+00
  0.00000000E+00  0.00000000E+00  0.00000000E+00
  0.00000000E+00  0.00000000E+00  0.00000000E+00
  0.00000000E+00  0.00000000E+00  0.00000000E+00
  0.00000000E+00  0.00000000E+00  0.00000000E+00
  0.00000000E+00  0.00000000E+00  0.00000000E+00
  0.00000000E+00  0.00000000E+00  0.00000000E+00
  0.00000000E+00  0.00000000E+00  0.00000000E+00
  0.00000000E+00  0.00000000E+00  0.00000000E+00
  0.00000000E+00  0.00000000E+00  0.00000000E+00
  0.00000000E+00  0.00000000E+00  0.00000000E+00
  0.00000000E+00  0.00000000E+00  0.00000000E+00
  0.00000000E+00  0.00000000E+00  0.00000000E+00
  0.00000000E+00  0.00000000E+00  0.00000000E+00
  0.00000000E+00  0.00000000E+00  0.00000000E+00
  0.00000000E+00  0.00000000E+00  0.00000000E+00
  0.00000000E+00  0.00000000E+00  0.00000000E+00
  0.00000000E+00  0.00000000E+00  0.00000000E+00
  0.00000000E+00  0.00000000E+00  0.00000000E+00
  0.00000000E+00  0.00000000E+00  0.00000000E+00
  0.00000000E+00  0.00000000E+00  0.00000000E+00
  0.00000000E+00  0.00000000E+00  0.00000000E+00
  0.00000000E+00  0.00000000E+00  0.00000000E+00
  0.00000000E+00  0.00000000E+00  0.00000000E+00
  0.00000000E+00  0.00000000E+00  0.00000000E+00
  0.00000000E+00  0.00000000E+00  0.00000000E+00
  0.00000000E+00  0.00000000E+00  0.00000000E+00
  0.00000000E+00  0.00000000E+00  0.00000000E+00
  0.00000000E+00  0.00000000E+00  0.00000000E+00
  0.00000000E+00  0.00000000E+00  0.00000000E+00
  0.00000000E+00  0.00000000E+00  0.00000000E+00
  0.00000000E+00  0.00000000E+00  0.00000000E+00
  0.00000000E+00  0.00000000E+00  0.00000000E+00
  0.00000000E+00  0.00000000E+00  0.00000000E+00
  0.00000000E+00  0.00000000E+00  0.00000000E+00
  0.00000000E+00  0.00000000E+00  0.00000000E+00
  0.00000000E+00  0.00000000E+00  0.00000000E+00
  0.00000000E+00  0.00000000E+00  0.00000000E+00
  0.00000000E+00  0.00000000E+00  0.00000000E+00
