1h\(2)                                  
   1.00000000000000     
    12.3312997818000003    0.0000000000000000    0.0000000000000000
     0.0001127485000000   12.8291997905000006    0.0000000000000000
     0.0005937186000000    0.0011528207000000   19.9943999824000009
   C    N    Fe   Ni
    53     3     1     1
Direct
  0.0561082764072222  0.0546225951690405  0.0550055922722009
  0.1562362205883004  0.1111397565371182  0.0551561030600614
  0.1573250721221090  0.2220638833824661  0.0550901636625443
  0.0572400701766445  0.2764969846087649  0.0547703378422069
  0.2565833599041539  0.0567109080691354  0.0557366913777529
  0.3571563220513557  0.1126486286109638  0.0566669845674370
  0.3583116012559501  0.2244988887639700  0.0566372979247338
  0.2576190556794712  0.2783183391750847  0.0556370925708369
  0.4567063159118064  0.0564201023345727  0.0574061669775527
  0.5577149684171239  0.1116921258736970  0.0578091167088651
  0.5586085353083032  0.2239319052353752  0.0577924153763802
  0.4590020239699731  0.2825006909511393  0.0573597732033312
  0.6563251570266928  0.0513676704533446  0.0576384487753016
  0.7559918074379881  0.1081765879540648  0.0569858315968741
  0.7580804286807727  0.2202310174326313  0.0568606954026833
  0.6599540465617850  0.2794591429343752  0.0575380219512879
  0.8552923193393158  0.0520952574291032  0.0562004411770792
  0.9557655804599964  0.1085800101210104  0.0554032007545287
  0.9575089622047331  0.2199454647564845  0.0552340382120683
  0.8580687411894612  0.2754068905819593  0.0558689477065966
  0.0576975694866827  0.3879607361499795  0.0544332107664122
  0.1567443643960545  0.4441230054497122  0.0543989004488086
  0.1566730045783525  0.5553288543706690  0.0541503076679360
  0.0563454367315188  0.6100018030724093  0.0540087788826411
  0.2569605657815393  0.3893789493473024  0.0552261952859780
  0.3560028598081149  0.4458398495149760  0.0559479230320646
  0.3578957165871305  0.5587067567607114  0.0557310059615166
  0.2563194315541454  0.6120386955424167  0.0547436117473115
  0.7601831980255600  0.4423572842135393  0.0565763494966782
  0.8593065569473866  0.3867043556216828  0.0556216523452617
  0.9580215939949075  0.4432263640702315  0.0546540837165653
  0.9566173712078245  0.5541254578920424  0.0544827324229131
  0.8549443121135692  0.6079907005186066  0.0553939004441648
  0.0556117652874080  0.7211336328337606  0.0541615805924329
  0.1541742299526541  0.7778015834798133  0.0543949626391218
  0.1550430242272089  0.8889220203113305  0.0547459302642472
  0.0551146066398783  0.9435912333721751  0.0548314585969994
  0.2538157409989917  0.7227117286031938  0.0548494920673761
  0.3518795941264307  0.7791799925266533  0.0559542253114321
  0.3540430156547630  0.8901679691756070  0.0562772115338503
  0.2548123084488870  0.9455192105643866  0.0554937153099351
  0.4508316465289314  0.7238038983043632  0.0570413004455528
  0.5522777770628073  0.8855416357946748  0.0578316674444268
  0.4544555698293662  0.9451147482762889  0.0572993847573533
  0.7553183434102110  0.8800678427629011  0.0568690269056530
  0.6553102584793249  0.9382360163093302  0.0576502397753531
  0.8567398007875701  0.7206210092526113  0.0555140016731808
  0.9556573893691129  0.7761713599953139  0.0547891354073301
  0.9555859195212947  0.8871519711279332  0.0551520272252568
  0.8543913800340278  0.9398830768334981  0.0561046785311841
  0.4557759111556898  0.3936748760544805  0.0571271423169438
  0.4589687658171568  0.6123629754339464  0.0569195756082366
  0.7534968072669207  0.5548185492893674  0.0565391008772484
  0.6644879060355517  0.3859103503548809  0.0575339967442816
  0.5462596906818707  0.7798941863039541  0.0580298705379085
  0.7582651154976517  0.7704069162819016  0.0566036167718142
  0.6388481034534873  0.6672533755842558  0.0575493652545518
  0.5687345278268633  0.4932804162747741  0.0576712750697636
 
  0.00000000E+00  0.00000000E+00  0.00000000E+00
  0.00000000E+00  0.00000000E+00  0.00000000E+00
  0.00000000E+00  0.00000000E+00  0.00000000E+00
  0.00000000E+00  0.00000000E+00  0.00000000E+00
  0.00000000E+00  0.00000000E+00  0.00000000E+00
  0.00000000E+00  0.00000000E+00  0.00000000E+00
  0.00000000E+00  0.00000000E+00  0.00000000E+00
  0.00000000E+00  0.00000000E+00  0.00000000E+00
  0.00000000E+00  0.00000000E+00  0.00000000E+00
  0.00000000E+00  0.00000000E+00  0.00000000E+00
  0.00000000E+00  0.00000000E+00  0.00000000E+00
  0.00000000E+00  0.00000000E+00  0.00000000E+00
  0.00000000E+00  0.00000000E+00  0.00000000E+00
  0.00000000E+00  0.00000000E+00  0.00000000E+00
  0.00000000E+00  0.00000000E+00  0.00000000E+00
  0.00000000E+00  0.00000000E+00  0.00000000E+00
  0.00000000E+00  0.00000000E+00  0.00000000E+00
  0.00000000E+00  0.00000000E+00  0.00000000E+00
  0.00000000E+00  0.00000000E+00  0.00000000E+00
  0.00000000E+00  0.00000000E+00  0.00000000E+00
  0.00000000E+00  0.00000000E+00  0.00000000E+00
  0.00000000E+00  0.00000000E+00  0.00000000E+00
  0.00000000E+00  0.00000000E+00  0.00000000E+00
  0.00000000E+00  0.00000000E+00  0.00000000E+00
  0.00000000E+00  0.00000000E+00  0.00000000E+00
  0.00000000E+00  0.00000000E+00  0.00000000E+00
  0.00000000E+00  0.00000000E+00  0.00000000E+00
  0.00000000E+00  0.00000000E+00  0.00000000E+00
  0.00000000E+00  0.00000000E+00  0.00000000E+00
  0.00000000E+00  0.00000000E+00  0.00000000E+00
  0.00000000E+00  0.00000000E+00  0.00000000E+00
  0.00000000E+00  0.00000000E+00  0.00000000E+00
  0.00000000E+00  0.00000000E+00  0.00000000E+00
  0.00000000E+00  0.00000000E+00  0.00000000E+00
  0.00000000E+00  0.00000000E+00  0.00000000E+00
  0.00000000E+00  0.00000000E+00  0.00000000E+00
  0.00000000E+00  0.00000000E+00  0.00000000E+00
  0.00000000E+00  0.00000000E+00  0.00000000E+00
  0.00000000E+00  0.00000000E+00  0.00000000E+00
  0.00000000E+00  0.00000000E+00  0.00000000E+00
  0.00000000E+00  0.00000000E+00  0.00000000E+00
  0.00000000E+00  0.00000000E+00  0.00000000E+00
  0.00000000E+00  0.00000000E+00  0.00000000E+00
  0.00000000E+00  0.00000000E+00  0.00000000E+00
  0.00000000E+00  0.00000000E+00  0.00000000E+00
  0.00000000E+00  0.00000000E+00  0.00000000E+00
  0.00000000E+00  0.00000000E+00  0.00000000E+00
  0.00000000E+00  0.00000000E+00  0.00000000E+00
  0.00000000E+00  0.00000000E+00  0.00000000E+00
  0.00000000E+00  0.00000000E+00  0.00000000E+00
  0.00000000E+00  0.00000000E+00  0.00000000E+00
  0.00000000E+00  0.00000000E+00  0.00000000E+00
  0.00000000E+00  0.00000000E+00  0.00000000E+00
  0.00000000E+00  0.00000000E+00  0.00000000E+00
  0.00000000E+00  0.00000000E+00  0.00000000E+00
  0.00000000E+00  0.00000000E+00  0.00000000E+00
  0.00000000E+00  0.00000000E+00  0.00000000E+00
  0.00000000E+00  0.00000000E+00  0.00000000E+00
