CONTCAR\(8)                             
   1.00000000000000     
    12.3312997818000003    0.0000000000000000    0.0000000000000000
     0.0001127485000000   12.8291997905000006    0.0000000000000000
     0.0005937186000000    0.0011528207000000   19.9943999824000009
   C    N    Fe   Ni   H 
    53     3     1     1     2
Direct
  0.0556152555077544  0.0548464992869766  0.0533708662535243
  0.1556103631382026  0.1106169485871265  0.0527867921593872
  0.1559639465417262  0.2214295574940238  0.0522611840648599
  0.0561788059196794  0.2765075164974510  0.0522756145758850
  0.2559102833283491  0.0559909795989239  0.0529784086314611
  0.3564892582205368  0.1114354553109053  0.0549254845218411
  0.3566554298127433  0.2233271837846144  0.0548819967554893
  0.2560169302670929  0.2770831259006087  0.0523332619752075
  0.4559254977532989  0.0552460315723496  0.0571537801441612
  0.5558925877783224  0.1115394994999852  0.0602123295781294
  0.5561060137597006  0.2241006352372633  0.0613165022157242
  0.4556250791375929  0.2816989599521434  0.0575947515158659
  0.6554354826447889  0.0513116733066093  0.0611304713774776
  0.7552598327380791  0.1086944197265789  0.0599473561793028
  0.7563017974066547  0.2210506912283048  0.0605783671308050
  0.6574644816380264  0.2798714691685589  0.0640560826686926
  0.8546660383416596  0.0526663592195802  0.0573293910412521
  0.9551148195203562  0.1091727466481485  0.0550670053190990
  0.9559722702520862  0.2205826859191705  0.0545441750838186
  0.8564810876539845  0.2766277153674111  0.0568850378416828
  0.0574806922891921  0.3879354467986400  0.0508683040460660
  0.1567198024470742  0.4436903598871036  0.0495000149134776
  0.1569870436615950  0.5549088224722059  0.0485633809427112
  0.0573863368378857  0.6102814076244961  0.0489584852098981
  0.2562403854745654  0.3879387773846034  0.0507097903915077
  0.3560628059832405  0.4424761852237750  0.0517114241948886
  0.3582463646572582  0.5563189994996024  0.0503739583328556
  0.2565452691336397  0.6106136909925569  0.0487068799630385
  0.7609088296182337  0.4461170390276245  0.0612938475814289
  0.8589591701810233  0.3882676418416712  0.0556156121096887
  0.9581891853582037  0.4436910517676650  0.0519048142802548
  0.9579098234485338  0.5548060157979918  0.0509936756635569
  0.8582724267969885  0.6107228527029459  0.0543023102820763
  0.0564350369883330  0.7214868964871314  0.0492892512901883
  0.1550518930882178  0.7774418439417099  0.0491164331399521
  0.1552136943745474  0.8887123925390654  0.0506749694212466
  0.0554866289851056  0.9439213127046115  0.0523491494995874
  0.2545156723026607  0.7215481185801084  0.0488745702106632
  0.3525932868853740  0.7783709175820412  0.0510855721512013
  0.3541538442736028  0.8893568869905568  0.0528768947506661
  0.2548603564021179  0.9450134343339686  0.0518222868324788
  0.4511423041351933  0.7231272967932496  0.0546347971896885
  0.5523844545206766  0.8833681921506200  0.0603908567075883
  0.4545097484024779  0.9435984764254226  0.0564537652419860
  0.7558638665872206  0.8803860062291201  0.0595548225761978
  0.6552568322915144  0.9379323728671873  0.0614700874370659
  0.8580361525444816  0.7227083907692314  0.0541665447851119
  0.9569068763676642  0.7775404044757774  0.0515857951176136
  0.9559647994541679  0.8879852897871173  0.0533921279866741
  0.8545163908806261  0.9404881056014129  0.0568340614483034
  0.4574992155130144  0.6116786713747192  0.0533776515207658
  0.6626611381737217  0.3895739569558027  0.0676329843039997
  0.7583426163656555  0.5587332266244626  0.0607265511256199
  0.4526572261234391  0.3904128741170426  0.0558798288687266
  0.5470695927189949  0.7776608506338607  0.0618469553648924
  0.7596350358778923  0.7710370414834593  0.0585984273099732
  0.6416970946844294  0.6598612040120752  0.0704872174953641
  0.5617215801810288  0.4931712797209971  0.0668294007363137
  0.6131191152897055  0.5769637720297470  0.1259219465428068
  0.6509221443400584  0.6655623094618883  0.1445756980001726
 
  0.00000000E+00  0.00000000E+00  0.00000000E+00
  0.00000000E+00  0.00000000E+00  0.00000000E+00
  0.00000000E+00  0.00000000E+00  0.00000000E+00
  0.00000000E+00  0.00000000E+00  0.00000000E+00
  0.00000000E+00  0.00000000E+00  0.00000000E+00
  0.00000000E+00  0.00000000E+00  0.00000000E+00
  0.00000000E+00  0.00000000E+00  0.00000000E+00
  0.00000000E+00  0.00000000E+00  0.00000000E+00
  0.00000000E+00  0.00000000E+00  0.00000000E+00
  0.00000000E+00  0.00000000E+00  0.00000000E+00
  0.00000000E+00  0.00000000E+00  0.00000000E+00
  0.00000000E+00  0.00000000E+00  0.00000000E+00
  0.00000000E+00  0.00000000E+00  0.00000000E+00
  0.00000000E+00  0.00000000E+00  0.00000000E+00
  0.00000000E+00  0.00000000E+00  0.00000000E+00
  0.00000000E+00  0.00000000E+00  0.00000000E+00
  0.00000000E+00  0.00000000E+00  0.00000000E+00
  0.00000000E+00  0.00000000E+00  0.00000000E+00
  0.00000000E+00  0.00000000E+00  0.00000000E+00
  0.00000000E+00  0.00000000E+00  0.00000000E+00
  0.00000000E+00  0.00000000E+00  0.00000000E+00
  0.00000000E+00  0.00000000E+00  0.00000000E+00
  0.00000000E+00  0.00000000E+00  0.00000000E+00
  0.00000000E+00  0.00000000E+00  0.00000000E+00
  0.00000000E+00  0.00000000E+00  0.00000000E+00
  0.00000000E+00  0.00000000E+00  0.00000000E+00
  0.00000000E+00  0.00000000E+00  0.00000000E+00
  0.00000000E+00  0.00000000E+00  0.00000000E+00
  0.00000000E+00  0.00000000E+00  0.00000000E+00
  0.00000000E+00  0.00000000E+00  0.00000000E+00
  0.00000000E+00  0.00000000E+00  0.00000000E+00
  0.00000000E+00  0.00000000E+00  0.00000000E+00
  0.00000000E+00  0.00000000E+00  0.00000000E+00
  0.00000000E+00  0.00000000E+00  0.00000000E+00
  0.00000000E+00  0.00000000E+00  0.00000000E+00
  0.00000000E+00  0.00000000E+00  0.00000000E+00
  0.00000000E+00  0.00000000E+00  0.00000000E+00
  0.00000000E+00  0.00000000E+00  0.00000000E+00
  0.00000000E+00  0.00000000E+00  0.00000000E+00
  0.00000000E+00  0.00000000E+00  0.00000000E+00
  0.00000000E+00  0.00000000E+00  0.00000000E+00
  0.00000000E+00  0.00000000E+00  0.00000000E+00
  0.00000000E+00  0.00000000E+00  0.00000000E+00
  0.00000000E+00  0.00000000E+00  0.00000000E+00
  0.00000000E+00  0.00000000E+00  0.00000000E+00
  0.00000000E+00  0.00000000E+00  0.00000000E+00
  0.00000000E+00  0.00000000E+00  0.00000000E+00
  0.00000000E+00  0.00000000E+00  0.00000000E+00
  0.00000000E+00  0.00000000E+00  0.00000000E+00
  0.00000000E+00  0.00000000E+00  0.00000000E+00
  0.00000000E+00  0.00000000E+00  0.00000000E+00
  0.00000000E+00  0.00000000E+00  0.00000000E+00
  0.00000000E+00  0.00000000E+00  0.00000000E+00
  0.00000000E+00  0.00000000E+00  0.00000000E+00
  0.00000000E+00  0.00000000E+00  0.00000000E+00
  0.00000000E+00  0.00000000E+00  0.00000000E+00
  0.00000000E+00  0.00000000E+00  0.00000000E+00
  0.00000000E+00  0.00000000E+00  0.00000000E+00
  0.00000000E+00  0.00000000E+00  0.00000000E+00
  0.00000000E+00  0.00000000E+00  0.00000000E+00
