1234                                    
   1.00000000000000     
    12.3312997818000003    0.0000000000000000    0.0000000000000000
     0.0001127485000000   12.8291997905000006    0.0000000000000000
     0.0005937186000000    0.0011528207000000   19.9943999824000009
   C    N    Fe   Ni   O    H 
    52     4     1     1     1     1
Direct
  0.0562865353436682  0.0555819430024566  0.0499609511689675
  0.1566685893502048  0.1109121553635125  0.0503379899082113
  0.1565058968760211  0.2218359078988021  0.0492389022825385
  0.0559218741849455  0.2769001181658064  0.0482335276505793
  0.2569703220380312  0.0556776619100974  0.0526049509450809
  0.3573938221568502  0.1109090151126528  0.0564231089169507
  0.3569455932369495  0.2229702286877777  0.0556873232483343
  0.2564528164334985  0.2772418003447335  0.0506299238672945
  0.4569303992739851  0.0540187687883576  0.0607185568878541
  0.5562971360323740  0.1108823788919114  0.0642309024827410
  0.5561201904254196  0.2240978836245681  0.0656798509827738
  0.4558350393906700  0.2816356177584686  0.0605588776860466
  0.6554150146625898  0.0508613950203581  0.0639474469335599
  0.7548967260565811  0.1090798910736201  0.0604277016497601
  0.7555816767119266  0.2216608073940452  0.0615422192612616
  0.6567896326708819  0.2806875659129603  0.0682942844746823
  0.8551747946720695  0.0538241814155608  0.0554134180353523
  0.9553348610877110  0.1100731845279402  0.0520933703326425
  0.9555881650656919  0.2215791068206491  0.0515989958788008
  0.8557150672929074  0.2775989998046950  0.0557473465233334
  0.0565552208951604  0.3878729735804416  0.0457006754220319
  0.1564550314037683  0.4436837633278216  0.0445703306253737
  0.1567728992690566  0.5543906964013795  0.0430949524589766
  0.0578205530528465  0.6107001456646125  0.0424393814730652
  0.2564545360197123  0.3886693795914414  0.0483828455018747
  0.3559954692404982  0.4436755673908452  0.0527580161057141
  0.3557024753566660  0.5567057522386358  0.0535254745388193
  0.2559091296444843  0.6101789876976320  0.0466993603493191
  0.7588904614219711  0.4481712590467308  0.0637304032893594
  0.8572585872964560  0.3893309782181741  0.0543213521171389
  0.9570501488582566  0.4438962700899997  0.0472631194833832
  0.9584831097432237  0.5553263058520290  0.0452598113008921
  0.8600065724207507  0.6116970103906576  0.0506599418884740
  0.0579187611967284  0.7217581960256202  0.0433392305534109
  0.1566588153552146  0.7777924427002818  0.0450799085125282
  0.1568197319037312  0.8889666750462227  0.0476260024028534
  0.0568455040179580  0.9448401742493739  0.0483240436179558
  0.2553725054606838  0.7214270898224160  0.0476256302220091
  0.3539485217867535  0.7764327328468115  0.0540599255665941
  0.3557174958201198  0.8876257858104240  0.0555313317952856
  0.2566068197025554  0.9441984177841543  0.0515082003855444
  0.4512377699407142  0.7184558958600646  0.0627533603485845
  0.5530748747729225  0.8804730341175732  0.0663625838299590
  0.4561292929457242  0.9417705305355635  0.0610858618332972
  0.7577741437416375  0.8817092903053232  0.0594347323455796
  0.6552071656150638  0.9364189114775991  0.0646506844382114
  0.8610256742439555  0.7237539743391419  0.0504683228190741
  0.9590699636922400  0.7784772481222101  0.0463553220963127
  0.9573098634469586  0.8891279540596262  0.0490659316636515
  0.8559134648861401  0.9419465885740216  0.0541946453937828
  0.6618528972853857  0.3909345816603575  0.0745003641774650
  0.7607265728800758  0.5606031576567567  0.0622362238699979
  0.4530273171799504  0.3899728259134031  0.0595090049448704
  0.4511486676457169  0.6106447427039016  0.0635556422835518
  0.5471574865233562  0.7718699108369023  0.0713000056218355
  0.7635889155182410  0.7739206372833225  0.0586533421517525
  0.6626025354239488  0.6684953084222931  0.0895845297141280
  0.5546982354674641  0.4883108552609474  0.0846517172826852
  0.6146852990212940  0.5765283836672803  0.1564845747178702
  0.5509433229396485  0.6048170129090191  0.1791535497399937
 
  0.00000000E+00  0.00000000E+00  0.00000000E+00
  0.00000000E+00  0.00000000E+00  0.00000000E+00
  0.00000000E+00  0.00000000E+00  0.00000000E+00
  0.00000000E+00  0.00000000E+00  0.00000000E+00
  0.00000000E+00  0.00000000E+00  0.00000000E+00
  0.00000000E+00  0.00000000E+00  0.00000000E+00
  0.00000000E+00  0.00000000E+00  0.00000000E+00
  0.00000000E+00  0.00000000E+00  0.00000000E+00
  0.00000000E+00  0.00000000E+00  0.00000000E+00
  0.00000000E+00  0.00000000E+00  0.00000000E+00
  0.00000000E+00  0.00000000E+00  0.00000000E+00
  0.00000000E+00  0.00000000E+00  0.00000000E+00
  0.00000000E+00  0.00000000E+00  0.00000000E+00
  0.00000000E+00  0.00000000E+00  0.00000000E+00
  0.00000000E+00  0.00000000E+00  0.00000000E+00
  0.00000000E+00  0.00000000E+00  0.00000000E+00
  0.00000000E+00  0.00000000E+00  0.00000000E+00
  0.00000000E+00  0.00000000E+00  0.00000000E+00
  0.00000000E+00  0.00000000E+00  0.00000000E+00
  0.00000000E+00  0.00000000E+00  0.00000000E+00
  0.00000000E+00  0.00000000E+00  0.00000000E+00
  0.00000000E+00  0.00000000E+00  0.00000000E+00
  0.00000000E+00  0.00000000E+00  0.00000000E+00
  0.00000000E+00  0.00000000E+00  0.00000000E+00
  0.00000000E+00  0.00000000E+00  0.00000000E+00
  0.00000000E+00  0.00000000E+00  0.00000000E+00
  0.00000000E+00  0.00000000E+00  0.00000000E+00
  0.00000000E+00  0.00000000E+00  0.00000000E+00
  0.00000000E+00  0.00000000E+00  0.00000000E+00
  0.00000000E+00  0.00000000E+00  0.00000000E+00
  0.00000000E+00  0.00000000E+00  0.00000000E+00
  0.00000000E+00  0.00000000E+00  0.00000000E+00
  0.00000000E+00  0.00000000E+00  0.00000000E+00
  0.00000000E+00  0.00000000E+00  0.00000000E+00
  0.00000000E+00  0.00000000E+00  0.00000000E+00
  0.00000000E+00  0.00000000E+00  0.00000000E+00
  0.00000000E+00  0.00000000E+00  0.00000000E+00
  0.00000000E+00  0.00000000E+00  0.00000000E+00
  0.00000000E+00  0.00000000E+00  0.00000000E+00
  0.00000000E+00  0.00000000E+00  0.00000000E+00
  0.00000000E+00  0.00000000E+00  0.00000000E+00
  0.00000000E+00  0.00000000E+00  0.00000000E+00
  0.00000000E+00  0.00000000E+00  0.00000000E+00
  0.00000000E+00  0.00000000E+00  0.00000000E+00
  0.00000000E+00  0.00000000E+00  0.00000000E+00
  0.00000000E+00  0.00000000E+00  0.00000000E+00
  0.00000000E+00  0.00000000E+00  0.00000000E+00
  0.00000000E+00  0.00000000E+00  0.00000000E+00
  0.00000000E+00  0.00000000E+00  0.00000000E+00
  0.00000000E+00  0.00000000E+00  0.00000000E+00
  0.00000000E+00  0.00000000E+00  0.00000000E+00
  0.00000000E+00  0.00000000E+00  0.00000000E+00
  0.00000000E+00  0.00000000E+00  0.00000000E+00
  0.00000000E+00  0.00000000E+00  0.00000000E+00
  0.00000000E+00  0.00000000E+00  0.00000000E+00
  0.00000000E+00  0.00000000E+00  0.00000000E+00
  0.00000000E+00  0.00000000E+00  0.00000000E+00
  0.00000000E+00  0.00000000E+00  0.00000000E+00
  0.00000000E+00  0.00000000E+00  0.00000000E+00
  0.00000000E+00  0.00000000E+00  0.00000000E+00
