CONTCAR\(3)                             
   1.00000000000000     
    12.3312997818000003    0.0000000000000000    0.0000000000000000
     0.0001127485000000   12.8291997905000006    0.0000000000000000
     0.0005937186000000    0.0011528207000000   19.9943999824000009
   C    N    Fe   Ni   H 
    54     2     1     1     2
Direct
  0.0558767208982225  0.0528739006322656  0.0513049766639628
  0.1562714856791886  0.1088068011071640  0.0514498038031125
  0.1569260257007505  0.2197250340893494  0.0506435212100470
  0.0571448189135065  0.2745950606189579  0.0497890645209372
  0.2568654260629263  0.0548014659407655  0.0530667313663842
  0.3571027062838303  0.1116109048932982  0.0550535078972379
  0.3577053084482028  0.2233543711425824  0.0546078073868753
  0.2566063911568348  0.2762436314458961  0.0516909412408895
  0.4569049653217777  0.0563228871735332  0.0576541048862921
  0.5574790489200219  0.1133106770950141  0.0591844985309586
  0.5585860365326216  0.2258093740103192  0.0594848308539980
  0.4578052640513314  0.2823717880333356  0.0573683878064721
  0.6562317522916784  0.0538506780562584  0.0589625397616619
  0.7562538758409594  0.1092747529252304  0.0563141591657917
  0.7577215279970826  0.2212994680543858  0.0559888624861362
  0.6605607541965984  0.2816200836635920  0.0593817502684644
  0.8553036476843104  0.0522411476924575  0.0540398398359340
  0.9559130210448399  0.1076613728586503  0.0519886159091140
  0.9573030807347919  0.2188308655163783  0.0511217592724904
  0.8582739367724767  0.2748778842245446  0.0525990307770918
  0.0574086627114055  0.3858713927536058  0.0489062050795841
  0.1556086022669012  0.4426364110229881  0.0490810360712596
  0.1551321902351457  0.5541987456933980  0.0490483154712042
  0.0559153708820163  0.6092998456130087  0.0488362524451307
  0.2547993890468576  0.3871037090444172  0.0506908086954991
  0.3527199994831763  0.4436834637665444  0.0530446668311786
  0.3534708795547338  0.5558333613035802  0.0537173137635481
  0.2542653919826675  0.6108473096309227  0.0508699256132274
  0.7621977753734605  0.4424380814672117  0.0549462084457515
  0.8600912341816991  0.3857550782445867  0.0511957241623402
  0.9586149169126519  0.4413340162700747  0.0491434606653567
  0.9571803100243530  0.5520774461501677  0.0492900796914814
  0.8566084209371032  0.6044645155590835  0.0512300833232406
  0.0552388960236908  0.7204688884363927  0.0494418428484319
  0.1544891088034570  0.7767481339516419  0.0503044826616638
  0.1553180970384431  0.8876921683019480  0.0511390706129995
  0.0549435860937861  0.9418121820593195  0.0511058683226869
  0.2540637660355192  0.7215853785914013  0.0515698575194772
  0.3536725743432508  0.7763751408508991  0.0550844808051425
  0.3555008475087468  0.8880591301402202  0.0555129729924860
  0.2558662594236200  0.9435211008167329  0.0529895548312034
  0.4525641564947441  0.7185995147408669  0.0603600102238046
  0.5544756872264522  0.8867079320981980  0.0618875908714232
  0.4555579450939513  0.9444618653892073  0.0583843116732159
  0.7541354364054400  0.8825968045426764  0.0573787696485872
  0.6554924386963082  0.9419343914330155  0.0601089252884029
  0.8549752837724907  0.7174704725433479  0.0524766162509856
  0.9548480104534298  0.7742673099038068  0.0507898926939561
  0.9546918862231299  0.8855785870645350  0.0517803290860526
  0.8541362368437065  0.9400738992805240  0.0541916522318620
  0.4529678998562121  0.3932092010417998  0.0566330040172538
  0.5508774671601506  0.7771077497577109  0.0659235952620786
  0.7542237077304893  0.7698747211037018  0.0573075252722732
  0.4544285674366401  0.6060988909343271  0.0599897381906579
  0.6659032961589922  0.3896371404814880  0.0612808647224168
  0.7603665302816349  0.5503210866189752  0.0541066092610646
  0.6436574046223287  0.6662684331290112  0.0725589501103493
  0.5621461164662354  0.4937488037588775  0.0669979747870770
  0.6279547297728949  0.6582911760456904  0.1547605618145391
  0.6107551979101402  0.5937844632901096  0.1418401250972336
 
  0.00000000E+00  0.00000000E+00  0.00000000E+00
  0.00000000E+00  0.00000000E+00  0.00000000E+00
  0.00000000E+00  0.00000000E+00  0.00000000E+00
  0.00000000E+00  0.00000000E+00  0.00000000E+00
  0.00000000E+00  0.00000000E+00  0.00000000E+00
  0.00000000E+00  0.00000000E+00  0.00000000E+00
  0.00000000E+00  0.00000000E+00  0.00000000E+00
  0.00000000E+00  0.00000000E+00  0.00000000E+00
  0.00000000E+00  0.00000000E+00  0.00000000E+00
  0.00000000E+00  0.00000000E+00  0.00000000E+00
  0.00000000E+00  0.00000000E+00  0.00000000E+00
  0.00000000E+00  0.00000000E+00  0.00000000E+00
  0.00000000E+00  0.00000000E+00  0.00000000E+00
  0.00000000E+00  0.00000000E+00  0.00000000E+00
  0.00000000E+00  0.00000000E+00  0.00000000E+00
  0.00000000E+00  0.00000000E+00  0.00000000E+00
  0.00000000E+00  0.00000000E+00  0.00000000E+00
  0.00000000E+00  0.00000000E+00  0.00000000E+00
  0.00000000E+00  0.00000000E+00  0.00000000E+00
  0.00000000E+00  0.00000000E+00  0.00000000E+00
  0.00000000E+00  0.00000000E+00  0.00000000E+00
  0.00000000E+00  0.00000000E+00  0.00000000E+00
  0.00000000E+00  0.00000000E+00  0.00000000E+00
  0.00000000E+00  0.00000000E+00  0.00000000E+00
  0.00000000E+00  0.00000000E+00  0.00000000E+00
  0.00000000E+00  0.00000000E+00  0.00000000E+00
  0.00000000E+00  0.00000000E+00  0.00000000E+00
  0.00000000E+00  0.00000000E+00  0.00000000E+00
  0.00000000E+00  0.00000000E+00  0.00000000E+00
  0.00000000E+00  0.00000000E+00  0.00000000E+00
  0.00000000E+00  0.00000000E+00  0.00000000E+00
  0.00000000E+00  0.00000000E+00  0.00000000E+00
  0.00000000E+00  0.00000000E+00  0.00000000E+00
  0.00000000E+00  0.00000000E+00  0.00000000E+00
  0.00000000E+00  0.00000000E+00  0.00000000E+00
  0.00000000E+00  0.00000000E+00  0.00000000E+00
  0.00000000E+00  0.00000000E+00  0.00000000E+00
  0.00000000E+00  0.00000000E+00  0.00000000E+00
  0.00000000E+00  0.00000000E+00  0.00000000E+00
  0.00000000E+00  0.00000000E+00  0.00000000E+00
  0.00000000E+00  0.00000000E+00  0.00000000E+00
  0.00000000E+00  0.00000000E+00  0.00000000E+00
  0.00000000E+00  0.00000000E+00  0.00000000E+00
  0.00000000E+00  0.00000000E+00  0.00000000E+00
  0.00000000E+00  0.00000000E+00  0.00000000E+00
  0.00000000E+00  0.00000000E+00  0.00000000E+00
  0.00000000E+00  0.00000000E+00  0.00000000E+00
  0.00000000E+00  0.00000000E+00  0.00000000E+00
  0.00000000E+00  0.00000000E+00  0.00000000E+00
  0.00000000E+00  0.00000000E+00  0.00000000E+00
  0.00000000E+00  0.00000000E+00  0.00000000E+00
  0.00000000E+00  0.00000000E+00  0.00000000E+00
  0.00000000E+00  0.00000000E+00  0.00000000E+00
  0.00000000E+00  0.00000000E+00  0.00000000E+00
  0.00000000E+00  0.00000000E+00  0.00000000E+00
  0.00000000E+00  0.00000000E+00  0.00000000E+00
  0.00000000E+00  0.00000000E+00  0.00000000E+00
  0.00000000E+00  0.00000000E+00  0.00000000E+00
  0.00000000E+00  0.00000000E+00  0.00000000E+00
  0.00000000E+00  0.00000000E+00  0.00000000E+00
