CONTCAR\(2)                             
   1.00000000000000     
    12.3312997818000003    0.0000000000000000    0.0000000000000000
     0.0001127485000000   12.8291997905000006    0.0000000000000000
     0.0005937186000000    0.0011528207000000   19.9943999824000009
   C    N    Fe   Ni   O 
    53     3     1     1     2
Direct
  0.0560493453061282  0.0544711162091576  0.0499211366915520
  0.1565799057862861  0.1101684931358093  0.0499430381264746
  0.1572105648151330  0.2212286648353252  0.0491560588025426
  0.0571317279563256  0.2759506428973534  0.0485236090734753
  0.2570195748380261  0.0556475451956502  0.0513722453281900
  0.3573626540349871  0.1120551645736807  0.0533065959738294
  0.3579247427635834  0.2239722726301092  0.0527009273143767
  0.2570600126428376  0.2778448097527791  0.0499170219388186
  0.4571939443258876  0.0564017327920614  0.0562262398533274
  0.5573627590838576  0.1135196633630436  0.0581874625922684
  0.5585124635737649  0.2263160036116991  0.0587849544896978
  0.4579249256542069  0.2824602167944987  0.0558469279543810
  0.6558634624498658  0.0542407195768706  0.0581564490330155
  0.7557449106117603  0.1103674190294423  0.0554866268652787
  0.7571287937257919  0.2225618445239934  0.0554477416552600
  0.6597952295112096  0.2826785045698941  0.0595221850433940
  0.8553381289709316  0.0539924691065504  0.0529203867629768
  0.9559610320056708  0.1093504614704191  0.0508027414752653
  0.9570915764298810  0.2204219221883275  0.0501626965457167
  0.8577407295241664  0.2762368731506966  0.0520150335587772
  0.0573372769831714  0.3869688044310768  0.0473726744663389
  0.1558827602694459  0.4436643679841675  0.0475836467197274
  0.1553799454021113  0.5549757206929870  0.0474730943017218
  0.0563787620386940  0.6103080868478971  0.0468819563665974
  0.2555840872935541  0.3890169156594627  0.0492564580747135
  0.3542083278303270  0.4460271411799944  0.0520524666577433
  0.3535615669756036  0.5582006226196023  0.0542239149877941
  0.2539465174002046  0.6120813207996183  0.0500289352382666
  0.7609453341051771  0.4444871708527089  0.0551733322870949
  0.8590418597651082  0.3870518450555548  0.0506674228125274
  0.9581372121638505  0.4423541070872843  0.0476965427874350
  0.9576793352664491  0.5530910203892511  0.0473237589003635
  0.8574891639768190  0.6053831161517468  0.0496002531208812
  0.0555412432330568  0.7213994530389440  0.0476071016221753
  0.1544581077901967  0.7780163296563308  0.0487393648689869
  0.1554860929738785  0.8889554441133539  0.0495733872652266
  0.0551852789194115  0.9434087045052386  0.0496160491201415
  0.2537627902938304  0.7226779316274933  0.0505848795533685
  0.3537534097435332  0.7767585323280448  0.0539926253332783
  0.3558582287495194  0.8884826689780351  0.0538903672386355
  0.2560942664349513  0.9442748040361517  0.0513357826976192
  0.4513671019017098  0.7176793882416106  0.0600882416540855
  0.5543359550208079  0.8850610639525747  0.0608707391614825
  0.4560228179431386  0.9440307508275756  0.0569347323404651
  0.7545612654854730  0.8848921520674859  0.0569342825391393
  0.6549518809249224  0.9420553477365721  0.0595787355786640
  0.8557908627588561  0.7185981936867101  0.0507231222846368
  0.9551912101334677  0.7755854811474955  0.0489841367209173
  0.9549709578526692  0.8871397803032187  0.0502952079967423
  0.8545521463530086  0.9420810344783985  0.0529910055456236
  0.4535567789617447  0.3932707319696964  0.0558279008476271
  0.5508952232678899  0.7742718854279040  0.0649827310330682
  0.7562127103077635  0.7733356574196167  0.0572884137576705
  0.4496476764044218  0.6086114934388512  0.0618864295944171
  0.6642608477592835  0.3911052483583006  0.0626739485929717
  0.7614055059836901  0.5515458320266891  0.0534904854595438
  0.6543283111094779  0.6719815382682687  0.0823477037505011
  0.5575856680742125  0.4882061786784826  0.0812430056463337
  0.6107858252877801  0.5400916305368660  0.1644379488485307
  0.6341792488504581  0.6469158969913482  0.1706971241483148
 
  0.00000000E+00  0.00000000E+00  0.00000000E+00
  0.00000000E+00  0.00000000E+00  0.00000000E+00
  0.00000000E+00  0.00000000E+00  0.00000000E+00
  0.00000000E+00  0.00000000E+00  0.00000000E+00
  0.00000000E+00  0.00000000E+00  0.00000000E+00
  0.00000000E+00  0.00000000E+00  0.00000000E+00
  0.00000000E+00  0.00000000E+00  0.00000000E+00
  0.00000000E+00  0.00000000E+00  0.00000000E+00
  0.00000000E+00  0.00000000E+00  0.00000000E+00
  0.00000000E+00  0.00000000E+00  0.00000000E+00
  0.00000000E+00  0.00000000E+00  0.00000000E+00
  0.00000000E+00  0.00000000E+00  0.00000000E+00
  0.00000000E+00  0.00000000E+00  0.00000000E+00
  0.00000000E+00  0.00000000E+00  0.00000000E+00
  0.00000000E+00  0.00000000E+00  0.00000000E+00
  0.00000000E+00  0.00000000E+00  0.00000000E+00
  0.00000000E+00  0.00000000E+00  0.00000000E+00
  0.00000000E+00  0.00000000E+00  0.00000000E+00
  0.00000000E+00  0.00000000E+00  0.00000000E+00
  0.00000000E+00  0.00000000E+00  0.00000000E+00
  0.00000000E+00  0.00000000E+00  0.00000000E+00
  0.00000000E+00  0.00000000E+00  0.00000000E+00
  0.00000000E+00  0.00000000E+00  0.00000000E+00
  0.00000000E+00  0.00000000E+00  0.00000000E+00
  0.00000000E+00  0.00000000E+00  0.00000000E+00
  0.00000000E+00  0.00000000E+00  0.00000000E+00
  0.00000000E+00  0.00000000E+00  0.00000000E+00
  0.00000000E+00  0.00000000E+00  0.00000000E+00
  0.00000000E+00  0.00000000E+00  0.00000000E+00
  0.00000000E+00  0.00000000E+00  0.00000000E+00
  0.00000000E+00  0.00000000E+00  0.00000000E+00
  0.00000000E+00  0.00000000E+00  0.00000000E+00
  0.00000000E+00  0.00000000E+00  0.00000000E+00
  0.00000000E+00  0.00000000E+00  0.00000000E+00
  0.00000000E+00  0.00000000E+00  0.00000000E+00
  0.00000000E+00  0.00000000E+00  0.00000000E+00
  0.00000000E+00  0.00000000E+00  0.00000000E+00
  0.00000000E+00  0.00000000E+00  0.00000000E+00
  0.00000000E+00  0.00000000E+00  0.00000000E+00
  0.00000000E+00  0.00000000E+00  0.00000000E+00
  0.00000000E+00  0.00000000E+00  0.00000000E+00
  0.00000000E+00  0.00000000E+00  0.00000000E+00
  0.00000000E+00  0.00000000E+00  0.00000000E+00
  0.00000000E+00  0.00000000E+00  0.00000000E+00
  0.00000000E+00  0.00000000E+00  0.00000000E+00
  0.00000000E+00  0.00000000E+00  0.00000000E+00
  0.00000000E+00  0.00000000E+00  0.00000000E+00
  0.00000000E+00  0.00000000E+00  0.00000000E+00
  0.00000000E+00  0.00000000E+00  0.00000000E+00
  0.00000000E+00  0.00000000E+00  0.00000000E+00
  0.00000000E+00  0.00000000E+00  0.00000000E+00
  0.00000000E+00  0.00000000E+00  0.00000000E+00
  0.00000000E+00  0.00000000E+00  0.00000000E+00
  0.00000000E+00  0.00000000E+00  0.00000000E+00
  0.00000000E+00  0.00000000E+00  0.00000000E+00
  0.00000000E+00  0.00000000E+00  0.00000000E+00
  0.00000000E+00  0.00000000E+00  0.00000000E+00
  0.00000000E+00  0.00000000E+00  0.00000000E+00
  0.00000000E+00  0.00000000E+00  0.00000000E+00
  0.00000000E+00  0.00000000E+00  0.00000000E+00
