CONTCAR                                 
   1.00000000000000     
    12.3312997818000003    0.0000000000000000    0.0000000000000000
     0.0001127485000000   12.8291997905000006    0.0000000000000000
     0.0005937186000000    0.0011528207000000   19.9943999824000009
   C    N    Fe   Ni   O    H 
    54     2     1     1     2     2
Direct
  0.0555949860279265  0.0544326043471685  0.0452199357974534
  0.1559741165008743  0.1088232180531391  0.0448273527862858
  0.1552484783906641  0.2199096687310828  0.0439977292617045
  0.0546686192401037  0.2754873270073387  0.0448281930136727
  0.2564100324317187  0.0527466403951669  0.0462641523051995
  0.3568465606355334  0.1076450404271029  0.0498264948851912
  0.3563310028970136  0.2197542672650120  0.0485806343389026
  0.2555483255255180  0.2748473425556175  0.0438441635683930
  0.4565744028364415  0.0506991064090524  0.0549605351284415
  0.5560011860997534  0.1077152469670903  0.0597599062901905
  0.5554453906982216  0.2198783131184924  0.0607284623700786
  0.4557868553020533  0.2770432996775754  0.0536567942160460
  0.6560082869993308  0.0495265073567584  0.0613852899536133
  0.7550617846521571  0.1081324312022616  0.0583391466328239
  0.7548294803014258  0.2204944563843312  0.0601047212428926
  0.6553339084244917  0.2779393617037400  0.0655873200878391
  0.8551659766203792  0.0535777962597484  0.0525348227157037
  0.9549795848873170  0.1095425666452030  0.0485818332536542
  0.9543442123476036  0.2208396693954889  0.0490929087149915
  0.8541995658829901  0.2768723790260605  0.0547958191980846
  0.0540856760237836  0.3866933111158648  0.0428122143311541
  0.1536395760824845  0.4414965245718009  0.0394734770215671
  0.1532397337299554  0.5528118754612373  0.0377430767801166
  0.0543375943425708  0.6090919356043757  0.0384514189351007
  0.2540430836153587  0.3859752209153474  0.0411264555451931
  0.3534574669829517  0.4416326801526329  0.0433113961996517
  0.3516592770378629  0.5545002056379835  0.0435548256636215
  0.2522022478900728  0.6090717748142540  0.0392302349609946
  0.7548837039346882  0.4470765618261285  0.0657192732928319
  0.8543050813606831  0.3890111149973787  0.0549329851072800
  0.9540205228208063  0.4431498454695187  0.0464900976567668
  0.9546037747624549  0.5541672166436338  0.0437282212365897
  0.8559403530119457  0.6112511248176957  0.0515005042933966
  0.0557763778401612  0.7204821566856739  0.0383713026010995
  0.1548711023900677  0.7761580939331265  0.0389263595353587
  0.1560083902106953  0.8872928198560573  0.0416185624140142
  0.0563235712242788  0.9435537682275641  0.0431891572680703
  0.2539157868036554  0.7196793687384975  0.0405473702759915
  0.3542379645680317  0.7726973852518250  0.0470170105223341
  0.3564171889150650  0.8842050530522998  0.0490760542346173
  0.2566527601629199  0.9413827474770895  0.0451385663355931
  0.4513957357739548  0.7122184293765155  0.0550960783546479
  0.5557606944782741  0.8775485977462776  0.0632174370141639
  0.4569711549246899  0.9379614737312972  0.0555216348664256
  0.7588747601631164  0.8835125268336923  0.0594291669727907
  0.6565247923041163  0.9368307723323863  0.0633785438209346
  0.8588262793191122  0.7240074374371159  0.0502565885581019
  0.9572581289265398  0.7777079470069808  0.0424016781226788
  0.9568232535718156  0.8883185222877160  0.0449615027999766
  0.8563996323824634  0.9421157298607148  0.0513513440320656
  0.4535897444203867  0.3885237998446375  0.0510463225707204
  0.6564184907636210  0.3883097484187222  0.0719739547822804
  0.7583008323872832  0.5599127338598289  0.0669406463955843
  0.5510718201500461  0.7653229424320932  0.0689451379931626
  0.4469810323192571  0.6044782940056675  0.0520096904635271
  0.7644851668038752  0.7763031046221344  0.0626071742493387
  0.6688921775102707  0.6824674083412563  0.1105865549314321
  0.5509391513547877  0.4871915025497425  0.0770559601263288
  0.5853151334154392  0.5758810154573727  0.1557661699175543
  0.7510393855466260  0.7047209961973712  0.1856000117984428
  0.7324724469992238  0.6517919923456917  0.2189362892030019
  0.5171160930730556  0.6048070151354002  0.1721633530542861
 
  0.00000000E+00  0.00000000E+00  0.00000000E+00
  0.00000000E+00  0.00000000E+00  0.00000000E+00
  0.00000000E+00  0.00000000E+00  0.00000000E+00
  0.00000000E+00  0.00000000E+00  0.00000000E+00
  0.00000000E+00  0.00000000E+00  0.00000000E+00
  0.00000000E+00  0.00000000E+00  0.00000000E+00
  0.00000000E+00  0.00000000E+00  0.00000000E+00
  0.00000000E+00  0.00000000E+00  0.00000000E+00
  0.00000000E+00  0.00000000E+00  0.00000000E+00
  0.00000000E+00  0.00000000E+00  0.00000000E+00
  0.00000000E+00  0.00000000E+00  0.00000000E+00
  0.00000000E+00  0.00000000E+00  0.00000000E+00
  0.00000000E+00  0.00000000E+00  0.00000000E+00
  0.00000000E+00  0.00000000E+00  0.00000000E+00
  0.00000000E+00  0.00000000E+00  0.00000000E+00
  0.00000000E+00  0.00000000E+00  0.00000000E+00
  0.00000000E+00  0.00000000E+00  0.00000000E+00
  0.00000000E+00  0.00000000E+00  0.00000000E+00
  0.00000000E+00  0.00000000E+00  0.00000000E+00
  0.00000000E+00  0.00000000E+00  0.00000000E+00
  0.00000000E+00  0.00000000E+00  0.00000000E+00
  0.00000000E+00  0.00000000E+00  0.00000000E+00
  0.00000000E+00  0.00000000E+00  0.00000000E+00
  0.00000000E+00  0.00000000E+00  0.00000000E+00
  0.00000000E+00  0.00000000E+00  0.00000000E+00
  0.00000000E+00  0.00000000E+00  0.00000000E+00
  0.00000000E+00  0.00000000E+00  0.00000000E+00
  0.00000000E+00  0.00000000E+00  0.00000000E+00
  0.00000000E+00  0.00000000E+00  0.00000000E+00
  0.00000000E+00  0.00000000E+00  0.00000000E+00
  0.00000000E+00  0.00000000E+00  0.00000000E+00
  0.00000000E+00  0.00000000E+00  0.00000000E+00
  0.00000000E+00  0.00000000E+00  0.00000000E+00
  0.00000000E+00  0.00000000E+00  0.00000000E+00
  0.00000000E+00  0.00000000E+00  0.00000000E+00
  0.00000000E+00  0.00000000E+00  0.00000000E+00
  0.00000000E+00  0.00000000E+00  0.00000000E+00
  0.00000000E+00  0.00000000E+00  0.00000000E+00
  0.00000000E+00  0.00000000E+00  0.00000000E+00
  0.00000000E+00  0.00000000E+00  0.00000000E+00
  0.00000000E+00  0.00000000E+00  0.00000000E+00
  0.00000000E+00  0.00000000E+00  0.00000000E+00
  0.00000000E+00  0.00000000E+00  0.00000000E+00
  0.00000000E+00  0.00000000E+00  0.00000000E+00
  0.00000000E+00  0.00000000E+00  0.00000000E+00
  0.00000000E+00  0.00000000E+00  0.00000000E+00
  0.00000000E+00  0.00000000E+00  0.00000000E+00
  0.00000000E+00  0.00000000E+00  0.00000000E+00
  0.00000000E+00  0.00000000E+00  0.00000000E+00
  0.00000000E+00  0.00000000E+00  0.00000000E+00
  0.00000000E+00  0.00000000E+00  0.00000000E+00
  0.00000000E+00  0.00000000E+00  0.00000000E+00
  0.00000000E+00  0.00000000E+00  0.00000000E+00
  0.00000000E+00  0.00000000E+00  0.00000000E+00
  0.00000000E+00  0.00000000E+00  0.00000000E+00
  0.00000000E+00  0.00000000E+00  0.00000000E+00
  0.00000000E+00  0.00000000E+00  0.00000000E+00
  0.00000000E+00  0.00000000E+00  0.00000000E+00
  0.00000000E+00  0.00000000E+00  0.00000000E+00
  0.00000000E+00  0.00000000E+00  0.00000000E+00
  0.00000000E+00  0.00000000E+00  0.00000000E+00
  0.00000000E+00  0.00000000E+00  0.00000000E+00
