CONTCAR                                 
   1.00000000000000     
    12.3312997818000003    0.0000000000000000    0.0000000000000000
     0.0001127485000000   12.8291997905000006    0.0000000000000000
     0.0005937186000000    0.0011528207000000   19.9943999824000009
   C    N    Fe   Ni   H 
    53     3     1     1     1
Direct
  0.0555581949991054  0.0549377137523898  0.0500806028077980
  0.1561247903563880  0.1100630821010730  0.0502895692235600
  0.1562433284831494  0.2208914783104326  0.0485414207814704
  0.0563458455440186  0.2760496714608190  0.0468792928772897
  0.2565200577829859  0.0554907501693099  0.0531659361164182
  0.3567557871929371  0.1115603046485624  0.0568253869659849
  0.3564704184888911  0.2234900566793129  0.0558271674431644
  0.2558688520473897  0.2768821808635830  0.0503161712158168
  0.4563642003465572  0.0559669242950673  0.0616169817177450
  0.5556626605190604  0.1144256453372214  0.0646941250714974
  0.5561091224124987  0.2273481872329474  0.0658072908099203
  0.4548210684288869  0.2831071079621939  0.0610963752711543
  0.6550694977813459  0.0545587086737872  0.0640654034835045
  0.7550385039172177  0.1116095105808162  0.0597957434314568
  0.7557248361778454  0.2242262195360369  0.0600080702278096
  0.6577001391879186  0.2852296598054317  0.0670848204295714
  0.8544930260525188  0.0546529013181431  0.0552546424555429
  0.9551380915846404  0.1100504518158919  0.0515230011916383
  0.9558107579728581  0.2212654464174433  0.0500804923769444
  0.8564283200852788  0.2778869145073291  0.0535536594304303
  0.0577146617016738  0.3870095304870101  0.0442923007801529
  0.1563186316848111  0.4435676023332749  0.0442817455252415
  0.1564734665455244  0.5546213629288691  0.0437206665099339
  0.0579847538976405  0.6108533328770290  0.0427346430171770
  0.2554994711997835  0.3880070025888592  0.0484757343443139
  0.3541827954599293  0.4428222340176849  0.0541313812450911
  0.3536214696228141  0.5561726889908468  0.0561735166697764
  0.2548050665222680  0.6107575157389746  0.0488071501882648
  0.7631680437772236  0.4487089346890556  0.0601080251023713
  0.8593425215024625  0.3891233009259724  0.0512908578885456
  0.9589963552827386  0.4429720997109089  0.0452279514029702
  0.9601322852986831  0.5537090301697252  0.0442449827820465
  0.8615312886289717  0.6081203960568810  0.0496903877800559
  0.0567002417203021  0.7220919188674431  0.0446195578435762
  0.1553979384045555  0.7780232748789185  0.0473021373381975
  0.1557605707227975  0.8890644613496096  0.0493902057641199
  0.0553930417089352  0.9440432495306679  0.0493228019302056
  0.2544127081740692  0.7218927147684000  0.0505232428126440
  0.3534592094948038  0.7763388574606295  0.0574274861787258
  0.3556166221198787  0.8881270909645593  0.0577709382225672
  0.2560845774712291  0.9441835761571009  0.0530647381711731
  0.4503328925529936  0.7171352815031732  0.0666369149627751
  0.5538926268102335  0.8839326735507917  0.0682491002048534
  0.4557795075672662  0.9435053407459285  0.0628842229091085
  0.7546969647449606  0.8841375515626977  0.0596904315815949
  0.6547831598994885  0.9419476355315061  0.0650797229557099
  0.8581670074315541  0.7207188678105315  0.0505207038232075
  0.9567138561046260  0.7772180519605421  0.0473157258688020
  0.9552455100592850  0.8882679876897396  0.0499285511860022
  0.8541849990054869  0.9423912243673647  0.0547137235547345
  0.6633470096349855  0.3964689963611903  0.0724017518049820
  0.5505277443653545  0.7727463649812853  0.0736689595596738
  0.7571873830022445  0.7717929905172555  0.0581297508226604
  0.4507362769086529  0.3912368461773965  0.0607645200475525
  0.4480175847931078  0.6080505957444770  0.0676718314558377
  0.7671738791143825  0.5567302742372316  0.0580131734604677
  0.6525235404267292  0.6640248335469413  0.0770074045282951
  0.5541864119824561  0.4943629296066609  0.0825038486643674
  0.6191702962936128  0.5620885331450408  0.1318330607835120
 
  0.00000000E+00  0.00000000E+00  0.00000000E+00
  0.00000000E+00  0.00000000E+00  0.00000000E+00
  0.00000000E+00  0.00000000E+00  0.00000000E+00
  0.00000000E+00  0.00000000E+00  0.00000000E+00
  0.00000000E+00  0.00000000E+00  0.00000000E+00
  0.00000000E+00  0.00000000E+00  0.00000000E+00
  0.00000000E+00  0.00000000E+00  0.00000000E+00
  0.00000000E+00  0.00000000E+00  0.00000000E+00
  0.00000000E+00  0.00000000E+00  0.00000000E+00
  0.00000000E+00  0.00000000E+00  0.00000000E+00
  0.00000000E+00  0.00000000E+00  0.00000000E+00
  0.00000000E+00  0.00000000E+00  0.00000000E+00
  0.00000000E+00  0.00000000E+00  0.00000000E+00
  0.00000000E+00  0.00000000E+00  0.00000000E+00
  0.00000000E+00  0.00000000E+00  0.00000000E+00
  0.00000000E+00  0.00000000E+00  0.00000000E+00
  0.00000000E+00  0.00000000E+00  0.00000000E+00
  0.00000000E+00  0.00000000E+00  0.00000000E+00
  0.00000000E+00  0.00000000E+00  0.00000000E+00
  0.00000000E+00  0.00000000E+00  0.00000000E+00
  0.00000000E+00  0.00000000E+00  0.00000000E+00
  0.00000000E+00  0.00000000E+00  0.00000000E+00
  0.00000000E+00  0.00000000E+00  0.00000000E+00
  0.00000000E+00  0.00000000E+00  0.00000000E+00
  0.00000000E+00  0.00000000E+00  0.00000000E+00
  0.00000000E+00  0.00000000E+00  0.00000000E+00
  0.00000000E+00  0.00000000E+00  0.00000000E+00
  0.00000000E+00  0.00000000E+00  0.00000000E+00
  0.00000000E+00  0.00000000E+00  0.00000000E+00
  0.00000000E+00  0.00000000E+00  0.00000000E+00
  0.00000000E+00  0.00000000E+00  0.00000000E+00
  0.00000000E+00  0.00000000E+00  0.00000000E+00
  0.00000000E+00  0.00000000E+00  0.00000000E+00
  0.00000000E+00  0.00000000E+00  0.00000000E+00
  0.00000000E+00  0.00000000E+00  0.00000000E+00
  0.00000000E+00  0.00000000E+00  0.00000000E+00
  0.00000000E+00  0.00000000E+00  0.00000000E+00
  0.00000000E+00  0.00000000E+00  0.00000000E+00
  0.00000000E+00  0.00000000E+00  0.00000000E+00
  0.00000000E+00  0.00000000E+00  0.00000000E+00
  0.00000000E+00  0.00000000E+00  0.00000000E+00
  0.00000000E+00  0.00000000E+00  0.00000000E+00
  0.00000000E+00  0.00000000E+00  0.00000000E+00
  0.00000000E+00  0.00000000E+00  0.00000000E+00
  0.00000000E+00  0.00000000E+00  0.00000000E+00
  0.00000000E+00  0.00000000E+00  0.00000000E+00
  0.00000000E+00  0.00000000E+00  0.00000000E+00
  0.00000000E+00  0.00000000E+00  0.00000000E+00
  0.00000000E+00  0.00000000E+00  0.00000000E+00
  0.00000000E+00  0.00000000E+00  0.00000000E+00
  0.00000000E+00  0.00000000E+00  0.00000000E+00
  0.00000000E+00  0.00000000E+00  0.00000000E+00
  0.00000000E+00  0.00000000E+00  0.00000000E+00
  0.00000000E+00  0.00000000E+00  0.00000000E+00
  0.00000000E+00  0.00000000E+00  0.00000000E+00
  0.00000000E+00  0.00000000E+00  0.00000000E+00
  0.00000000E+00  0.00000000E+00  0.00000000E+00
  0.00000000E+00  0.00000000E+00  0.00000000E+00
  0.00000000E+00  0.00000000E+00  0.00000000E+00
