CONTCAR\(2)                             
   1.00000000000000     
    12.3312997818000003    0.0000000000000000    0.0000000000000000
     0.0001127485000000   12.8291997905000006    0.0000000000000000
     0.0005937186000000    0.0011528207000000   19.9943999824000009
   C    N    Fe   Ni   H 
    53     3     1     1     2
Direct
  0.0556110008199024  0.0539046018292740  0.0512493842426929
  0.1558959400154873  0.1093229722211941  0.0514356412945682
  0.1560234455684766  0.2200951865016563  0.0504481286737997
  0.0562902995840380  0.2754362080381617  0.0492919705454732
  0.2563480210954727  0.0549627138315213  0.0531897675202173
  0.3568067499559606  0.1108890924593953  0.0560729778026235
  0.3567180217092802  0.2227668411975799  0.0558459627336261
  0.2557445625729990  0.2757826917040669  0.0517009688865457
  0.4564395894576925  0.0551462710884712  0.0593599799013592
  0.5562572143683030  0.1125689613870992  0.0617876045296172
  0.5565188954077196  0.2256189634141561  0.0627522115259543
  0.4554305924987350  0.2820806587192528  0.0598283828679056
  0.6561370951123823  0.0527374452970047  0.0614040239061508
  0.7556773932753525  0.1098656865286134  0.0583676787082747
  0.7563877897042147  0.2222365184846171  0.0585124320344463
  0.6582474531059938  0.2827547873256612  0.0635008205479289
  0.8547698834876255  0.0528575903834910  0.0551600824543954
  0.9552928256714404  0.1086917707508788  0.0524848371374622
  0.9560825569197390  0.2201770767026489  0.0515036268402312
  0.8567880189618922  0.2767727685004747  0.0538927750948666
  0.0575449300463055  0.3866965308038670  0.0475019751731288
  0.1562243953586009  0.4428099755097337  0.0469621898813080
  0.1559205474551111  0.5540206564098190  0.0462932245037366
  0.0568180336142107  0.6099505561478853  0.0460560447798174
  0.2553811451943727  0.3864660452164915  0.0496424811866940
  0.3541184305011387  0.4411526859733758  0.0532350465902956
  0.3547201293722421  0.5539708208892616  0.0528211654317989
  0.2550388328764695  0.6095821295651714  0.0486087639610975
  0.7627346381607878  0.4471658944148350  0.0583332200320773
  0.8597052250010270  0.3883221947210906  0.0523165415179767
  0.9587974509127611  0.4428514350614179  0.0482658657315423
  0.9583475593894080  0.5538676473519304  0.0476313428623615
  0.8582824963068348  0.6081755716739521  0.0514387031457895
  0.0558004448669250  0.7209485530392389  0.0470210321412136
  0.1547535648255972  0.7768010658201207  0.0481411645126500
  0.1555653055792051  0.8879944919672659  0.0498941828863380
  0.0554898505518327  0.9429790291045055  0.0504365408241337
  0.2541115408446599  0.7208825206552931  0.0494799427135608
  0.3526854072085901  0.7766219551984624  0.0543678166962238
  0.3551577564889108  0.8879856785847918  0.0555134735097097
  0.2557388517032404  0.9437510909774413  0.0525104359058442
  0.4504097886278288  0.7191065490883091  0.0614679909336342
  0.5546227774233601  0.8844535002508653  0.0646226641688215
  0.4556923347861688  0.9430286938195958  0.0599140174007619
  0.7559415926029925  0.8810320994914683  0.0587345117721439
  0.6559956487102472  0.9397119826919548  0.0625198626778982
  0.8565570310866819  0.7212372467776723  0.0520424510314360
  0.9559265822104429  0.7761902606162451  0.0494248467008354
  0.9556726581034177  0.8871848154531738  0.0512653295985061
  0.8546765668308991  0.9404079844744277  0.0549182356977002
  0.4535036056945597  0.6074045296357002  0.0606834991754437
  0.6633881940135005  0.3933451375428849  0.0670102441018352
  0.5495615030054675  0.7744565907857524  0.0687855946677364
  0.4512268543207583  0.3906518028412275  0.0596816639509151
  0.7632955499650012  0.5560841373303135  0.0570372495623438
  0.7581952589125295  0.7710324701199707  0.0576792263995220
  0.6439000807830974  0.6629646104984974  0.0703371242411499
  0.5591832722484941  0.4961388280301063  0.0718978705250531
  0.6367581944570677  0.6576417930605312  0.1484783878286660
  0.6109886446665492  0.5873016460401316  0.1341988163301398
 
  0.00000000E+00  0.00000000E+00  0.00000000E+00
  0.00000000E+00  0.00000000E+00  0.00000000E+00
  0.00000000E+00  0.00000000E+00  0.00000000E+00
  0.00000000E+00  0.00000000E+00  0.00000000E+00
  0.00000000E+00  0.00000000E+00  0.00000000E+00
  0.00000000E+00  0.00000000E+00  0.00000000E+00
  0.00000000E+00  0.00000000E+00  0.00000000E+00
  0.00000000E+00  0.00000000E+00  0.00000000E+00
  0.00000000E+00  0.00000000E+00  0.00000000E+00
  0.00000000E+00  0.00000000E+00  0.00000000E+00
  0.00000000E+00  0.00000000E+00  0.00000000E+00
  0.00000000E+00  0.00000000E+00  0.00000000E+00
  0.00000000E+00  0.00000000E+00  0.00000000E+00
  0.00000000E+00  0.00000000E+00  0.00000000E+00
  0.00000000E+00  0.00000000E+00  0.00000000E+00
  0.00000000E+00  0.00000000E+00  0.00000000E+00
  0.00000000E+00  0.00000000E+00  0.00000000E+00
  0.00000000E+00  0.00000000E+00  0.00000000E+00
  0.00000000E+00  0.00000000E+00  0.00000000E+00
  0.00000000E+00  0.00000000E+00  0.00000000E+00
  0.00000000E+00  0.00000000E+00  0.00000000E+00
  0.00000000E+00  0.00000000E+00  0.00000000E+00
  0.00000000E+00  0.00000000E+00  0.00000000E+00
  0.00000000E+00  0.00000000E+00  0.00000000E+00
  0.00000000E+00  0.00000000E+00  0.00000000E+00
  0.00000000E+00  0.00000000E+00  0.00000000E+00
  0.00000000E+00  0.00000000E+00  0.00000000E+00
  0.00000000E+00  0.00000000E+00  0.00000000E+00
  0.00000000E+00  0.00000000E+00  0.00000000E+00
  0.00000000E+00  0.00000000E+00  0.00000000E+00
  0.00000000E+00  0.00000000E+00  0.00000000E+00
  0.00000000E+00  0.00000000E+00  0.00000000E+00
  0.00000000E+00  0.00000000E+00  0.00000000E+00
  0.00000000E+00  0.00000000E+00  0.00000000E+00
  0.00000000E+00  0.00000000E+00  0.00000000E+00
  0.00000000E+00  0.00000000E+00  0.00000000E+00
  0.00000000E+00  0.00000000E+00  0.00000000E+00
  0.00000000E+00  0.00000000E+00  0.00000000E+00
  0.00000000E+00  0.00000000E+00  0.00000000E+00
  0.00000000E+00  0.00000000E+00  0.00000000E+00
  0.00000000E+00  0.00000000E+00  0.00000000E+00
  0.00000000E+00  0.00000000E+00  0.00000000E+00
  0.00000000E+00  0.00000000E+00  0.00000000E+00
  0.00000000E+00  0.00000000E+00  0.00000000E+00
  0.00000000E+00  0.00000000E+00  0.00000000E+00
  0.00000000E+00  0.00000000E+00  0.00000000E+00
  0.00000000E+00  0.00000000E+00  0.00000000E+00
  0.00000000E+00  0.00000000E+00  0.00000000E+00
  0.00000000E+00  0.00000000E+00  0.00000000E+00
  0.00000000E+00  0.00000000E+00  0.00000000E+00
  0.00000000E+00  0.00000000E+00  0.00000000E+00
  0.00000000E+00  0.00000000E+00  0.00000000E+00
  0.00000000E+00  0.00000000E+00  0.00000000E+00
  0.00000000E+00  0.00000000E+00  0.00000000E+00
  0.00000000E+00  0.00000000E+00  0.00000000E+00
  0.00000000E+00  0.00000000E+00  0.00000000E+00
  0.00000000E+00  0.00000000E+00  0.00000000E+00
  0.00000000E+00  0.00000000E+00  0.00000000E+00
  0.00000000E+00  0.00000000E+00  0.00000000E+00
  0.00000000E+00  0.00000000E+00  0.00000000E+00
