CONTCAR                                 
   1.00000000000000     
    12.3312997818000003    0.0000000000000000    0.0000000000000000
     0.0001127485000000   12.8291997905000006    0.0000000000000000
     0.0005937186000000    0.0011528207000000   19.9943999824000009
   C    N    Fe   Ni   O    H 
    52     4     1     1     2     2
Direct
  0.0561769161277385  0.0528075981762926  0.0455950294980829
  0.1566588176559132  0.1082375467451924  0.0456030049764762
  0.1565706737102584  0.2192172278147967  0.0443924717619530
  0.0568146204966354  0.2747488374254238  0.0434975503193253
  0.2572373786757424  0.0535423476080139  0.0477827720120456
  0.3573017778496808  0.1099211885900405  0.0507464798405855
  0.3566024240101742  0.2216594964817419  0.0501449136046299
  0.2561468909587856  0.2754749065540889  0.0457867088809018
  0.4575965200035593  0.0550952313919731  0.0547175023783504
  0.5569928811042173  0.1139046922059311  0.0570281137997881
  0.5575057193479552  0.2277487925572522  0.0576434430974866
  0.4546352769740450  0.2818181963591812  0.0548671984619579
  0.6556625945788578  0.0542114409819788  0.0569884213488234
  0.7557007391220908  0.1100836594925208  0.0535404845220670
  0.7567578517293060  0.2224038655806165  0.0533464998384943
  0.6597432735279456  0.2839310307243954  0.0578133606888307
  0.8554273786637998  0.0532150514304910  0.0500737501063941
  0.9560093809690039  0.1082672778525877  0.0469054136389529
  0.9567218961935707  0.2195547585483822  0.0460041137957276
  0.8575047696666187  0.2760025410524866  0.0489786149240950
  0.0575208656172999  0.3857850608976209  0.0420726691636292
  0.1563852095628554  0.4421560356401543  0.0415675936420176
  0.1567309164615777  0.5531678972201458  0.0416632087451789
  0.0573902410794311  0.6089533681457389  0.0417762753682603
  0.2553934842150838  0.3866316009275341  0.0441570608744619
  0.3548209906689270  0.4410375269309662  0.0491653154790045
  0.3564287073865653  0.5547391439024741  0.0506762209770870
  0.2562812981522072  0.6089091573247245  0.0451055488123428
  0.7616179700314542  0.4447082652631147  0.0551289737944461
  0.8594835536543183  0.3870316942315729  0.0483251588271634
  0.9586980113329071  0.4416251017398415  0.0440332698038678
  0.9582334552435735  0.5523220319454949  0.0439988860209680
  0.8578674750377416  0.6049988508128451  0.0492007536722404
  0.0567606026876016  0.7199028981612027  0.0427891549367297
  0.1562318224039561  0.7757793109689268  0.0439678830369789
  0.1565508927206056  0.8867971981522383  0.0452244838231512
  0.0559747354357726  0.9417108998037560  0.0452734909561510
  0.2558584827717038  0.7200523149615289  0.0460943612082343
  0.3557128959485168  0.7743674493303810  0.0509379131391870
  0.3570729152976536  0.8864210832263879  0.0513699852404332
  0.2570344964936166  0.9420762402270246  0.0477833871933068
  0.4536263730181274  0.7150613146852086  0.0582444323616686
  0.5554360062908167  0.8832332352922829  0.0606723056812036
  0.4570803822072348  0.9424590959250914  0.0556381162613219
  0.7553044697509644  0.8841433849089565  0.0553533822146682
  0.6554099374195993  0.9413481610734293  0.0588697077026226
  0.8568985153381783  0.7178228331028065  0.0488275928921128
  0.9563264498654855  0.7743453866190173  0.0450351338090752
  0.9556573582756626  0.8859515789004586  0.0463569158392151
  0.8552269149729855  0.9412406094763438  0.0500901621399476
  0.5533170823121055  0.7715555624442040  0.0653895309636156
  0.7577853008240579  0.7725342909541129  0.0566177108272199
  0.4494777828191179  0.3886349912004660  0.0561508704763170
  0.4523753010281920  0.6062872508813785  0.0592938418440330
  0.6656809240831366  0.3922473521535532  0.0610858194774982
  0.7614765939033404  0.5524383036193804  0.0566531742635677
  0.6600261377577747  0.6769353077475664  0.0938435100676544
  0.5533071767750884  0.4884807043975303  0.0944345846449209
  0.5605024215005339  0.5089744344491182  0.1834806437326722
  0.6817499132091869  0.6836666352216947  0.1841643507811132
  0.6805855351342224  0.7532581742449169  0.2035394022032312
  0.5931826419449214  0.5743425793154121  0.2000113846065394
 
  0.00000000E+00  0.00000000E+00  0.00000000E+00
  0.00000000E+00  0.00000000E+00  0.00000000E+00
  0.00000000E+00  0.00000000E+00  0.00000000E+00
  0.00000000E+00  0.00000000E+00  0.00000000E+00
  0.00000000E+00  0.00000000E+00  0.00000000E+00
  0.00000000E+00  0.00000000E+00  0.00000000E+00
  0.00000000E+00  0.00000000E+00  0.00000000E+00
  0.00000000E+00  0.00000000E+00  0.00000000E+00
  0.00000000E+00  0.00000000E+00  0.00000000E+00
  0.00000000E+00  0.00000000E+00  0.00000000E+00
  0.00000000E+00  0.00000000E+00  0.00000000E+00
  0.00000000E+00  0.00000000E+00  0.00000000E+00
  0.00000000E+00  0.00000000E+00  0.00000000E+00
  0.00000000E+00  0.00000000E+00  0.00000000E+00
  0.00000000E+00  0.00000000E+00  0.00000000E+00
  0.00000000E+00  0.00000000E+00  0.00000000E+00
  0.00000000E+00  0.00000000E+00  0.00000000E+00
  0.00000000E+00  0.00000000E+00  0.00000000E+00
  0.00000000E+00  0.00000000E+00  0.00000000E+00
  0.00000000E+00  0.00000000E+00  0.00000000E+00
  0.00000000E+00  0.00000000E+00  0.00000000E+00
  0.00000000E+00  0.00000000E+00  0.00000000E+00
  0.00000000E+00  0.00000000E+00  0.00000000E+00
  0.00000000E+00  0.00000000E+00  0.00000000E+00
  0.00000000E+00  0.00000000E+00  0.00000000E+00
  0.00000000E+00  0.00000000E+00  0.00000000E+00
  0.00000000E+00  0.00000000E+00  0.00000000E+00
  0.00000000E+00  0.00000000E+00  0.00000000E+00
  0.00000000E+00  0.00000000E+00  0.00000000E+00
  0.00000000E+00  0.00000000E+00  0.00000000E+00
  0.00000000E+00  0.00000000E+00  0.00000000E+00
  0.00000000E+00  0.00000000E+00  0.00000000E+00
  0.00000000E+00  0.00000000E+00  0.00000000E+00
  0.00000000E+00  0.00000000E+00  0.00000000E+00
  0.00000000E+00  0.00000000E+00  0.00000000E+00
  0.00000000E+00  0.00000000E+00  0.00000000E+00
  0.00000000E+00  0.00000000E+00  0.00000000E+00
  0.00000000E+00  0.00000000E+00  0.00000000E+00
  0.00000000E+00  0.00000000E+00  0.00000000E+00
  0.00000000E+00  0.00000000E+00  0.00000000E+00
  0.00000000E+00  0.00000000E+00  0.00000000E+00
  0.00000000E+00  0.00000000E+00  0.00000000E+00
  0.00000000E+00  0.00000000E+00  0.00000000E+00
  0.00000000E+00  0.00000000E+00  0.00000000E+00
  0.00000000E+00  0.00000000E+00  0.00000000E+00
  0.00000000E+00  0.00000000E+00  0.00000000E+00
  0.00000000E+00  0.00000000E+00  0.00000000E+00
  0.00000000E+00  0.00000000E+00  0.00000000E+00
  0.00000000E+00  0.00000000E+00  0.00000000E+00
  0.00000000E+00  0.00000000E+00  0.00000000E+00
  0.00000000E+00  0.00000000E+00  0.00000000E+00
  0.00000000E+00  0.00000000E+00  0.00000000E+00
  0.00000000E+00  0.00000000E+00  0.00000000E+00
  0.00000000E+00  0.00000000E+00  0.00000000E+00
  0.00000000E+00  0.00000000E+00  0.00000000E+00
  0.00000000E+00  0.00000000E+00  0.00000000E+00
  0.00000000E+00  0.00000000E+00  0.00000000E+00
  0.00000000E+00  0.00000000E+00  0.00000000E+00
  0.00000000E+00  0.00000000E+00  0.00000000E+00
  0.00000000E+00  0.00000000E+00  0.00000000E+00
  0.00000000E+00  0.00000000E+00  0.00000000E+00
  0.00000000E+00  0.00000000E+00  0.00000000E+00
