CONTCAR                                 
   1.00000000000000     
    12.3312997818000003    0.0000000000000000    0.0000000000000000
     0.0001127485000000   12.8291997905000006    0.0000000000000000
     0.0005937186000000    0.0011528207000000   19.9943999824000009
   C    N    Fe   Ni   O 
    55     1     1     1     2
Direct
  0.0553670456985263  0.0547870603386679  0.0493201656439291
  0.1555551584215977  0.1106864519985111  0.0492939742507658
  0.1564754488884042  0.2215277724246109  0.0493443982785453
  0.0563154063640927  0.2762428771073527  0.0489215583491590
  0.2556036969461117  0.0558356286743746  0.0500021972624016
  0.3559584877721427  0.1112757526295298  0.0523764657298203
  0.3569531329942617  0.2227082167832295  0.0532496941923855
  0.2567427159603489  0.2773763144860980  0.0507502054998508
  0.4554374746724769  0.0549751593289311  0.0547524176448590
  0.5558181466953874  0.1103041989927158  0.0576773150798969
  0.5564725903480099  0.2214728584094233  0.0599594283353842
  0.4571078665542767  0.2795052319344588  0.0578381663260269
  0.6550047093731823  0.0515606700846393  0.0575943287565931
  0.7551453782992611  0.1087068548984154  0.0555384284545462
  0.7560265518595293  0.2204937071780414  0.0559196996759637
  0.6567391226615819  0.2783634733802441  0.0611017303179627
  0.8548323577840709  0.0527058259243316  0.0528730985431312
  0.9549494722723412  0.1092852432472142  0.0506740910610222
  0.9557851324082787  0.2206026492043497  0.0503327837250185
  0.8560540740513667  0.2764456408776507  0.0524132711503956
  0.0572991010989275  0.3872519631997402  0.0481422032830190
  0.1569494559837205  0.4433845043083105  0.0485365030923203
  0.1577829425226912  0.5547503856880143  0.0480012508242136
  0.0580407490364600  0.6097572150596028  0.0472241954612030
  0.2570913458763261  0.3884318244047750  0.0505545080196124
  0.3568646879017980  0.4445052229469702  0.0539525138246278
  0.3585763271162354  0.5577610346285464  0.0536588090390249
  0.2571588064794713  0.6113008982912567  0.0495008496424623
  0.7575627087864450  0.4459551916477974  0.0566740637622148
  0.8570831991874467  0.3879752947981728  0.0513681661718597
  0.9574616558391752  0.4424957154451700  0.0484328910923629
  0.9588864128187414  0.5531030204163766  0.0480542693879954
  0.8595506262260521  0.6080842344567130  0.0506051184389657
  0.0569080500168427  0.7211141551383128  0.0473182032888300
  0.1552784914354164  0.7774600788331711  0.0473796206664092
  0.1549158939525654  0.8887200259696060  0.0479422922111129
  0.0549052470546732  0.9438545400455162  0.0487800289275426
  0.2547609943847486  0.7219863243573827  0.0486096702057501
  0.3526799279089921  0.7786194228567281  0.0508272159375117
  0.3537454592645155  0.8893285041390268  0.0509871430233359
  0.2544515010825834  0.9449272836823761  0.0491602548246567
  0.4516060817867918  0.7234774266268363  0.0569323538149376
  0.5521318788063683  0.8848469577696579  0.0583097219728172
  0.4538822698896964  0.9438990482868426  0.0544059292604724
  0.7542598962732104  0.8819763314115745  0.0566411640074257
  0.6543277794847262  0.9396628283885969  0.0584053425796761
  0.8592701442273836  0.7203253970839872  0.0514251868419212
  0.9572319643158697  0.7766629365305765  0.0490254704416456
  0.9552946531820897  0.8875293573220813  0.0500646983666993
  0.8542325588040246  0.9408270262737064  0.0529452846970691
  0.4561970070383164  0.3904419059252477  0.0599822163783757
  0.4581121748975782  0.6124284755462642  0.0606220615814699
  0.6593373428403980  0.3879620265340362  0.0666913335054618
  0.7590246423619691  0.5572412675325398  0.0557925179017328
  0.7580766590185186  0.7705798531676078  0.0572659095851095
  0.5471706432485790  0.7790906996468242  0.0609185253865633
  0.6475242518460764  0.6665033748723060  0.0719339492780936
  0.5586490151687171  0.4871020870476051  0.0889652196024485
  0.6116620949708016  0.5485466751457133  0.1684598139555334
  0.6462013348397827  0.6504779216716255  0.1595800984398724
 
  0.00000000E+00  0.00000000E+00  0.00000000E+00
  0.00000000E+00  0.00000000E+00  0.00000000E+00
  0.00000000E+00  0.00000000E+00  0.00000000E+00
  0.00000000E+00  0.00000000E+00  0.00000000E+00
  0.00000000E+00  0.00000000E+00  0.00000000E+00
  0.00000000E+00  0.00000000E+00  0.00000000E+00
  0.00000000E+00  0.00000000E+00  0.00000000E+00
  0.00000000E+00  0.00000000E+00  0.00000000E+00
  0.00000000E+00  0.00000000E+00  0.00000000E+00
  0.00000000E+00  0.00000000E+00  0.00000000E+00
  0.00000000E+00  0.00000000E+00  0.00000000E+00
  0.00000000E+00  0.00000000E+00  0.00000000E+00
  0.00000000E+00  0.00000000E+00  0.00000000E+00
  0.00000000E+00  0.00000000E+00  0.00000000E+00
  0.00000000E+00  0.00000000E+00  0.00000000E+00
  0.00000000E+00  0.00000000E+00  0.00000000E+00
  0.00000000E+00  0.00000000E+00  0.00000000E+00
  0.00000000E+00  0.00000000E+00  0.00000000E+00
  0.00000000E+00  0.00000000E+00  0.00000000E+00
  0.00000000E+00  0.00000000E+00  0.00000000E+00
  0.00000000E+00  0.00000000E+00  0.00000000E+00
  0.00000000E+00  0.00000000E+00  0.00000000E+00
  0.00000000E+00  0.00000000E+00  0.00000000E+00
  0.00000000E+00  0.00000000E+00  0.00000000E+00
  0.00000000E+00  0.00000000E+00  0.00000000E+00
  0.00000000E+00  0.00000000E+00  0.00000000E+00
  0.00000000E+00  0.00000000E+00  0.00000000E+00
  0.00000000E+00  0.00000000E+00  0.00000000E+00
  0.00000000E+00  0.00000000E+00  0.00000000E+00
  0.00000000E+00  0.00000000E+00  0.00000000E+00
  0.00000000E+00  0.00000000E+00  0.00000000E+00
  0.00000000E+00  0.00000000E+00  0.00000000E+00
  0.00000000E+00  0.00000000E+00  0.00000000E+00
  0.00000000E+00  0.00000000E+00  0.00000000E+00
  0.00000000E+00  0.00000000E+00  0.00000000E+00
  0.00000000E+00  0.00000000E+00  0.00000000E+00
  0.00000000E+00  0.00000000E+00  0.00000000E+00
  0.00000000E+00  0.00000000E+00  0.00000000E+00
  0.00000000E+00  0.00000000E+00  0.00000000E+00
  0.00000000E+00  0.00000000E+00  0.00000000E+00
  0.00000000E+00  0.00000000E+00  0.00000000E+00
  0.00000000E+00  0.00000000E+00  0.00000000E+00
  0.00000000E+00  0.00000000E+00  0.00000000E+00
  0.00000000E+00  0.00000000E+00  0.00000000E+00
  0.00000000E+00  0.00000000E+00  0.00000000E+00
  0.00000000E+00  0.00000000E+00  0.00000000E+00
  0.00000000E+00  0.00000000E+00  0.00000000E+00
  0.00000000E+00  0.00000000E+00  0.00000000E+00
  0.00000000E+00  0.00000000E+00  0.00000000E+00
  0.00000000E+00  0.00000000E+00  0.00000000E+00
  0.00000000E+00  0.00000000E+00  0.00000000E+00
  0.00000000E+00  0.00000000E+00  0.00000000E+00
  0.00000000E+00  0.00000000E+00  0.00000000E+00
  0.00000000E+00  0.00000000E+00  0.00000000E+00
  0.00000000E+00  0.00000000E+00  0.00000000E+00
  0.00000000E+00  0.00000000E+00  0.00000000E+00
  0.00000000E+00  0.00000000E+00  0.00000000E+00
  0.00000000E+00  0.00000000E+00  0.00000000E+00
  0.00000000E+00  0.00000000E+00  0.00000000E+00
  0.00000000E+00  0.00000000E+00  0.00000000E+00
