CONTCAR\(6)                             
   1.00000000000000     
    12.3312997818000003    0.0000000000000000    0.0000000000000000
     0.0001127485000000   12.8291997905000006    0.0000000000000000
     0.0005937186000000    0.0011528207000000   19.9943999824000009
   C    N    Fe   Ni   O 
    51     5     1     1     1
Direct
  0.0557339327224456  0.0541215452772446  0.0508535170638558
  0.1561709762504407  0.1095248887210613  0.0507878326941519
  0.1558528379150330  0.2201161085788915  0.0491626728360143
  0.0558470824728858  0.2756528816815031  0.0478403342217011
  0.2570945186590200  0.0551135618640539  0.0527492047843921
  0.3574947148234371  0.1109182261049566  0.0560223319937268
  0.3567722359243533  0.2229286903053457  0.0551646888940018
  0.2555398167439910  0.2757737816971012  0.0500795651894853
  0.4578137385160727  0.0553767685090669  0.0600667271610060
  0.5572927319646196  0.1136267799622170  0.0630625243643198
  0.5576079867492961  0.2287149255637448  0.0640864799330028
  0.4548371085000062  0.2835958151976646  0.0601781064438905
  0.6555753387753751  0.0524707740267404  0.0629548924256875
  0.7547936239121038  0.1099028242725073  0.0597191455612901
  0.7559679793523342  0.2230735518570956  0.0595996232671818
  0.6595080823259021  0.2853105816652622  0.0646346434823384
  0.8547697845176830  0.0534300112830503  0.0558075184489611
  0.9552376393041502  0.1090147388389476  0.0525218294448890
  0.9559091855850581  0.2205221473053657  0.0512762033459484
  0.8566111475154645  0.2771317934623925  0.0544160154923139
  0.0564438847711344  0.3867690309625477  0.0446086564961086
  0.1551454888592108  0.4428986554922539  0.0433166965543430
  0.1554342007634508  0.5539983085019700  0.0421612033758911
  0.0568849001564076  0.6102964865668382  0.0418058096476888
  0.2540319998413700  0.3865015618505931  0.0472107182769298
  0.3518991605580744  0.4413932672923512  0.0521189964562437
  0.3527052475420346  0.5539748665133367  0.0520872842527828
  0.2542678903377555  0.6098041206267697  0.0457639409626572
  0.7611682307118304  0.4469026878446651  0.0592032602338788
  0.8587855296258008  0.3885228394090489  0.0523120990361967
  0.9577769146083878  0.4429845846737039  0.0459257627201836
  0.9583029789925387  0.5540870057425807  0.0442066074349043
  0.8592744137578716  0.6080995644890765  0.0492957289103113
  0.0570215376643045  0.7212114841592253  0.0433201814645924
  0.1560529040994935  0.7771994491193177  0.0455225198926775
  0.1563197181549837  0.8881776388577589  0.0485096488341667
  0.0559574289031242  0.9432182007366561  0.0495265457894700
  0.2550313215428721  0.7209636297974559  0.0476508815435334
  0.3539633880918313  0.7762579273881260  0.0545899634231040
  0.3558154097949975  0.8878746167240960  0.0555542514665207
  0.2563890352134784  0.9437735028910090  0.0519054487421425
  0.4515001737750728  0.7187354727039532  0.0623128392599381
  0.5540542936410746  0.8813237891658077  0.0652046297721093
  0.4564797276657634  0.9424572244970669  0.0603306997653170
  0.7570985874010491  0.8813506364719760  0.0600745304796147
  0.6555237496032011  0.9373964749553466  0.0640102389723723
  0.8591820112719138  0.7210350831745007  0.0503198574496007
  0.9574957730740904  0.7764106490601383  0.0467096857730716
  0.9563072948395687  0.8876085255876641  0.0501423497046679
  0.8554191731274600  0.9412947434547625  0.0551388920137175
  0.4510531456704053  0.6066567900865099  0.0623500366089576
  0.4486347345604932  0.3912254289034975  0.0603115842648502
  0.6655465545170017  0.3945457821687505  0.0681048623842633
  0.7632042162648448  0.5556799052720199  0.0569168023727552
  0.5488424141055732  0.7729738165791491  0.0693478113287990
  0.7618107146542410  0.7726288614971420  0.0593300038200271
  0.6560854757353070  0.6686072953757025  0.0819518883209187
  0.5520510141970442  0.4989881355178863  0.0819365012985771
  0.6117289823752659  0.5888216227145184  0.1434767118479331
 
  0.00000000E+00  0.00000000E+00  0.00000000E+00
  0.00000000E+00  0.00000000E+00  0.00000000E+00
  0.00000000E+00  0.00000000E+00  0.00000000E+00
  0.00000000E+00  0.00000000E+00  0.00000000E+00
  0.00000000E+00  0.00000000E+00  0.00000000E+00
  0.00000000E+00  0.00000000E+00  0.00000000E+00
  0.00000000E+00  0.00000000E+00  0.00000000E+00
  0.00000000E+00  0.00000000E+00  0.00000000E+00
  0.00000000E+00  0.00000000E+00  0.00000000E+00
  0.00000000E+00  0.00000000E+00  0.00000000E+00
  0.00000000E+00  0.00000000E+00  0.00000000E+00
  0.00000000E+00  0.00000000E+00  0.00000000E+00
  0.00000000E+00  0.00000000E+00  0.00000000E+00
  0.00000000E+00  0.00000000E+00  0.00000000E+00
  0.00000000E+00  0.00000000E+00  0.00000000E+00
  0.00000000E+00  0.00000000E+00  0.00000000E+00
  0.00000000E+00  0.00000000E+00  0.00000000E+00
  0.00000000E+00  0.00000000E+00  0.00000000E+00
  0.00000000E+00  0.00000000E+00  0.00000000E+00
  0.00000000E+00  0.00000000E+00  0.00000000E+00
  0.00000000E+00  0.00000000E+00  0.00000000E+00
  0.00000000E+00  0.00000000E+00  0.00000000E+00
  0.00000000E+00  0.00000000E+00  0.00000000E+00
  0.00000000E+00  0.00000000E+00  0.00000000E+00
  0.00000000E+00  0.00000000E+00  0.00000000E+00
  0.00000000E+00  0.00000000E+00  0.00000000E+00
  0.00000000E+00  0.00000000E+00  0.00000000E+00
  0.00000000E+00  0.00000000E+00  0.00000000E+00
  0.00000000E+00  0.00000000E+00  0.00000000E+00
  0.00000000E+00  0.00000000E+00  0.00000000E+00
  0.00000000E+00  0.00000000E+00  0.00000000E+00
  0.00000000E+00  0.00000000E+00  0.00000000E+00
  0.00000000E+00  0.00000000E+00  0.00000000E+00
  0.00000000E+00  0.00000000E+00  0.00000000E+00
  0.00000000E+00  0.00000000E+00  0.00000000E+00
  0.00000000E+00  0.00000000E+00  0.00000000E+00
  0.00000000E+00  0.00000000E+00  0.00000000E+00
  0.00000000E+00  0.00000000E+00  0.00000000E+00
  0.00000000E+00  0.00000000E+00  0.00000000E+00
  0.00000000E+00  0.00000000E+00  0.00000000E+00
  0.00000000E+00  0.00000000E+00  0.00000000E+00
  0.00000000E+00  0.00000000E+00  0.00000000E+00
  0.00000000E+00  0.00000000E+00  0.00000000E+00
  0.00000000E+00  0.00000000E+00  0.00000000E+00
  0.00000000E+00  0.00000000E+00  0.00000000E+00
  0.00000000E+00  0.00000000E+00  0.00000000E+00
  0.00000000E+00  0.00000000E+00  0.00000000E+00
  0.00000000E+00  0.00000000E+00  0.00000000E+00
  0.00000000E+00  0.00000000E+00  0.00000000E+00
  0.00000000E+00  0.00000000E+00  0.00000000E+00
  0.00000000E+00  0.00000000E+00  0.00000000E+00
  0.00000000E+00  0.00000000E+00  0.00000000E+00
  0.00000000E+00  0.00000000E+00  0.00000000E+00
  0.00000000E+00  0.00000000E+00  0.00000000E+00
  0.00000000E+00  0.00000000E+00  0.00000000E+00
  0.00000000E+00  0.00000000E+00  0.00000000E+00
  0.00000000E+00  0.00000000E+00  0.00000000E+00
  0.00000000E+00  0.00000000E+00  0.00000000E+00
  0.00000000E+00  0.00000000E+00  0.00000000E+00
