CONTCAR\(2)                             
   1.00000000000000     
    12.3312997818000003    0.0000000000000000    0.0000000000000000
     0.0001127485000000   12.8291997905000006    0.0000000000000000
     0.0005937186000000    0.0011528207000000   19.9943999824000009
   C    N    Fe   Ni   O    H 
    55     1     1     1     2     2
Direct
  0.0532499552105567  0.0536601019451756  0.0463631884045200
  0.1536530878978917  0.1083830092243302  0.0450868141904884
  0.1533660164119115  0.2194417479173706  0.0439756151387443
  0.0528976003570477  0.2748603590095960  0.0453296614117238
  0.2539518287566073  0.0526770331229685  0.0459187181250101
  0.3541903587661478  0.1080097735480727  0.0487978847063994
  0.3540415075325499  0.2198859222358384  0.0472575332184517
  0.2534578776182511  0.2748664543523724  0.0430068874053352
  0.4539058377629911  0.0514568743025499  0.0537429114284451
  0.5531041356580466  0.1085505672115629  0.0585887432835634
  0.5529822965352397  0.2203416918997821  0.0594478089195440
  0.4535716620681345  0.2773079754470267  0.0519204396130999
  0.6528674807538611  0.0508849502390949  0.0612685404082152
  0.7527939318921547  0.1082727831023711  0.0591281835764759
  0.7528504716023436  0.2201155687585411  0.0604317753233832
  0.6530362851964944  0.2775959078186783  0.0649614753641309
  0.8528954876033843  0.0530078904132976  0.0542767664619269
  0.9527681314322354  0.1088527976238210  0.0499447235183371
  0.9525115229673460  0.2200863994245492  0.0500380901793343
  0.8525369849581612  0.2760389234476356  0.0555721163334479
  0.0527456119693262  0.3858576420957231  0.0433532100974121
  0.1521073039220686  0.4413075482398151  0.0394952518624264
  0.1519061817400678  0.5526629567773027  0.0382353508846881
  0.0527673205844393  0.6085932128797658  0.0401548303555006
  0.2524381580535966  0.3860720305252794  0.0402009872743051
  0.3520608359020306  0.4420034270870303  0.0414848542424003
  0.3509098241915206  0.5550343189090008  0.0414664878013855
  0.2509093057856190  0.6091358219482075  0.0387088151079061
  0.7534819096497947  0.4456179174890836  0.0659425551194178
  0.8531103773403066  0.3877901003871374  0.0557256523390052
  0.9527711119278239  0.4418319224619753  0.0475985206912144
  0.9534556308618273  0.5525896043738125  0.0455752531405889
  0.8550038008205120  0.6089753944048869  0.0537174409035262
  0.0536767924307475  0.7200671901211944  0.0403988101428810
  0.1528259532121551  0.7758691201332653  0.0399408129457216
  0.1534778777322280  0.8869543669656017  0.0425013122110972
  0.0534146767937689  0.9427801489337605  0.0448675397379276
  0.2522429522189455  0.7197561630079521  0.0403705975397579
  0.3526257239046260  0.7731192037067413  0.0459892008693426
  0.3539568580508447  0.8845499403836462  0.0481058059519189
  0.2540321062616497  0.9413111884196614  0.0449421098975437
  0.4506684415028435  0.7128481079367507  0.0523076515393077
  0.5528170065264054  0.8798303013018044  0.0617312792827375
  0.4541381945302300  0.9390295207165668  0.0541979015017451
  0.7542866250814529  0.8841458830636550  0.0622352678650086
  0.6528579393411820  0.9390996725930154  0.0637600936196496
  0.8565021547257671  0.7210670479666540  0.0534983728920333
  0.9544625924777813  0.7763976680059657  0.0453400465982634
  0.9536521897613087  0.8873400685719517  0.0475780446144882
  0.8532620869455371  0.9415524641192430  0.0540492119301126
  0.4518497697793589  0.3884021928183049  0.0489624901779664
  0.6544024452060639  0.3876393436437028  0.0715457533357330
  0.7573432013023824  0.5573134696191628  0.0672642894891195
  0.5501558092252664  0.7675375704662118  0.0657707732735013
  0.7586382630134564  0.7739264965710715  0.0670716435817345
  0.4465840352263969  0.6053973844305818  0.0483323337944576
  0.6592228282733089  0.6800829166590147  0.1094181344319146
  0.5487896398589379  0.4862677001084808  0.0771806531412180
  0.5734156809439740  0.5733124709351193  0.1535509190252062
  0.7316388155598884  0.6944186875655918  0.1900604030095630
  0.7961151588983422  0.7383754847282350  0.1889210298649638
  0.6150744254848997  0.5471096978833949  0.1915004399047033
 
  0.00000000E+00  0.00000000E+00  0.00000000E+00
  0.00000000E+00  0.00000000E+00  0.00000000E+00
  0.00000000E+00  0.00000000E+00  0.00000000E+00
  0.00000000E+00  0.00000000E+00  0.00000000E+00
  0.00000000E+00  0.00000000E+00  0.00000000E+00
  0.00000000E+00  0.00000000E+00  0.00000000E+00
  0.00000000E+00  0.00000000E+00  0.00000000E+00
  0.00000000E+00  0.00000000E+00  0.00000000E+00
  0.00000000E+00  0.00000000E+00  0.00000000E+00
  0.00000000E+00  0.00000000E+00  0.00000000E+00
  0.00000000E+00  0.00000000E+00  0.00000000E+00
  0.00000000E+00  0.00000000E+00  0.00000000E+00
  0.00000000E+00  0.00000000E+00  0.00000000E+00
  0.00000000E+00  0.00000000E+00  0.00000000E+00
  0.00000000E+00  0.00000000E+00  0.00000000E+00
  0.00000000E+00  0.00000000E+00  0.00000000E+00
  0.00000000E+00  0.00000000E+00  0.00000000E+00
  0.00000000E+00  0.00000000E+00  0.00000000E+00
  0.00000000E+00  0.00000000E+00  0.00000000E+00
  0.00000000E+00  0.00000000E+00  0.00000000E+00
  0.00000000E+00  0.00000000E+00  0.00000000E+00
  0.00000000E+00  0.00000000E+00  0.00000000E+00
  0.00000000E+00  0.00000000E+00  0.00000000E+00
  0.00000000E+00  0.00000000E+00  0.00000000E+00
  0.00000000E+00  0.00000000E+00  0.00000000E+00
  0.00000000E+00  0.00000000E+00  0.00000000E+00
  0.00000000E+00  0.00000000E+00  0.00000000E+00
  0.00000000E+00  0.00000000E+00  0.00000000E+00
  0.00000000E+00  0.00000000E+00  0.00000000E+00
  0.00000000E+00  0.00000000E+00  0.00000000E+00
  0.00000000E+00  0.00000000E+00  0.00000000E+00
  0.00000000E+00  0.00000000E+00  0.00000000E+00
  0.00000000E+00  0.00000000E+00  0.00000000E+00
  0.00000000E+00  0.00000000E+00  0.00000000E+00
  0.00000000E+00  0.00000000E+00  0.00000000E+00
  0.00000000E+00  0.00000000E+00  0.00000000E+00
  0.00000000E+00  0.00000000E+00  0.00000000E+00
  0.00000000E+00  0.00000000E+00  0.00000000E+00
  0.00000000E+00  0.00000000E+00  0.00000000E+00
  0.00000000E+00  0.00000000E+00  0.00000000E+00
  0.00000000E+00  0.00000000E+00  0.00000000E+00
  0.00000000E+00  0.00000000E+00  0.00000000E+00
  0.00000000E+00  0.00000000E+00  0.00000000E+00
  0.00000000E+00  0.00000000E+00  0.00000000E+00
  0.00000000E+00  0.00000000E+00  0.00000000E+00
  0.00000000E+00  0.00000000E+00  0.00000000E+00
  0.00000000E+00  0.00000000E+00  0.00000000E+00
  0.00000000E+00  0.00000000E+00  0.00000000E+00
  0.00000000E+00  0.00000000E+00  0.00000000E+00
  0.00000000E+00  0.00000000E+00  0.00000000E+00
  0.00000000E+00  0.00000000E+00  0.00000000E+00
  0.00000000E+00  0.00000000E+00  0.00000000E+00
  0.00000000E+00  0.00000000E+00  0.00000000E+00
  0.00000000E+00  0.00000000E+00  0.00000000E+00
  0.00000000E+00  0.00000000E+00  0.00000000E+00
  0.00000000E+00  0.00000000E+00  0.00000000E+00
  0.00000000E+00  0.00000000E+00  0.00000000E+00
  0.00000000E+00  0.00000000E+00  0.00000000E+00
  0.00000000E+00  0.00000000E+00  0.00000000E+00
  0.00000000E+00  0.00000000E+00  0.00000000E+00
  0.00000000E+00  0.00000000E+00  0.00000000E+00
  0.00000000E+00  0.00000000E+00  0.00000000E+00
