CONTCAR                                 
   1.00000000000000     
    12.3312997818000003    0.0000000000000000    0.0000000000000000
     0.0001127485000000   12.8291997905000006    0.0000000000000000
     0.0005937186000000    0.0011528207000000   19.9943999824000009
   C    N    Fe   Ni   O 
    52     4     1     1     1
Direct
  0.0554356984219955  0.0548174945868459  0.0514931996792856
  0.1559965456101679  0.1104039567744722  0.0519138251544466
  0.1563764871492209  0.2212721495782783  0.0505332569575120
  0.0561631022780430  0.2761897488379865  0.0487784859270777
  0.2562964758460368  0.0558118677193496  0.0542290282679584
  0.3567691168449691  0.1114663956341223  0.0580333673289385
  0.3566785565891538  0.2233778972762011  0.0573706744991674
  0.2561631369807259  0.2773137847292712  0.0520321263935434
  0.4564802375244794  0.0551391550682745  0.0621479915511716
  0.5556313755135306  0.1128422698428879  0.0652900758507330
  0.5562309844012046  0.2263113662855957  0.0666204551073504
  0.4553750094593212  0.2826728382656536  0.0625226189384727
  0.6542507796558593  0.0525616196916615  0.0645649714314605
  0.7543040816632346  0.1100528899044813  0.0608137017937716
  0.7553650222297476  0.2227388398149040  0.0608296150705787
  0.6572814511164660  0.2836060808911018  0.0671794474905280
  0.8543204869509384  0.0537248771877866  0.0563900323776521
  0.9547378808203022  0.1097363765991869  0.0531671341032274
  0.9554909004863861  0.2211498566202541  0.0519737863962918
  0.8558285708446682  0.2774992698093066  0.0549400608387318
  0.0576978187355101  0.3868160527087893  0.0455307580912415
  0.1568287603001148  0.4435004410918360  0.0447548207637634
  0.1568258720371167  0.5543592708412853  0.0433702249653452
  0.0581091134500200  0.6104787443352128  0.0424474144297859
  0.2564718291252399  0.3886415813932589  0.0491613996091337
  0.3557483352595934  0.4441201348113067  0.0536573168872472
  0.3553850107052864  0.5572892114046487  0.0527703463819761
  0.2554485420461136  0.6106393237631025  0.0467616297987770
  0.7613931418748365  0.4493170353915514  0.0584126400551970
  0.8585119796021419  0.3890227320732942  0.0519267076686971
  0.9585941002423688  0.4425722798188875  0.0458425502925388
  0.9598075875843436  0.5533308773184880  0.0438485122118498
  0.8611533891397982  0.6078049516472470  0.0470828168520892
  0.0571537811355329  0.7214877320997264  0.0438044400057226
  0.1557097176391972  0.7778225653084669  0.0462618953351281
  0.1556526817128194  0.8889313539955198  0.0491804240362247
  0.0552728192902249  0.9439848963448401  0.0499349521133931
  0.2546496809068837  0.7218109005719974  0.0484478133512098
  0.3531149583246772  0.7774049073148812  0.0547624581327720
  0.3547978484321687  0.8884232961969307  0.0565493371635304
  0.2554681691104725  0.9444971319342983  0.0530110002878255
  0.4504751743004423  0.7191870254689899  0.0614049394319980
  0.5525181285731634  0.8818337920509793  0.0661251015769712
  0.4553614248609080  0.9425988078225044  0.0619623407733441
  0.7547462737095172  0.8823214128284279  0.0603067052668140
  0.6536661371306741  0.9387964979834166  0.0651130528308527
  0.8591297646400238  0.7199953801571294  0.0488640104393670
  0.9572997104606628  0.7766350717034003  0.0465798512888464
  0.9552889507837086  0.8877427261160437  0.0502399718873796
  0.8541623295976549  0.9415916336597060  0.0553145985260814
  0.6629940646269834  0.3949001188891034  0.0713387723740580
  0.7588995528213210  0.7710795853988315  0.0578273828479770
  0.4521213550944932  0.3908440705333959  0.0623972292301707
  0.4500733931134282  0.6118140310903613  0.0612970354925276
  0.7652629662172220  0.5573498747042174  0.0532330516365261
  0.5477614897548370  0.7722571123167800  0.0682237547649215
  0.6542987832563513  0.6645274686317443  0.0770375405147575
  0.5540135593765341  0.4897173777352747  0.0876813101175355
  0.6205059746411741  0.5825639564265054  0.1427900324085291
 
  0.00000000E+00  0.00000000E+00  0.00000000E+00
  0.00000000E+00  0.00000000E+00  0.00000000E+00
  0.00000000E+00  0.00000000E+00  0.00000000E+00
  0.00000000E+00  0.00000000E+00  0.00000000E+00
  0.00000000E+00  0.00000000E+00  0.00000000E+00
  0.00000000E+00  0.00000000E+00  0.00000000E+00
  0.00000000E+00  0.00000000E+00  0.00000000E+00
  0.00000000E+00  0.00000000E+00  0.00000000E+00
  0.00000000E+00  0.00000000E+00  0.00000000E+00
  0.00000000E+00  0.00000000E+00  0.00000000E+00
  0.00000000E+00  0.00000000E+00  0.00000000E+00
  0.00000000E+00  0.00000000E+00  0.00000000E+00
  0.00000000E+00  0.00000000E+00  0.00000000E+00
  0.00000000E+00  0.00000000E+00  0.00000000E+00
  0.00000000E+00  0.00000000E+00  0.00000000E+00
  0.00000000E+00  0.00000000E+00  0.00000000E+00
  0.00000000E+00  0.00000000E+00  0.00000000E+00
  0.00000000E+00  0.00000000E+00  0.00000000E+00
  0.00000000E+00  0.00000000E+00  0.00000000E+00
  0.00000000E+00  0.00000000E+00  0.00000000E+00
  0.00000000E+00  0.00000000E+00  0.00000000E+00
  0.00000000E+00  0.00000000E+00  0.00000000E+00
  0.00000000E+00  0.00000000E+00  0.00000000E+00
  0.00000000E+00  0.00000000E+00  0.00000000E+00
  0.00000000E+00  0.00000000E+00  0.00000000E+00
  0.00000000E+00  0.00000000E+00  0.00000000E+00
  0.00000000E+00  0.00000000E+00  0.00000000E+00
  0.00000000E+00  0.00000000E+00  0.00000000E+00
  0.00000000E+00  0.00000000E+00  0.00000000E+00
  0.00000000E+00  0.00000000E+00  0.00000000E+00
  0.00000000E+00  0.00000000E+00  0.00000000E+00
  0.00000000E+00  0.00000000E+00  0.00000000E+00
  0.00000000E+00  0.00000000E+00  0.00000000E+00
  0.00000000E+00  0.00000000E+00  0.00000000E+00
  0.00000000E+00  0.00000000E+00  0.00000000E+00
  0.00000000E+00  0.00000000E+00  0.00000000E+00
  0.00000000E+00  0.00000000E+00  0.00000000E+00
  0.00000000E+00  0.00000000E+00  0.00000000E+00
  0.00000000E+00  0.00000000E+00  0.00000000E+00
  0.00000000E+00  0.00000000E+00  0.00000000E+00
  0.00000000E+00  0.00000000E+00  0.00000000E+00
  0.00000000E+00  0.00000000E+00  0.00000000E+00
  0.00000000E+00  0.00000000E+00  0.00000000E+00
  0.00000000E+00  0.00000000E+00  0.00000000E+00
  0.00000000E+00  0.00000000E+00  0.00000000E+00
  0.00000000E+00  0.00000000E+00  0.00000000E+00
  0.00000000E+00  0.00000000E+00  0.00000000E+00
  0.00000000E+00  0.00000000E+00  0.00000000E+00
  0.00000000E+00  0.00000000E+00  0.00000000E+00
  0.00000000E+00  0.00000000E+00  0.00000000E+00
  0.00000000E+00  0.00000000E+00  0.00000000E+00
  0.00000000E+00  0.00000000E+00  0.00000000E+00
  0.00000000E+00  0.00000000E+00  0.00000000E+00
  0.00000000E+00  0.00000000E+00  0.00000000E+00
  0.00000000E+00  0.00000000E+00  0.00000000E+00
  0.00000000E+00  0.00000000E+00  0.00000000E+00
  0.00000000E+00  0.00000000E+00  0.00000000E+00
  0.00000000E+00  0.00000000E+00  0.00000000E+00
  0.00000000E+00  0.00000000E+00  0.00000000E+00
