POSCAR                                  
   1.00000000000000     
    12.3312997818000003    0.0000000000000000    0.0000000000000000
     0.0001127485000000   12.8291997905000006    0.0000000000000000
     0.0005937186000000    0.0011528207000000   19.9943999824000009
   C    N    Fe   Ni
    52     4     1     1
Direct
  0.0561659371807428  0.0547514546773344  0.0557966574363225
  0.1565865766895606  0.1113049748569763  0.0558174633230582
  0.1576040192461903  0.2223186094767365  0.0557953471663404
  0.0572728799508383  0.2764709048467754  0.0557650831428308
  0.2566911522001477  0.0568200164828995  0.0558310711687970
  0.3574181497699911  0.1127181969542587  0.0557804162685774
  0.3585788247424254  0.2246017448252995  0.0557364657231507
  0.2579571850606813  0.2789596629852985  0.0557721313982150
  0.4569867615954752  0.0560507151509252  0.0557501092783282
  0.5577850008109537  0.1111349046242216  0.0556929909734674
  0.5588292317440507  0.2238154827686601  0.0556633404755116
  0.4593751094833516  0.2826257682350969  0.0556710238571559
  0.6559537039668903  0.0505498428705318  0.0556606873138228
  0.7555932946175155  0.1078422928950919  0.0556693716112088
  0.7575117523266311  0.2200244149126056  0.0556541245634123
  0.6593856473306882  0.2794309073426109  0.0556337956638298
  0.8551650683812358  0.0518358573697368  0.0556955915332604
  0.9556730506217782  0.1084339545343283  0.0557340355252803
  0.9571652667400252  0.2198605195222846  0.0557175552883761
  0.8578947644372360  0.2751949705556709  0.0556655153511941
  0.0576496030937546  0.3875406890385804  0.0557624669115142
  0.1569721402733136  0.4440500875152588  0.0557943205081127
  0.1565049155115407  0.5549150703739743  0.0558058435929704
  0.0566151700155146  0.6099000240875709  0.0557861698422708
  0.2573345446975142  0.3902395791739020  0.0557695032141843
  0.3571412732289435  0.4475130856083003  0.0557074861886980
  0.3568593137834034  0.5597063908377924  0.0557158604230151
  0.2558144527857177  0.6120577943826493  0.0557926762709336
  0.7603083036101534  0.4427693732757079  0.0556054443436023
  0.8591001030278193  0.3865404478568817  0.0556482637364135
  0.9580229416868346  0.4429469250123029  0.0557069789448542
  0.9570219881250868  0.5538494256087084  0.0557191032101503
  0.8558460407459418  0.6076896544229622  0.0556607575204862
  0.0557292486755490  0.7208311016660105  0.0558009858055550
  0.1541799376550559  0.7779483203119352  0.0558423460222547
  0.1552580944709426  0.8890935543939441  0.0558514050401240
  0.0552985972018466  0.9438522143523924  0.0558132240564658
  0.2531396013784690  0.7227989544041596  0.0558208237892241
  0.3514877092401292  0.7787329690088532  0.0557837094784757
  0.3541735187230503  0.8898129442636796  0.0558090346183733
  0.2551068338310049  0.9453665909798966  0.0558489260580512
  0.4493492749703921  0.7225162964778726  0.0556922904981291
  0.5516606411095026  0.8843220524477233  0.0556608900218376
  0.4548258728522707  0.9443513687409915  0.0557504441376341
  0.7551801736221915  0.8793151029351968  0.0556465586497311
  0.6545880021150416  0.9368422852102501  0.0556420788104432
  0.8574554903869807  0.7201311948527250  0.0556710032169959
  0.9560173235757627  0.7760058510015440  0.0557471676966693
  0.9556941182353311  0.8870959568645281  0.0557568983802594
  0.8543553476392769  0.9395926183758257  0.0556941417173052
  0.4562776369188406  0.3935104882585203  0.0556517517762981
  0.7546650121802784  0.5543471264279849  0.0556073540788700
  0.5450812484235453  0.7767419694362951  0.0556265607438088
  0.7589873732863097  0.7699977741237281  0.0556167574529718
  0.4547916010594945  0.6141929415993960  0.0556656339744160
  0.6639183695981162  0.3863791012840871  0.0555888705457077
  0.6416662279266584  0.6681037329308536  0.0555774999741461
  0.5676786024420409  0.4922837125696315  0.0556059816869048
 
  0.00000000E+00  0.00000000E+00  0.00000000E+00
  0.00000000E+00  0.00000000E+00  0.00000000E+00
  0.00000000E+00  0.00000000E+00  0.00000000E+00
  0.00000000E+00  0.00000000E+00  0.00000000E+00
  0.00000000E+00  0.00000000E+00  0.00000000E+00
  0.00000000E+00  0.00000000E+00  0.00000000E+00
  0.00000000E+00  0.00000000E+00  0.00000000E+00
  0.00000000E+00  0.00000000E+00  0.00000000E+00
  0.00000000E+00  0.00000000E+00  0.00000000E+00
  0.00000000E+00  0.00000000E+00  0.00000000E+00
  0.00000000E+00  0.00000000E+00  0.00000000E+00
  0.00000000E+00  0.00000000E+00  0.00000000E+00
  0.00000000E+00  0.00000000E+00  0.00000000E+00
  0.00000000E+00  0.00000000E+00  0.00000000E+00
  0.00000000E+00  0.00000000E+00  0.00000000E+00
  0.00000000E+00  0.00000000E+00  0.00000000E+00
  0.00000000E+00  0.00000000E+00  0.00000000E+00
  0.00000000E+00  0.00000000E+00  0.00000000E+00
  0.00000000E+00  0.00000000E+00  0.00000000E+00
  0.00000000E+00  0.00000000E+00  0.00000000E+00
  0.00000000E+00  0.00000000E+00  0.00000000E+00
  0.00000000E+00  0.00000000E+00  0.00000000E+00
  0.00000000E+00  0.00000000E+00  0.00000000E+00
  0.00000000E+00  0.00000000E+00  0.00000000E+00
  0.00000000E+00  0.00000000E+00  0.00000000E+00
  0.00000000E+00  0.00000000E+00  0.00000000E+00
  0.00000000E+00  0.00000000E+00  0.00000000E+00
  0.00000000E+00  0.00000000E+00  0.00000000E+00
  0.00000000E+00  0.00000000E+00  0.00000000E+00
  0.00000000E+00  0.00000000E+00  0.00000000E+00
  0.00000000E+00  0.00000000E+00  0.00000000E+00
  0.00000000E+00  0.00000000E+00  0.00000000E+00
  0.00000000E+00  0.00000000E+00  0.00000000E+00
  0.00000000E+00  0.00000000E+00  0.00000000E+00
  0.00000000E+00  0.00000000E+00  0.00000000E+00
  0.00000000E+00  0.00000000E+00  0.00000000E+00
  0.00000000E+00  0.00000000E+00  0.00000000E+00
  0.00000000E+00  0.00000000E+00  0.00000000E+00
  0.00000000E+00  0.00000000E+00  0.00000000E+00
  0.00000000E+00  0.00000000E+00  0.00000000E+00
  0.00000000E+00  0.00000000E+00  0.00000000E+00
  0.00000000E+00  0.00000000E+00  0.00000000E+00
  0.00000000E+00  0.00000000E+00  0.00000000E+00
  0.00000000E+00  0.00000000E+00  0.00000000E+00
  0.00000000E+00  0.00000000E+00  0.00000000E+00
  0.00000000E+00  0.00000000E+00  0.00000000E+00
  0.00000000E+00  0.00000000E+00  0.00000000E+00
  0.00000000E+00  0.00000000E+00  0.00000000E+00
  0.00000000E+00  0.00000000E+00  0.00000000E+00
  0.00000000E+00  0.00000000E+00  0.00000000E+00
  0.00000000E+00  0.00000000E+00  0.00000000E+00
  0.00000000E+00  0.00000000E+00  0.00000000E+00
  0.00000000E+00  0.00000000E+00  0.00000000E+00
  0.00000000E+00  0.00000000E+00  0.00000000E+00
  0.00000000E+00  0.00000000E+00  0.00000000E+00
  0.00000000E+00  0.00000000E+00  0.00000000E+00
  0.00000000E+00  0.00000000E+00  0.00000000E+00
  0.00000000E+00  0.00000000E+00  0.00000000E+00
