CONTCAR\(5)                             
   1.00000000000000     
    12.3312997818000003    0.0000000000000000    0.0000000000000000
     0.0001127485000000   12.8291997905000006    0.0000000000000000
     0.0005937186000000    0.0011528207000000   19.9943999824000009
   C    N    Fe   Ni   O    H 
    54     2     1     1     2     2
Direct
  0.0561623703381669  0.0535256552775176  0.0461247920767588
  0.1565869764128089  0.1088420464102250  0.0448953208485091
  0.1567333108039332  0.2197680012430561  0.0433940393314729
  0.0563435314135230  0.2749615642767657  0.0446493489953500
  0.2572327941211527  0.0539887289828629  0.0461736370800564
  0.3576335533275850  0.1100199090463321  0.0490675296611232
  0.3579233509785151  0.2220388762625634  0.0469802919108086
  0.2566605639232082  0.2755527085519776  0.0423108438342676
  0.4572958959298495  0.0538596296740934  0.0544234500335158
  0.5567538229448376  0.1113413532708125  0.0597953237476271
  0.5571480714638338  0.2241251030423110  0.0602198565956209
  0.4576765765792514  0.2810141634160686  0.0513278984508181
  0.6552906050179871  0.0515528201536510  0.0621854764020130
  0.7554836416794590  0.1083181375567387  0.0592574052268372
  0.7569573685856780  0.2203803543696286  0.0605112540098164
  0.6590060644896957  0.2803152460480473  0.0657779023542965
  0.8555082718397540  0.0528846628834439  0.0538717305614290
  0.9557869616274376  0.1085381434783226  0.0495143190779015
  0.9565137695664037  0.2195892740069485  0.0494057061647976
  0.8568018879324167  0.2753853007252494  0.0550636151924326
  0.0558451089963036  0.3860932675978818  0.0428893281137445
  0.1545707782187448  0.4420187862589555  0.0389722081154075
  0.1545654639112568  0.5535774425137129  0.0378836501841179
  0.0553606563342161  0.6089377235383561  0.0405024664263055
  0.2545434380615670  0.3864985152257390  0.0391956089432539
  0.3526708878391542  0.4430458418182021  0.0397424241940482
  0.3530403018318472  0.5553538095383523  0.0407757737940855
  0.2537007851782374  0.6102225776572009  0.0382851173258393
  0.7582851158763344  0.4428853465495733  0.0664062245410023
  0.8572670996176253  0.3866871691868231  0.0552530072517032
  0.9562658058505955  0.4417536053591391  0.0474730460705262
  0.9564141225355960  0.5524006582249994  0.0462501852056985
  0.8572185018405649  0.6071267422665669  0.0548784055062371
  0.0566321724682123  0.7205002421437038  0.0409493152443455
  0.1558189506942695  0.7764736222485247  0.0403353595946092
  0.1560369527860369  0.8874979609162821  0.0428420241225605
  0.0557594153905863  0.9426458982464974  0.0448786926126712
  0.2554863261883235  0.7207064972432142  0.0403344808501445
  0.3557115697708049  0.7748016504382252  0.0462051127356043
  0.3561392115200004  0.8862553291910694  0.0486294134317827
  0.2564308891768712  0.9426631732558283  0.0454111392402723
  0.4549718366401103  0.7169576700633871  0.0541283377676376
  0.5535595888717937  0.8810216768147187  0.0631250140252283
  0.4561811833129067  0.9412365064555502  0.0548383183918338
  0.7562208452141184  0.8838632474514883  0.0612389288232039
  0.6549187423744355  0.9389697345441125  0.0643313350223018
  0.8594171961618646  0.7199128589984307  0.0532628075181028
  0.9572423740772915  0.7759728603188875  0.0456513631417962
  0.9559156557907217  0.8870021234426075  0.0473645550527743
  0.8554120846876502  0.9414173707342374  0.0533291868010683
  0.4537372435061341  0.3926221072345490  0.0460164844778126
  0.7588862888337032  0.5551240421983344  0.0692033479118978
  0.7619075761505454  0.7735416499362174  0.0656040777830868
  0.4536712895759694  0.6048208442325125  0.0502489995664146
  0.6626082558679277  0.3866835743691876  0.0725147174519221
  0.5498159179303589  0.7731016861535829  0.0680719856051427
  0.6656739853878715  0.6804424955819686  0.1085307104118971
  0.5549999992079319  0.4917801771231284  0.0724850475832952
  0.5751555344125384  0.5701004457578490  0.1559735864646879
  0.7406863999644292  0.6978026127439658  0.1862748795730135
  0.7127173920596460  0.6432821669814075  0.2160334876937388
  0.5034776429094054  0.5974765917684013  0.1668701018737223
 
  0.00000000E+00  0.00000000E+00  0.00000000E+00
  0.00000000E+00  0.00000000E+00  0.00000000E+00
  0.00000000E+00  0.00000000E+00  0.00000000E+00
  0.00000000E+00  0.00000000E+00  0.00000000E+00
  0.00000000E+00  0.00000000E+00  0.00000000E+00
  0.00000000E+00  0.00000000E+00  0.00000000E+00
  0.00000000E+00  0.00000000E+00  0.00000000E+00
  0.00000000E+00  0.00000000E+00  0.00000000E+00
  0.00000000E+00  0.00000000E+00  0.00000000E+00
  0.00000000E+00  0.00000000E+00  0.00000000E+00
  0.00000000E+00  0.00000000E+00  0.00000000E+00
  0.00000000E+00  0.00000000E+00  0.00000000E+00
  0.00000000E+00  0.00000000E+00  0.00000000E+00
  0.00000000E+00  0.00000000E+00  0.00000000E+00
  0.00000000E+00  0.00000000E+00  0.00000000E+00
  0.00000000E+00  0.00000000E+00  0.00000000E+00
  0.00000000E+00  0.00000000E+00  0.00000000E+00
  0.00000000E+00  0.00000000E+00  0.00000000E+00
  0.00000000E+00  0.00000000E+00  0.00000000E+00
  0.00000000E+00  0.00000000E+00  0.00000000E+00
  0.00000000E+00  0.00000000E+00  0.00000000E+00
  0.00000000E+00  0.00000000E+00  0.00000000E+00
  0.00000000E+00  0.00000000E+00  0.00000000E+00
  0.00000000E+00  0.00000000E+00  0.00000000E+00
  0.00000000E+00  0.00000000E+00  0.00000000E+00
  0.00000000E+00  0.00000000E+00  0.00000000E+00
  0.00000000E+00  0.00000000E+00  0.00000000E+00
  0.00000000E+00  0.00000000E+00  0.00000000E+00
  0.00000000E+00  0.00000000E+00  0.00000000E+00
  0.00000000E+00  0.00000000E+00  0.00000000E+00
  0.00000000E+00  0.00000000E+00  0.00000000E+00
  0.00000000E+00  0.00000000E+00  0.00000000E+00
  0.00000000E+00  0.00000000E+00  0.00000000E+00
  0.00000000E+00  0.00000000E+00  0.00000000E+00
  0.00000000E+00  0.00000000E+00  0.00000000E+00
  0.00000000E+00  0.00000000E+00  0.00000000E+00
  0.00000000E+00  0.00000000E+00  0.00000000E+00
  0.00000000E+00  0.00000000E+00  0.00000000E+00
  0.00000000E+00  0.00000000E+00  0.00000000E+00
  0.00000000E+00  0.00000000E+00  0.00000000E+00
  0.00000000E+00  0.00000000E+00  0.00000000E+00
  0.00000000E+00  0.00000000E+00  0.00000000E+00
  0.00000000E+00  0.00000000E+00  0.00000000E+00
  0.00000000E+00  0.00000000E+00  0.00000000E+00
  0.00000000E+00  0.00000000E+00  0.00000000E+00
  0.00000000E+00  0.00000000E+00  0.00000000E+00
  0.00000000E+00  0.00000000E+00  0.00000000E+00
  0.00000000E+00  0.00000000E+00  0.00000000E+00
  0.00000000E+00  0.00000000E+00  0.00000000E+00
  0.00000000E+00  0.00000000E+00  0.00000000E+00
  0.00000000E+00  0.00000000E+00  0.00000000E+00
  0.00000000E+00  0.00000000E+00  0.00000000E+00
  0.00000000E+00  0.00000000E+00  0.00000000E+00
  0.00000000E+00  0.00000000E+00  0.00000000E+00
  0.00000000E+00  0.00000000E+00  0.00000000E+00
  0.00000000E+00  0.00000000E+00  0.00000000E+00
  0.00000000E+00  0.00000000E+00  0.00000000E+00
  0.00000000E+00  0.00000000E+00  0.00000000E+00
  0.00000000E+00  0.00000000E+00  0.00000000E+00
  0.00000000E+00  0.00000000E+00  0.00000000E+00
  0.00000000E+00  0.00000000E+00  0.00000000E+00
  0.00000000E+00  0.00000000E+00  0.00000000E+00
