CONTCAR\(2)\(3)                         
   1.00000000000000     
    12.3312997818000003    0.0000000000000000    0.0000000000000000
     0.0001127485000000   12.8291997905000006    0.0000000000000000
     0.0005937186000000    0.0011528207000000   19.9943999824000009
   C    N    Fe   Ni   O    H 
    53     3     1     1     2     2
Direct
  0.0543841314852309  0.0534545464159788  0.0461620226883106
  0.1546322746318679  0.1090179212431457  0.0458782309367530
  0.1549508525507068  0.2199186751905084  0.0456976953257754
  0.0552490141425420  0.2751628663506671  0.0459777324250374
  0.2549555890502687  0.0542769122759424  0.0469817880750614
  0.3553027666260538  0.1099127846785813  0.0490457456175627
  0.3552064674820135  0.2214743513333618  0.0492042540384719
  0.2549548933939064  0.2757334543220737  0.0468313807060769
  0.4551160915596991  0.0546633227629850  0.0516953120041777
  0.5546803102015485  0.1117568322170864  0.0543594738620272
  0.5550987505773196  0.2239976397710892  0.0563858624719295
  0.4539671531573410  0.2795660488075787  0.0534285471068439
  0.6538533358848821  0.0524064422673010  0.0543675718718471
  0.7538558794593230  0.1091129605582890  0.0522054197286777
  0.7547053402768721  0.2216001362111448  0.0529270503832994
  0.6561347115413437  0.2811248337229617  0.0583357077026659
  0.8535227467397007  0.0526023967126676  0.0495705346676963
  0.9539539081981471  0.1086723477498091  0.0473996846967978
  0.9546047175155805  0.2201638751601266  0.0474975383768386
  0.8549021174725741  0.2766399602988152  0.0503226501343598
  0.0569759617272062  0.3863235029885835  0.0460876274388280
  0.1563026152123135  0.4424252748260656  0.0461519105915593
  0.1576571081357972  0.5536238954810000  0.0465994974873744
  0.0579269323703455  0.6089705227662485  0.0467962477250010
  0.2557668613399295  0.3866817170716139  0.0470670670775718
  0.3558210705724717  0.4411042643904504  0.0505538158588860
  0.3601140937706190  0.5549268276616109  0.0529452642210391
  0.2579188128302677  0.6090198188104585  0.0485988021122065
  0.7594681103564249  0.4479883556712042  0.0578495637411915
  0.8571043527944405  0.3883478406953369  0.0510331992310089
  0.9576690882953545  0.4419520627297081  0.0481583846556474
  0.9587422478756663  0.5524155720729489  0.0487957833379048
  0.8588370638930680  0.6063843926757442  0.0525467300604854
  0.0566462384792060  0.7201724329416104  0.0466525874190208
  0.1554452635505887  0.7758859929040881  0.0465520671042239
  0.1546677229332339  0.8871936566418491  0.0462211615702589
  0.0543416004128376  0.9421774966794217  0.0463160653538237
  0.2553257365393993  0.7200495480164407  0.0483922656702562
  0.3535582380033649  0.7767103110977480  0.0505204924489043
  0.3540047314606686  0.8878947949177607  0.0494146567644159
  0.2543062226444862  0.9433103404170260  0.0470965545505130
  0.4526845929111761  0.7213394498541105  0.0562105967605920
  0.5521690263024983  0.8836463462742616  0.0551230305790225
  0.4539369773071261  0.9428731279539194  0.0518825558596995
  0.7535017499814104  0.8823110548205947  0.0540004367368015
  0.6535996814904067  0.9398134984515952  0.0552571438224563
  0.8577414157008946  0.7185937323205650  0.0513837818789405
  0.9564480410603177  0.7750225266524080  0.0478894275709656
  0.9544651574572760  0.8861489158884387  0.0477632526308068
  0.8533715524804899  0.9404397536828374  0.0500032448215987
  0.6615151188664894  0.3910945315617383  0.0658540691441459
  0.7574281105617046  0.7704432878339701  0.0562399565949352
  0.4599066907547739  0.6097367432776569  0.0610464156330705
  0.4509469587978896  0.3872642452378038  0.0548167941962680
  0.7618429995059847  0.5566119370822910  0.0582190850570787
  0.5481573911081349  0.7773013613571625  0.0572969261187517
  0.6508859749040679  0.6715216991413950  0.0810946302395827
  0.5516419353362306  0.4761223042159650  0.0952511946737035
  0.5921524395139347  0.5023083961195434  0.1786098583632752
  0.6606113705917046  0.6941807679600442  0.1729958895740576
  0.7155890656267839  0.7422714577251601  0.1892035976297576
  0.6192126285960847  0.5734079280815074  0.1893841888741543
 
  0.00000000E+00  0.00000000E+00  0.00000000E+00
  0.00000000E+00  0.00000000E+00  0.00000000E+00
  0.00000000E+00  0.00000000E+00  0.00000000E+00
  0.00000000E+00  0.00000000E+00  0.00000000E+00
  0.00000000E+00  0.00000000E+00  0.00000000E+00
  0.00000000E+00  0.00000000E+00  0.00000000E+00
  0.00000000E+00  0.00000000E+00  0.00000000E+00
  0.00000000E+00  0.00000000E+00  0.00000000E+00
  0.00000000E+00  0.00000000E+00  0.00000000E+00
  0.00000000E+00  0.00000000E+00  0.00000000E+00
  0.00000000E+00  0.00000000E+00  0.00000000E+00
  0.00000000E+00  0.00000000E+00  0.00000000E+00
  0.00000000E+00  0.00000000E+00  0.00000000E+00
  0.00000000E+00  0.00000000E+00  0.00000000E+00
  0.00000000E+00  0.00000000E+00  0.00000000E+00
  0.00000000E+00  0.00000000E+00  0.00000000E+00
  0.00000000E+00  0.00000000E+00  0.00000000E+00
  0.00000000E+00  0.00000000E+00  0.00000000E+00
  0.00000000E+00  0.00000000E+00  0.00000000E+00
  0.00000000E+00  0.00000000E+00  0.00000000E+00
  0.00000000E+00  0.00000000E+00  0.00000000E+00
  0.00000000E+00  0.00000000E+00  0.00000000E+00
  0.00000000E+00  0.00000000E+00  0.00000000E+00
  0.00000000E+00  0.00000000E+00  0.00000000E+00
  0.00000000E+00  0.00000000E+00  0.00000000E+00
  0.00000000E+00  0.00000000E+00  0.00000000E+00
  0.00000000E+00  0.00000000E+00  0.00000000E+00
  0.00000000E+00  0.00000000E+00  0.00000000E+00
  0.00000000E+00  0.00000000E+00  0.00000000E+00
  0.00000000E+00  0.00000000E+00  0.00000000E+00
  0.00000000E+00  0.00000000E+00  0.00000000E+00
  0.00000000E+00  0.00000000E+00  0.00000000E+00
  0.00000000E+00  0.00000000E+00  0.00000000E+00
  0.00000000E+00  0.00000000E+00  0.00000000E+00
  0.00000000E+00  0.00000000E+00  0.00000000E+00
  0.00000000E+00  0.00000000E+00  0.00000000E+00
  0.00000000E+00  0.00000000E+00  0.00000000E+00
  0.00000000E+00  0.00000000E+00  0.00000000E+00
  0.00000000E+00  0.00000000E+00  0.00000000E+00
  0.00000000E+00  0.00000000E+00  0.00000000E+00
  0.00000000E+00  0.00000000E+00  0.00000000E+00
  0.00000000E+00  0.00000000E+00  0.00000000E+00
  0.00000000E+00  0.00000000E+00  0.00000000E+00
  0.00000000E+00  0.00000000E+00  0.00000000E+00
  0.00000000E+00  0.00000000E+00  0.00000000E+00
  0.00000000E+00  0.00000000E+00  0.00000000E+00
  0.00000000E+00  0.00000000E+00  0.00000000E+00
  0.00000000E+00  0.00000000E+00  0.00000000E+00
  0.00000000E+00  0.00000000E+00  0.00000000E+00
  0.00000000E+00  0.00000000E+00  0.00000000E+00
  0.00000000E+00  0.00000000E+00  0.00000000E+00
  0.00000000E+00  0.00000000E+00  0.00000000E+00
  0.00000000E+00  0.00000000E+00  0.00000000E+00
  0.00000000E+00  0.00000000E+00  0.00000000E+00
  0.00000000E+00  0.00000000E+00  0.00000000E+00
  0.00000000E+00  0.00000000E+00  0.00000000E+00
  0.00000000E+00  0.00000000E+00  0.00000000E+00
  0.00000000E+00  0.00000000E+00  0.00000000E+00
  0.00000000E+00  0.00000000E+00  0.00000000E+00
  0.00000000E+00  0.00000000E+00  0.00000000E+00
  0.00000000E+00  0.00000000E+00  0.00000000E+00
  0.00000000E+00  0.00000000E+00  0.00000000E+00
