CONTCAR\(13)                            
   1.00000000000000     
    12.3312997818000003    0.0000000000000000    0.0000000000000000
     0.0001127485000000   12.8291997905000006    0.0000000000000000
     0.0005937186000000    0.0011528207000000   19.9943999824000009
   C    N    Fe   Ni   H 
    52     4     1     1     1
Direct
  0.0558118018187393  0.0556574930123726  0.0523015560847745
  0.1561745903516920  0.1111791538748309  0.0515528627396871
  0.1561767916777252  0.2220113925719868  0.0504718157135898
  0.0558203828571958  0.2768240629849987  0.0502530013665571
  0.2564853067556414  0.0562868703243692  0.0525863958769373
  0.3570084563471855  0.1115701161407944  0.0554280102274344
  0.3566378588593397  0.2236361158489941  0.0548830456523260
  0.2561161432972782  0.2776195293131168  0.0508314696856842
  0.4565734973880320  0.0548512578486208  0.0589142251844329
  0.5560461605109775  0.1117331203190900  0.0627629764536788
  0.5560611989146474  0.2252994639142812  0.0640906122242411
  0.4553862970303847  0.2827401271786682  0.0589347928117914
  0.6550310787322106  0.0510432612001912  0.0636929090698548
  0.7545698929768748  0.1093190969101945  0.0619050531119988
  0.7553551999706980  0.2222383837657586  0.0627954281981818
  0.6566788791860503  0.2820519525403691  0.0676060527534316
  0.8546158787547290  0.0536239067411475  0.0581849013692458
  0.9549939133019426  0.1098417250413165  0.0547457675440594
  0.9555808325744118  0.2213239792503333  0.0538905104323064
  0.8560215821138525  0.2774088837352232  0.0576218571732171
  0.0567816536851459  0.3879571587818715  0.0479620143210066
  0.1563011501614960  0.4439277727773094  0.0459944361059376
  0.1565068571452668  0.5546544291090639  0.0446743078893858
  0.0578632914990879  0.6109239709109464  0.0452562805929436
  0.2559707463902883  0.3889621631229957  0.0484814183714544
  0.3554754218786655  0.4438793907692053  0.0510928335066255
  0.3552752603311528  0.5571765255979045  0.0507003420592970
  0.2553383208969193  0.6107301686517986  0.0463908286931025
  0.7612324139117483  0.4476655309114765  0.0648503887116537
  0.8584774103893053  0.3890000661451170  0.0562006363317766
  0.9579393132756614  0.4438709887954297  0.0500477137734938
  0.9589800830477493  0.5553599500305434  0.0488368361163168
  0.8613764591543365  0.6118620165326947  0.0549658029530387
  0.0572246313869748  0.7219335700408116  0.0462371365786169
  0.1556720751638529  0.7782055262722892  0.0466227971227711
  0.1559587703608461  0.8893591118526533  0.0490101534148528
  0.0561152574962332  0.9449202153736691  0.0509578611240522
  0.2542093049529241  0.7219398072028659  0.0472671379543965
  0.3526097499894914  0.7773428023440971  0.0516613533161308
  0.3548687905404261  0.8885778735929188  0.0536148690361597
  0.2557660536207376  0.9449055883043551  0.0513182457675738
  0.4497379722661746  0.7198610820906294  0.0578434787810271
  0.5521754495090229  0.8808458047666460  0.0634946815059553
  0.4554808120143379  0.9425402581442753  0.0585910864870101
  0.7570190504836687  0.8805814357634214  0.0619014078975057
  0.6547253055678941  0.9363771595920520  0.0641693089121670
  0.8608490668516000  0.7234836892249541  0.0548458361606619
  0.9584473789040612  0.7785718289137797  0.0501122594872609
  0.9567177804224285  0.8891410011103043  0.0526608888976941
  0.8551663053840625  0.9414654600885972  0.0576851399886564
  0.6620927486643347  0.3932293167983058  0.0727249553305803
  0.7618029848888547  0.5603198510632366  0.0650802207847391
  0.4522790019973874  0.3909691891361942  0.0571058520590059
  0.4509578952413209  0.6116113221270564  0.0572723269182014
  0.5456716008428091  0.7725472353928553  0.0661915367633361
  0.7625284563996402  0.7721022891790559  0.0619861912746087
  0.6509187730247127  0.6597242711605561  0.0755346614579508
  0.5570142349134414  0.4947824182633543  0.0740991851289802
  0.6168563909263374  0.5690918865480304  0.1291943377506145
 
  0.00000000E+00  0.00000000E+00  0.00000000E+00
  0.00000000E+00  0.00000000E+00  0.00000000E+00
  0.00000000E+00  0.00000000E+00  0.00000000E+00
  0.00000000E+00  0.00000000E+00  0.00000000E+00
  0.00000000E+00  0.00000000E+00  0.00000000E+00
  0.00000000E+00  0.00000000E+00  0.00000000E+00
  0.00000000E+00  0.00000000E+00  0.00000000E+00
  0.00000000E+00  0.00000000E+00  0.00000000E+00
  0.00000000E+00  0.00000000E+00  0.00000000E+00
  0.00000000E+00  0.00000000E+00  0.00000000E+00
  0.00000000E+00  0.00000000E+00  0.00000000E+00
  0.00000000E+00  0.00000000E+00  0.00000000E+00
  0.00000000E+00  0.00000000E+00  0.00000000E+00
  0.00000000E+00  0.00000000E+00  0.00000000E+00
  0.00000000E+00  0.00000000E+00  0.00000000E+00
  0.00000000E+00  0.00000000E+00  0.00000000E+00
  0.00000000E+00  0.00000000E+00  0.00000000E+00
  0.00000000E+00  0.00000000E+00  0.00000000E+00
  0.00000000E+00  0.00000000E+00  0.00000000E+00
  0.00000000E+00  0.00000000E+00  0.00000000E+00
  0.00000000E+00  0.00000000E+00  0.00000000E+00
  0.00000000E+00  0.00000000E+00  0.00000000E+00
  0.00000000E+00  0.00000000E+00  0.00000000E+00
  0.00000000E+00  0.00000000E+00  0.00000000E+00
  0.00000000E+00  0.00000000E+00  0.00000000E+00
  0.00000000E+00  0.00000000E+00  0.00000000E+00
  0.00000000E+00  0.00000000E+00  0.00000000E+00
  0.00000000E+00  0.00000000E+00  0.00000000E+00
  0.00000000E+00  0.00000000E+00  0.00000000E+00
  0.00000000E+00  0.00000000E+00  0.00000000E+00
  0.00000000E+00  0.00000000E+00  0.00000000E+00
  0.00000000E+00  0.00000000E+00  0.00000000E+00
  0.00000000E+00  0.00000000E+00  0.00000000E+00
  0.00000000E+00  0.00000000E+00  0.00000000E+00
  0.00000000E+00  0.00000000E+00  0.00000000E+00
  0.00000000E+00  0.00000000E+00  0.00000000E+00
  0.00000000E+00  0.00000000E+00  0.00000000E+00
  0.00000000E+00  0.00000000E+00  0.00000000E+00
  0.00000000E+00  0.00000000E+00  0.00000000E+00
  0.00000000E+00  0.00000000E+00  0.00000000E+00
  0.00000000E+00  0.00000000E+00  0.00000000E+00
  0.00000000E+00  0.00000000E+00  0.00000000E+00
  0.00000000E+00  0.00000000E+00  0.00000000E+00
  0.00000000E+00  0.00000000E+00  0.00000000E+00
  0.00000000E+00  0.00000000E+00  0.00000000E+00
  0.00000000E+00  0.00000000E+00  0.00000000E+00
  0.00000000E+00  0.00000000E+00  0.00000000E+00
  0.00000000E+00  0.00000000E+00  0.00000000E+00
  0.00000000E+00  0.00000000E+00  0.00000000E+00
  0.00000000E+00  0.00000000E+00  0.00000000E+00
  0.00000000E+00  0.00000000E+00  0.00000000E+00
  0.00000000E+00  0.00000000E+00  0.00000000E+00
  0.00000000E+00  0.00000000E+00  0.00000000E+00
  0.00000000E+00  0.00000000E+00  0.00000000E+00
  0.00000000E+00  0.00000000E+00  0.00000000E+00
  0.00000000E+00  0.00000000E+00  0.00000000E+00
  0.00000000E+00  0.00000000E+00  0.00000000E+00
  0.00000000E+00  0.00000000E+00  0.00000000E+00
  0.00000000E+00  0.00000000E+00  0.00000000E+00
