an6                                     
   1.00000000000000     
    12.3312997818000003    0.0000000000000000    0.0000000000000000
     0.0001127485000000   12.8291997905000006    0.0000000000000000
     0.0005937186000000    0.0011528207000000   19.9943999824000009
   C    N    Fe   Ni
    54     2     1     1
Direct
  0.0562712450271445  0.0544618032050721  0.0557712084697360
  0.1561179488341738  0.1104021987009073  0.0557850382877510
  0.1566458661748560  0.2212940483886828  0.0557730685927460
  0.0570938144327831  0.2764230992322964  0.0557527223696990
  0.2562289286563775  0.0558813832143567  0.0557989404347578
  0.3566121972768487  0.1119795252346651  0.0557702395180747
  0.3571139572099903  0.2237221208355961  0.0557381746268236
  0.2564589981065840  0.2772411182426291  0.0557559495956501
  0.4558666862659266  0.0561272337993721  0.0557392375236421
  0.5561212953065052  0.1121788918800408  0.0556937103745929
  0.5563863980580089  0.2241184919278539  0.0556772002251949
  0.4562660885933320  0.2820789787645759  0.0556787879269943
  0.6564985334252337  0.0532638536424990  0.0556669228303676
  0.7565007910487316  0.1094395342593396  0.0556817212359706
  0.7574811488761890  0.2209913071316083  0.0556880335882643
  0.6580480689832733  0.2789628170319514  0.0556699225646730
  0.8555564795067032  0.0529111499178921  0.0556960372713503
  0.9561328493897202  0.1089278592044317  0.0557329178741892
  0.9572344765619811  0.2200691921753400  0.0557253803013066
  0.8579553089476836  0.2758249185966338  0.0556955205714321
  0.0583895599576152  0.3878761173550549  0.0557509398429022
  0.1572276908989301  0.4437525251676833  0.0557638206670544
  0.1568706789467913  0.5550416909692704  0.0557786109998108
  0.0566378801896869  0.6101296731380683  0.0557779591470860
  0.2568466177062773  0.3879546182281076  0.0557473814478522
  0.3567962318652478  0.4423845469464188  0.0556994221946432
  0.3586935260382371  0.5557070848649898  0.0557105464358164
  0.2568020731701139  0.6103610904659645  0.0557670172052614
  0.7622503410393133  0.4433115097318690  0.0556671798159836
  0.8608013237706429  0.3868340732843146  0.0556915847016923
  0.9588743485645265  0.4435128979092027  0.0557263879076278
  0.9568805892172204  0.5546890009928679  0.0557415711391002
  0.8552718403198526  0.6094414883094672  0.0557000319889851
  0.0555047176094093  0.7212846480329157  0.0557847976615717
  0.1543425869985289  0.7770199763090566  0.0558098337264537
  0.1554099454825468  0.8884349032218352  0.0558140927741216
  0.0557410694003937  0.9435601035857983  0.0557843213843340
  0.2539663618850979  0.7214492573236801  0.0557897382811279
  0.3519221959690357  0.7780713140303566  0.0557540473408127
  0.3547106089454022  0.8891850366727759  0.0557761817609323
  0.2552077485218325  0.9447704499411539  0.0558126505220279
  0.4509497846100405  0.7221927081108058  0.0556824788610062
  0.5543183886195286  0.8875284718228641  0.0556711312510685
  0.4548545434134732  0.9448511791854199  0.0557356681585756
  0.7557193476942895  0.8819667743675391  0.0556361972476120
  0.6562391299334850  0.9412489607571137  0.0556420337175395
  0.8557809671641768  0.7225583836166661  0.0556891803285286
  0.9556103486655710  0.7769897408930971  0.0557432256774110
  0.9558740034130634  0.8876849152699151  0.0557395845296724
  0.8549663709667304  0.9408552607814014  0.0556829085917872
  0.4585852009628543  0.6102741742956607  0.0556631989810281
  0.6636604394009574  0.3877089282352276  0.0556517589446941
  0.7559961626663719  0.5546523969911983  0.0556658309904446
  0.5484931762721000  0.7792418132577086  0.0556409010305339
  0.4536469238991327  0.3908222348793345  0.0556529549141355
  0.7577126991297211  0.7724941248023641  0.0556249757151693
  0.6358962182009982  0.6628518232167016  0.0556110975867566
  0.5672873208087735  0.4935465256503682  0.0556180343455894
 
  0.00000000E+00  0.00000000E+00  0.00000000E+00
  0.00000000E+00  0.00000000E+00  0.00000000E+00
  0.00000000E+00  0.00000000E+00  0.00000000E+00
  0.00000000E+00  0.00000000E+00  0.00000000E+00
  0.00000000E+00  0.00000000E+00  0.00000000E+00
  0.00000000E+00  0.00000000E+00  0.00000000E+00
  0.00000000E+00  0.00000000E+00  0.00000000E+00
  0.00000000E+00  0.00000000E+00  0.00000000E+00
  0.00000000E+00  0.00000000E+00  0.00000000E+00
  0.00000000E+00  0.00000000E+00  0.00000000E+00
  0.00000000E+00  0.00000000E+00  0.00000000E+00
  0.00000000E+00  0.00000000E+00  0.00000000E+00
  0.00000000E+00  0.00000000E+00  0.00000000E+00
  0.00000000E+00  0.00000000E+00  0.00000000E+00
  0.00000000E+00  0.00000000E+00  0.00000000E+00
  0.00000000E+00  0.00000000E+00  0.00000000E+00
  0.00000000E+00  0.00000000E+00  0.00000000E+00
  0.00000000E+00  0.00000000E+00  0.00000000E+00
  0.00000000E+00  0.00000000E+00  0.00000000E+00
  0.00000000E+00  0.00000000E+00  0.00000000E+00
  0.00000000E+00  0.00000000E+00  0.00000000E+00
  0.00000000E+00  0.00000000E+00  0.00000000E+00
  0.00000000E+00  0.00000000E+00  0.00000000E+00
  0.00000000E+00  0.00000000E+00  0.00000000E+00
  0.00000000E+00  0.00000000E+00  0.00000000E+00
  0.00000000E+00  0.00000000E+00  0.00000000E+00
  0.00000000E+00  0.00000000E+00  0.00000000E+00
  0.00000000E+00  0.00000000E+00  0.00000000E+00
  0.00000000E+00  0.00000000E+00  0.00000000E+00
  0.00000000E+00  0.00000000E+00  0.00000000E+00
  0.00000000E+00  0.00000000E+00  0.00000000E+00
  0.00000000E+00  0.00000000E+00  0.00000000E+00
  0.00000000E+00  0.00000000E+00  0.00000000E+00
  0.00000000E+00  0.00000000E+00  0.00000000E+00
  0.00000000E+00  0.00000000E+00  0.00000000E+00
  0.00000000E+00  0.00000000E+00  0.00000000E+00
  0.00000000E+00  0.00000000E+00  0.00000000E+00
  0.00000000E+00  0.00000000E+00  0.00000000E+00
  0.00000000E+00  0.00000000E+00  0.00000000E+00
  0.00000000E+00  0.00000000E+00  0.00000000E+00
  0.00000000E+00  0.00000000E+00  0.00000000E+00
  0.00000000E+00  0.00000000E+00  0.00000000E+00
  0.00000000E+00  0.00000000E+00  0.00000000E+00
  0.00000000E+00  0.00000000E+00  0.00000000E+00
  0.00000000E+00  0.00000000E+00  0.00000000E+00
  0.00000000E+00  0.00000000E+00  0.00000000E+00
  0.00000000E+00  0.00000000E+00  0.00000000E+00
  0.00000000E+00  0.00000000E+00  0.00000000E+00
  0.00000000E+00  0.00000000E+00  0.00000000E+00
  0.00000000E+00  0.00000000E+00  0.00000000E+00
  0.00000000E+00  0.00000000E+00  0.00000000E+00
  0.00000000E+00  0.00000000E+00  0.00000000E+00
  0.00000000E+00  0.00000000E+00  0.00000000E+00
  0.00000000E+00  0.00000000E+00  0.00000000E+00
  0.00000000E+00  0.00000000E+00  0.00000000E+00
  0.00000000E+00  0.00000000E+00  0.00000000E+00
  0.00000000E+00  0.00000000E+00  0.00000000E+00
  0.00000000E+00  0.00000000E+00  0.00000000E+00
