CONTCAR\(4)                             
   1.00000000000000     
    12.3312997818000003    0.0000000000000000    0.0000000000000000
     0.0001127485000000   12.8291997905000006    0.0000000000000000
     0.0005937186000000    0.0011528207000000   19.9943999824000009
   C    N    Fe   Ni   H 
    51     5     1     1     1
Direct
  0.0559324618865572  0.0543766522506437  0.0521816133750695
  0.1564347862942718  0.1096207383616160  0.0523878649247672
  0.1561113529224419  0.2203915135847619  0.0506176909259740
  0.0560760307569887  0.2758397928328487  0.0492264455598719
  0.2572093484856603  0.0550388372449796  0.0547091503963521
  0.3574826137226875  0.1112130993909686  0.0576339218800982
  0.3567053326363832  0.2231258713034144  0.0562975480818406
  0.2557055739844576  0.2762711967532523  0.0514716716235923
  0.4578334329802283  0.0555886975050741  0.0615745196979618
  0.5573628861242472  0.1140143858445038  0.0636421877960347
  0.5577153983002405  0.2291091499642737  0.0638743179278320
  0.4549989962516926  0.2838669326547840  0.0601288721829974
  0.6559610507653129  0.0531998213857057  0.0632841558628123
  0.7549748740892326  0.1110364211016066  0.0601636039501439
  0.7557486222494642  0.2241187407793529  0.0601641333679488
  0.6587497665033389  0.2863064947129689  0.0644974818689311
  0.8547816770552678  0.0540653676017448  0.0566059009118667
  0.9554340956372527  0.1092550279191621  0.0537412271830562
  0.9560198431182754  0.2206977864946756  0.0525244953408584
  0.8568435155584533  0.2773962481825163  0.0552036043406297
  0.0566661022735256  0.3868255740228145  0.0460406041467583
  0.1553981138234827  0.4430293816308565  0.0450903508379648
  0.1555225517784232  0.5538688123488364  0.0440478872328164
  0.0573385178812830  0.6105596157691722  0.0430670117779859
  0.2543103244553506  0.3872704644977460  0.0489020137890374
  0.3526882700477222  0.4421081603876840  0.0532914014244892
  0.3521064680065422  0.5544751035251853  0.0544552448608684
  0.2539518889005471  0.6099011065812107  0.0482650292956690
  0.7622389897263968  0.4472537639846166  0.0588110429802610
  0.8592198135668747  0.3884854131333338  0.0526101749008303
  0.9582199376703572  0.4431795038177978  0.0467320059107823
  0.9586933757004509  0.5544116867360385  0.0448334595634170
  0.8601086734156482  0.6084770129575119  0.0493467165347543
  0.0568625280226429  0.7212378678265503  0.0448478198638338
  0.1556454753495272  0.7774857276870566  0.0475320184063900
  0.1565606773442034  0.8883604176881352  0.0503329489168070
  0.0561152286124234  0.9435473199331939  0.0507390301331146
  0.2542714526332507  0.7211752766288253  0.0499852826315564
  0.3534937772189705  0.7752311143249528  0.0564402491787690
  0.3565167083885674  0.8871775950852809  0.0577834798268666
  0.2569284285277353  0.9434504083125999  0.0541150278196548
  0.4500928197586781  0.7153215891596287  0.0642780553490305
  0.5549608943894426  0.8820227511469328  0.0672152187902397
  0.4571059398428833  0.9426330556020290  0.0626444354887589
  0.7568816232658160  0.8819872993312758  0.0593603383689377
  0.6558741244233517  0.9388673128913327  0.0642573497891517
  0.8587578828029129  0.7210865171583032  0.0501969407658590
  0.9572598788780848  0.7765934647581249  0.0476549321581250
  0.9563823346511382  0.8879123802664155  0.0509063064150355
  0.8552782211633286  0.9416855111061649  0.0555197367686875
  0.5497788750854561  0.7700285264405643  0.0715666614078538
  0.4495971221077670  0.3910604973402785  0.0594448772879792
  0.6650371787518623  0.3965142979379158  0.0677340283824050
  0.7641838308089189  0.5546770172473783  0.0569924729455177
  0.7610282710195814  0.7731314023713783  0.0570887984404257
  0.4474084091486369  0.6058984198502132  0.0641812343978743
  0.6534258607057822  0.6646154496330624  0.0704364918742549
  0.5544299099290105  0.4995305132010815  0.0747223316324000
  0.6072678256009829  0.5823897748096796  0.1273505815061740
 
  0.00000000E+00  0.00000000E+00  0.00000000E+00
  0.00000000E+00  0.00000000E+00  0.00000000E+00
  0.00000000E+00  0.00000000E+00  0.00000000E+00
  0.00000000E+00  0.00000000E+00  0.00000000E+00
  0.00000000E+00  0.00000000E+00  0.00000000E+00
  0.00000000E+00  0.00000000E+00  0.00000000E+00
  0.00000000E+00  0.00000000E+00  0.00000000E+00
  0.00000000E+00  0.00000000E+00  0.00000000E+00
  0.00000000E+00  0.00000000E+00  0.00000000E+00
  0.00000000E+00  0.00000000E+00  0.00000000E+00
  0.00000000E+00  0.00000000E+00  0.00000000E+00
  0.00000000E+00  0.00000000E+00  0.00000000E+00
  0.00000000E+00  0.00000000E+00  0.00000000E+00
  0.00000000E+00  0.00000000E+00  0.00000000E+00
  0.00000000E+00  0.00000000E+00  0.00000000E+00
  0.00000000E+00  0.00000000E+00  0.00000000E+00
  0.00000000E+00  0.00000000E+00  0.00000000E+00
  0.00000000E+00  0.00000000E+00  0.00000000E+00
  0.00000000E+00  0.00000000E+00  0.00000000E+00
  0.00000000E+00  0.00000000E+00  0.00000000E+00
  0.00000000E+00  0.00000000E+00  0.00000000E+00
  0.00000000E+00  0.00000000E+00  0.00000000E+00
  0.00000000E+00  0.00000000E+00  0.00000000E+00
  0.00000000E+00  0.00000000E+00  0.00000000E+00
  0.00000000E+00  0.00000000E+00  0.00000000E+00
  0.00000000E+00  0.00000000E+00  0.00000000E+00
  0.00000000E+00  0.00000000E+00  0.00000000E+00
  0.00000000E+00  0.00000000E+00  0.00000000E+00
  0.00000000E+00  0.00000000E+00  0.00000000E+00
  0.00000000E+00  0.00000000E+00  0.00000000E+00
  0.00000000E+00  0.00000000E+00  0.00000000E+00
  0.00000000E+00  0.00000000E+00  0.00000000E+00
  0.00000000E+00  0.00000000E+00  0.00000000E+00
  0.00000000E+00  0.00000000E+00  0.00000000E+00
  0.00000000E+00  0.00000000E+00  0.00000000E+00
  0.00000000E+00  0.00000000E+00  0.00000000E+00
  0.00000000E+00  0.00000000E+00  0.00000000E+00
  0.00000000E+00  0.00000000E+00  0.00000000E+00
  0.00000000E+00  0.00000000E+00  0.00000000E+00
  0.00000000E+00  0.00000000E+00  0.00000000E+00
  0.00000000E+00  0.00000000E+00  0.00000000E+00
  0.00000000E+00  0.00000000E+00  0.00000000E+00
  0.00000000E+00  0.00000000E+00  0.00000000E+00
  0.00000000E+00  0.00000000E+00  0.00000000E+00
  0.00000000E+00  0.00000000E+00  0.00000000E+00
  0.00000000E+00  0.00000000E+00  0.00000000E+00
  0.00000000E+00  0.00000000E+00  0.00000000E+00
  0.00000000E+00  0.00000000E+00  0.00000000E+00
  0.00000000E+00  0.00000000E+00  0.00000000E+00
  0.00000000E+00  0.00000000E+00  0.00000000E+00
  0.00000000E+00  0.00000000E+00  0.00000000E+00
  0.00000000E+00  0.00000000E+00  0.00000000E+00
  0.00000000E+00  0.00000000E+00  0.00000000E+00
  0.00000000E+00  0.00000000E+00  0.00000000E+00
  0.00000000E+00  0.00000000E+00  0.00000000E+00
  0.00000000E+00  0.00000000E+00  0.00000000E+00
  0.00000000E+00  0.00000000E+00  0.00000000E+00
  0.00000000E+00  0.00000000E+00  0.00000000E+00
  0.00000000E+00  0.00000000E+00  0.00000000E+00
