CONTCAR\(7)                             
   1.00000000000000     
    12.3312997818000003    0.0000000000000000    0.0000000000000000
     0.0001127485000000   12.8291997905000006    0.0000000000000000
     0.0005937186000000    0.0011528207000000   19.9943999824000009
   C    N    Fe   Ni   O 
    51     5     1     1     1
Direct
  0.0559800937265553  0.0547007506529701  0.0519622905355279
  0.1566716019288019  0.1104439376898859  0.0516463248561956
  0.1569596155274358  0.2212545890153987  0.0503774745926392
  0.0564087278016434  0.2760590589048856  0.0497312031052184
  0.2572637780117878  0.0555953503620620  0.0530002797271890
  0.3578516980622033  0.1111930426288371  0.0553806177656898
  0.3580061915605791  0.2233046342164449  0.0545833852131661
  0.2571216635919896  0.2774460448043337  0.0506601745277573
  0.4579933416461406  0.0546822910805764  0.0586996224520975
  0.5581598560397305  0.1116521855942413  0.0615184050683444
  0.5588633770166866  0.2258935786812876  0.0622623810987444
  0.4578081223282165  0.2822308305582587  0.0585118530504569
  0.6558317421692591  0.0507105770046761  0.0618017280684525
  0.7549303085927143  0.1090373342383690  0.0595479681099190
  0.7561665370102223  0.2221330940539055  0.0597683213056793
  0.6592317613600905  0.2834739233125445  0.0635536847662855
  0.8550073932930400  0.0530050487774681  0.0562598921579855
  0.9554528791052611  0.1090579189606054  0.0536010446688592
  0.9562524555348196  0.2205967442383528  0.0527304502131786
  0.8568203957968868  0.2767022207291086  0.0554003638819123
  0.0565103689268050  0.3870504171814330  0.0472958897257911
  0.1555706312489203  0.4434631990574408  0.0458990675129663
  0.1551324794474729  0.5543569771280811  0.0449882106500349
  0.0565307415069140  0.6104462451743198  0.0449223352900507
  0.2553111944811169  0.3887932236840421  0.0482332059173763
  0.3538230343039455  0.4459347097839928  0.0509529046419109
  0.3522951207342745  0.5581488546968204  0.0509590575045918
  0.2533586455164732  0.6116218606914769  0.0471624084821741
  0.7602801908544818  0.4467172157630713  0.0586091050818407
  0.8582592854809428  0.3880569511888791  0.0533759968738669
  0.9575907046701574  0.4428458377630918  0.0483049314515490
  0.9578857677669208  0.5540761011731448  0.0467254213751883
  0.8587350553240075  0.6078504008198495  0.0504224381398227
  0.0564070287146008  0.7212721406279211  0.0460548593098101
  0.1551492104045916  0.7781656767922978  0.0474302303121873
  0.1560511636237526  0.8887803416107554  0.0498065457025215
  0.0558137372352397  0.9438059350396006  0.0508405187206325
  0.2537494820330784  0.7223567168105881  0.0485852732798726
  0.3530993569455249  0.7766499029740681  0.0534271867611692
  0.3555212558876156  0.8878981622667098  0.0548873869856448
  0.2563468192562852  0.9441327285563164  0.0523517483530239
  0.4504232178562216  0.7177763131063560  0.0589712509624928
  0.5532139518857490  0.8799615642155670  0.0630232963302144
  0.4565436743062841  0.9419401420616119  0.0588672430641767
  0.7569054794963248  0.8803118417033999  0.0592487655474033
  0.6549973139943591  0.9356799283464441  0.0624949057630550
  0.8585258026532694  0.7204449243378236  0.0513065156821190
  0.9571662176456359  0.7762377700008936  0.0487376710927942
  0.9562719346865105  0.8875472612961169  0.0514729924453221
  0.8552866298005892  0.9409573905154311  0.0554967351777503
  0.4532812068977932  0.3930320746841173  0.0579586048297683
  0.4486606185559704  0.6100545552232709  0.0573422071687532
  0.6637764599502094  0.3936599161087351  0.0660691804090804
  0.7622698543438170  0.5548790914568513  0.0563395575227481
  0.5473284636930134  0.7703867345191672  0.0659381900795793
  0.7613015972187732  0.7721999888689847  0.0584089345376829
  0.6564241075569504  0.6666866898300294  0.0809930607932649
  0.5547141095351615  0.4947188206632393  0.0783679702617369
  0.6085565614561719  0.5882581497738577  0.1423107280947232
 
  0.00000000E+00  0.00000000E+00  0.00000000E+00
  0.00000000E+00  0.00000000E+00  0.00000000E+00
  0.00000000E+00  0.00000000E+00  0.00000000E+00
  0.00000000E+00  0.00000000E+00  0.00000000E+00
  0.00000000E+00  0.00000000E+00  0.00000000E+00
  0.00000000E+00  0.00000000E+00  0.00000000E+00
  0.00000000E+00  0.00000000E+00  0.00000000E+00
  0.00000000E+00  0.00000000E+00  0.00000000E+00
  0.00000000E+00  0.00000000E+00  0.00000000E+00
  0.00000000E+00  0.00000000E+00  0.00000000E+00
  0.00000000E+00  0.00000000E+00  0.00000000E+00
  0.00000000E+00  0.00000000E+00  0.00000000E+00
  0.00000000E+00  0.00000000E+00  0.00000000E+00
  0.00000000E+00  0.00000000E+00  0.00000000E+00
  0.00000000E+00  0.00000000E+00  0.00000000E+00
  0.00000000E+00  0.00000000E+00  0.00000000E+00
  0.00000000E+00  0.00000000E+00  0.00000000E+00
  0.00000000E+00  0.00000000E+00  0.00000000E+00
  0.00000000E+00  0.00000000E+00  0.00000000E+00
  0.00000000E+00  0.00000000E+00  0.00000000E+00
  0.00000000E+00  0.00000000E+00  0.00000000E+00
  0.00000000E+00  0.00000000E+00  0.00000000E+00
  0.00000000E+00  0.00000000E+00  0.00000000E+00
  0.00000000E+00  0.00000000E+00  0.00000000E+00
  0.00000000E+00  0.00000000E+00  0.00000000E+00
  0.00000000E+00  0.00000000E+00  0.00000000E+00
  0.00000000E+00  0.00000000E+00  0.00000000E+00
  0.00000000E+00  0.00000000E+00  0.00000000E+00
  0.00000000E+00  0.00000000E+00  0.00000000E+00
  0.00000000E+00  0.00000000E+00  0.00000000E+00
  0.00000000E+00  0.00000000E+00  0.00000000E+00
  0.00000000E+00  0.00000000E+00  0.00000000E+00
  0.00000000E+00  0.00000000E+00  0.00000000E+00
  0.00000000E+00  0.00000000E+00  0.00000000E+00
  0.00000000E+00  0.00000000E+00  0.00000000E+00
  0.00000000E+00  0.00000000E+00  0.00000000E+00
  0.00000000E+00  0.00000000E+00  0.00000000E+00
  0.00000000E+00  0.00000000E+00  0.00000000E+00
  0.00000000E+00  0.00000000E+00  0.00000000E+00
  0.00000000E+00  0.00000000E+00  0.00000000E+00
  0.00000000E+00  0.00000000E+00  0.00000000E+00
  0.00000000E+00  0.00000000E+00  0.00000000E+00
  0.00000000E+00  0.00000000E+00  0.00000000E+00
  0.00000000E+00  0.00000000E+00  0.00000000E+00
  0.00000000E+00  0.00000000E+00  0.00000000E+00
  0.00000000E+00  0.00000000E+00  0.00000000E+00
  0.00000000E+00  0.00000000E+00  0.00000000E+00
  0.00000000E+00  0.00000000E+00  0.00000000E+00
  0.00000000E+00  0.00000000E+00  0.00000000E+00
  0.00000000E+00  0.00000000E+00  0.00000000E+00
  0.00000000E+00  0.00000000E+00  0.00000000E+00
  0.00000000E+00  0.00000000E+00  0.00000000E+00
  0.00000000E+00  0.00000000E+00  0.00000000E+00
  0.00000000E+00  0.00000000E+00  0.00000000E+00
  0.00000000E+00  0.00000000E+00  0.00000000E+00
  0.00000000E+00  0.00000000E+00  0.00000000E+00
  0.00000000E+00  0.00000000E+00  0.00000000E+00
  0.00000000E+00  0.00000000E+00  0.00000000E+00
  0.00000000E+00  0.00000000E+00  0.00000000E+00
