CONTCAR\(2)\(3)                         
   1.00000000000000     
    12.3312997818000003    0.0000000000000000    0.0000000000000000
     0.0001127485000000   12.8291997905000006    0.0000000000000000
     0.0005937186000000    0.0011528207000000   19.9943999824000009
   C    N    Fe   Ni   O 
    54     2     1     1     1
Direct
  0.0568375245495650  0.0550703831061604  0.0517017683514458
  0.1570744757234901  0.1097766291785362  0.0507097531549360
  0.1561964648436746  0.2206077088796352  0.0490798249962654
  0.0558895800560333  0.2764268369773131  0.0489714148717176
  0.2579714696528220  0.0545246926118685  0.0517492233188097
  0.3582984923692835  0.1103582258588133  0.0545455403458822
  0.3576341249600644  0.2225893216210876  0.0532816486337988
  0.2560194325478183  0.2758285295813433  0.0487144614451562
  0.4582700981823611  0.0538657630035400  0.0587821997020288
  0.5579168228613706  0.1119873098274163  0.0629915037509921
  0.5574645471419545  0.2249923043090159  0.0637555980343866
  0.4569648641858123  0.2819289481200787  0.0576478968574997
  0.6573599238582565  0.0525622501351199  0.0643519254123652
  0.7563929405290758  0.1100823916083616  0.0618357939558291
  0.7569063697400651  0.2225216487400695  0.0619691917010473
  0.6589078078394403  0.2821636862297980  0.0664584561346048
  0.8563845830909085  0.0547390786849898  0.0580223357807843
  0.9564947830509980  0.1101314859033951  0.0541811720518572
  0.9563774554264234  0.2212796166857421  0.0531454571066406
  0.8566157517509609  0.2774257834975086  0.0570480316888428
  0.0546242999131488  0.3878693602048560  0.0461757665032753
  0.1533437033150622  0.4429524869612151  0.0433740893740536
  0.1529657880461749  0.5545822962301835  0.0419289210035087
  0.0543000329804932  0.6106641393536406  0.0436126188437890
  0.2527747031809620  0.3864084451685613  0.0454355083393772
  0.3503410678825477  0.4422911763278034  0.0471995396943157
  0.3497864011576730  0.5541198932001746  0.0459570148019542
  0.2521906257639539  0.6106658754386859  0.0425121714971614
  0.7568748627835536  0.4450090453790883  0.0628551610796886
  0.8564844098032263  0.3890180056535790  0.0556294016742157
  0.9551577255332334  0.4444671634110656  0.0488103971355319
  0.9547790446575672  0.5555518469406030  0.0473971125023176
  0.8547614465041371  0.6114263656986793  0.0532729146991632
  0.0563633592978022  0.7221575009697847  0.0447165460434448
  0.1558977219245016  0.7775436601890006  0.0449683946785966
  0.1571829336671940  0.8886013244217323  0.0480726095482660
  0.0573366791256036  0.9442759877738214  0.0505066306686060
  0.2551877487654780  0.7213712617491319  0.0446584558350028
  0.3560372386483757  0.7742490345752879  0.0499642266122928
  0.3579966004665843  0.8861386606153708  0.0526499232771421
  0.2580280309310711  0.9430838435494914  0.0503735812341912
  0.4546665966327492  0.7140213902130655  0.0558130025497374
  0.5577677724386021  0.8808011362333870  0.0641996822676221
  0.4583020635015804  0.9409786026917970  0.0584563548637677
  0.7592684409916064  0.8847087549728244  0.0641103318195730
  0.6579531582909354  0.9395104995935160  0.0657498110198753
  0.8584605483019653  0.7246516627544418  0.0554805547658589
  0.9576581521736167  0.7784590370953250  0.0496496780712533
  0.9576906418308219  0.8892493094731114  0.0526950183295618
  0.8573600357038385  0.9431735522983113  0.0580961376643068
  0.4515073056503543  0.3933864258882188  0.0545296268027139
  0.7557031041960960  0.5582920506819480  0.0618908653579669
  0.5533497020380771  0.7695018478316339  0.0663457537127144
  0.4498824300791064  0.6026069271211490  0.0542205620958383
  0.6624078333594121  0.3894976605044785  0.0703296749902192
  0.7634509247314126  0.7765164811608586  0.0666368613753029
  0.6609688250284098  0.6714424146412089  0.0991541962120341
  0.5547844761164270  0.4967060461631282  0.0751695151374724
  0.6000859392262468  0.5831360503100286  0.1472081966233692
 
  0.00000000E+00  0.00000000E+00  0.00000000E+00
  0.00000000E+00  0.00000000E+00  0.00000000E+00
  0.00000000E+00  0.00000000E+00  0.00000000E+00
  0.00000000E+00  0.00000000E+00  0.00000000E+00
  0.00000000E+00  0.00000000E+00  0.00000000E+00
  0.00000000E+00  0.00000000E+00  0.00000000E+00
  0.00000000E+00  0.00000000E+00  0.00000000E+00
  0.00000000E+00  0.00000000E+00  0.00000000E+00
  0.00000000E+00  0.00000000E+00  0.00000000E+00
  0.00000000E+00  0.00000000E+00  0.00000000E+00
  0.00000000E+00  0.00000000E+00  0.00000000E+00
  0.00000000E+00  0.00000000E+00  0.00000000E+00
  0.00000000E+00  0.00000000E+00  0.00000000E+00
  0.00000000E+00  0.00000000E+00  0.00000000E+00
  0.00000000E+00  0.00000000E+00  0.00000000E+00
  0.00000000E+00  0.00000000E+00  0.00000000E+00
  0.00000000E+00  0.00000000E+00  0.00000000E+00
  0.00000000E+00  0.00000000E+00  0.00000000E+00
  0.00000000E+00  0.00000000E+00  0.00000000E+00
  0.00000000E+00  0.00000000E+00  0.00000000E+00
  0.00000000E+00  0.00000000E+00  0.00000000E+00
  0.00000000E+00  0.00000000E+00  0.00000000E+00
  0.00000000E+00  0.00000000E+00  0.00000000E+00
  0.00000000E+00  0.00000000E+00  0.00000000E+00
  0.00000000E+00  0.00000000E+00  0.00000000E+00
  0.00000000E+00  0.00000000E+00  0.00000000E+00
  0.00000000E+00  0.00000000E+00  0.00000000E+00
  0.00000000E+00  0.00000000E+00  0.00000000E+00
  0.00000000E+00  0.00000000E+00  0.00000000E+00
  0.00000000E+00  0.00000000E+00  0.00000000E+00
  0.00000000E+00  0.00000000E+00  0.00000000E+00
  0.00000000E+00  0.00000000E+00  0.00000000E+00
  0.00000000E+00  0.00000000E+00  0.00000000E+00
  0.00000000E+00  0.00000000E+00  0.00000000E+00
  0.00000000E+00  0.00000000E+00  0.00000000E+00
  0.00000000E+00  0.00000000E+00  0.00000000E+00
  0.00000000E+00  0.00000000E+00  0.00000000E+00
  0.00000000E+00  0.00000000E+00  0.00000000E+00
  0.00000000E+00  0.00000000E+00  0.00000000E+00
  0.00000000E+00  0.00000000E+00  0.00000000E+00
  0.00000000E+00  0.00000000E+00  0.00000000E+00
  0.00000000E+00  0.00000000E+00  0.00000000E+00
  0.00000000E+00  0.00000000E+00  0.00000000E+00
  0.00000000E+00  0.00000000E+00  0.00000000E+00
  0.00000000E+00  0.00000000E+00  0.00000000E+00
  0.00000000E+00  0.00000000E+00  0.00000000E+00
  0.00000000E+00  0.00000000E+00  0.00000000E+00
  0.00000000E+00  0.00000000E+00  0.00000000E+00
  0.00000000E+00  0.00000000E+00  0.00000000E+00
  0.00000000E+00  0.00000000E+00  0.00000000E+00
  0.00000000E+00  0.00000000E+00  0.00000000E+00
  0.00000000E+00  0.00000000E+00  0.00000000E+00
  0.00000000E+00  0.00000000E+00  0.00000000E+00
  0.00000000E+00  0.00000000E+00  0.00000000E+00
  0.00000000E+00  0.00000000E+00  0.00000000E+00
  0.00000000E+00  0.00000000E+00  0.00000000E+00
  0.00000000E+00  0.00000000E+00  0.00000000E+00
  0.00000000E+00  0.00000000E+00  0.00000000E+00
  0.00000000E+00  0.00000000E+00  0.00000000E+00
