POSCAR\(2)                              
   1.00000000000000     
    12.3312997818000003    0.0000000000000000    0.0000000000000000
     0.0001127485000000   12.8291997905000006    0.0000000000000000
     0.0005937186000000    0.0011528207000000   19.9943999824000009
   C    N    Fe   Ni   O    H 
    53     3     1     1     2     2
Direct
  0.0557837811435517  0.0490735710731115  0.0460356332949787
  0.1559909014500662  0.1036537606814004  0.0455325865327613
  0.1546943420710721  0.2144552864150523  0.0437546350193407
  0.0546791491682382  0.2707117493429634  0.0437339665336591
  0.2569740799261064  0.0484418122313374  0.0476417024334648
  0.3572170827406704  0.1044127342270036  0.0512517828164322
  0.3558760837945231  0.2166437667498424  0.0493956183640966
  0.2543217143419875  0.2695123496380866  0.0437610802885910
  0.4571446972519976  0.0485739232746102  0.0568533215039845
  0.5560665131483642  0.1074668825435672  0.0614225585195736
  0.5554532799879736  0.2211880857500834  0.0619390751178131
  0.4538838387306213  0.2767739995089323  0.0544400282305947
  0.6558368793650580  0.0477826782281539  0.0628597298010776
  0.7551779227381683  0.1049220231350149  0.0586891559153297
  0.7556976722067226  0.2172361026840421  0.0593154755807624
  0.6578508683258737  0.2774728378144329  0.0655951451771323
  0.8551633226396771  0.0494769551595177  0.0532399318641569
  0.9553194611603714  0.1046333018552839  0.0488093243339531
  0.9550131575341375  0.2157479607822034  0.0483088903773286
  0.8553706409732214  0.2721398747653341  0.0535930884120854
  0.0536818832092401  0.3820980732616159  0.0409016255724370
  0.1526306317852525  0.4371544450124814  0.0380714610691742
  0.1526381332209679  0.5485012142781730  0.0366748239886161
  0.0537597942276328  0.6047411094410082  0.0376067788184726
  0.2518367281665189  0.3798811984879480  0.0405845407975114
  0.3499112812155165  0.4342517314148209  0.0444010627427120
  0.3501400149582591  0.5463331743075679  0.0463185573567933
  0.2523928184978170  0.6036028451362048  0.0396668238675820
  0.7565647588457464  0.4402987033406299  0.0631384073796162
  0.8553001625442779  0.3837377269439234  0.0529228234436126
  0.9541449037156742  0.4388400843515888  0.0442155253210797
  0.9539701791464584  0.5497818344856906  0.0421659682843533
  0.8537666488588752  0.6052518027991645  0.0496074686476176
  0.0557850158917293  0.7162163766297616  0.0384857057172013
  0.1556247115935682  0.7711531203425468  0.0401765534773342
  0.1565950205487660  0.8823468054119216  0.0432105310025925
  0.0566338025636631  0.9382449298383322  0.0445503234720156
  0.2551674250614130  0.7144765693912161  0.0422989121384159
  0.3557544404065205  0.7676917945552773  0.0503779161817687
  0.3572356646531593  0.8799933157370444  0.0515627660085538
  0.2573767424590261  0.9368882781648248  0.0469858993013470
  0.4535413804745866  0.7075834522020393  0.0612416113278661
  0.5561522487599772  0.8759162104122162  0.0661099754584444
  0.4572908425994311  0.9353588761808327  0.0579279438173807
  0.7588593116180505  0.8798142413636127  0.0609451255269029
  0.6566276459709328  0.9345712821349831  0.0654732114464953
  0.8576149166089333  0.7189189875989843  0.0498603680712729
  0.9567663018434349  0.7728287382425501  0.0428617348786539
  0.9566801736830720  0.8834412283504486  0.0461857473682929
  0.8564419083943561  0.9379620119624836  0.0526675789399530
  0.4483470683467705  0.5951430126426724  0.0611373725896493
  0.7544414733727576  0.5536810597341322  0.0614355160506305
  0.5520496152518884  0.7642568848896508  0.0729940122217288
  0.4476862597351847  0.3851662302785785  0.0514056287238114
  0.6621414904109854  0.3837452033821764  0.0722335838082348
  0.7637637113968765  0.7718668581605378  0.0638045423019994
  0.6649610377968760  0.6806388123586263  0.1097760696570936
  0.5485741897157866  0.4858989979395815  0.0797127849008483
  0.5987241595304461  0.5654613956051425  0.1558132680391837
  0.6735563959731186  0.7521449989359508  0.1879368816227094
  0.6884583826576295  0.8266544205494077  0.1828741446613719
  0.5387752635904004  0.5914423128836807  0.1830357018815147
 
  0.00000000E+00  0.00000000E+00  0.00000000E+00
  0.00000000E+00  0.00000000E+00  0.00000000E+00
  0.00000000E+00  0.00000000E+00  0.00000000E+00
  0.00000000E+00  0.00000000E+00  0.00000000E+00
  0.00000000E+00  0.00000000E+00  0.00000000E+00
  0.00000000E+00  0.00000000E+00  0.00000000E+00
  0.00000000E+00  0.00000000E+00  0.00000000E+00
  0.00000000E+00  0.00000000E+00  0.00000000E+00
  0.00000000E+00  0.00000000E+00  0.00000000E+00
  0.00000000E+00  0.00000000E+00  0.00000000E+00
  0.00000000E+00  0.00000000E+00  0.00000000E+00
  0.00000000E+00  0.00000000E+00  0.00000000E+00
  0.00000000E+00  0.00000000E+00  0.00000000E+00
  0.00000000E+00  0.00000000E+00  0.00000000E+00
  0.00000000E+00  0.00000000E+00  0.00000000E+00
  0.00000000E+00  0.00000000E+00  0.00000000E+00
  0.00000000E+00  0.00000000E+00  0.00000000E+00
  0.00000000E+00  0.00000000E+00  0.00000000E+00
  0.00000000E+00  0.00000000E+00  0.00000000E+00
  0.00000000E+00  0.00000000E+00  0.00000000E+00
  0.00000000E+00  0.00000000E+00  0.00000000E+00
  0.00000000E+00  0.00000000E+00  0.00000000E+00
  0.00000000E+00  0.00000000E+00  0.00000000E+00
  0.00000000E+00  0.00000000E+00  0.00000000E+00
  0.00000000E+00  0.00000000E+00  0.00000000E+00
  0.00000000E+00  0.00000000E+00  0.00000000E+00
  0.00000000E+00  0.00000000E+00  0.00000000E+00
  0.00000000E+00  0.00000000E+00  0.00000000E+00
  0.00000000E+00  0.00000000E+00  0.00000000E+00
  0.00000000E+00  0.00000000E+00  0.00000000E+00
  0.00000000E+00  0.00000000E+00  0.00000000E+00
  0.00000000E+00  0.00000000E+00  0.00000000E+00
  0.00000000E+00  0.00000000E+00  0.00000000E+00
  0.00000000E+00  0.00000000E+00  0.00000000E+00
  0.00000000E+00  0.00000000E+00  0.00000000E+00
  0.00000000E+00  0.00000000E+00  0.00000000E+00
  0.00000000E+00  0.00000000E+00  0.00000000E+00
  0.00000000E+00  0.00000000E+00  0.00000000E+00
  0.00000000E+00  0.00000000E+00  0.00000000E+00
  0.00000000E+00  0.00000000E+00  0.00000000E+00
  0.00000000E+00  0.00000000E+00  0.00000000E+00
  0.00000000E+00  0.00000000E+00  0.00000000E+00
  0.00000000E+00  0.00000000E+00  0.00000000E+00
  0.00000000E+00  0.00000000E+00  0.00000000E+00
  0.00000000E+00  0.00000000E+00  0.00000000E+00
  0.00000000E+00  0.00000000E+00  0.00000000E+00
  0.00000000E+00  0.00000000E+00  0.00000000E+00
  0.00000000E+00  0.00000000E+00  0.00000000E+00
  0.00000000E+00  0.00000000E+00  0.00000000E+00
  0.00000000E+00  0.00000000E+00  0.00000000E+00
  0.00000000E+00  0.00000000E+00  0.00000000E+00
  0.00000000E+00  0.00000000E+00  0.00000000E+00
  0.00000000E+00  0.00000000E+00  0.00000000E+00
  0.00000000E+00  0.00000000E+00  0.00000000E+00
  0.00000000E+00  0.00000000E+00  0.00000000E+00
  0.00000000E+00  0.00000000E+00  0.00000000E+00
  0.00000000E+00  0.00000000E+00  0.00000000E+00
  0.00000000E+00  0.00000000E+00  0.00000000E+00
  0.00000000E+00  0.00000000E+00  0.00000000E+00
  0.00000000E+00  0.00000000E+00  0.00000000E+00
  0.00000000E+00  0.00000000E+00  0.00000000E+00
  0.00000000E+00  0.00000000E+00  0.00000000E+00
