POSCAR                                  
   1.00000000000000     
    12.3312997818000003    0.0000000000000000    0.0000000000000000
     0.0001127485000000   12.8291997905000006    0.0000000000000000
     0.0005937186000000    0.0011528207000000   19.9943999824000009
   C    N    Fe   Ni   O 
    53     3     1     1     1
Direct
  0.0563594970701563  0.0551197849405158  0.0508034481401485
  0.1566281188014319  0.1106021865250679  0.0499347674497578
  0.1567428969141971  0.2214239016877920  0.0484555818287312
  0.0563445328094914  0.2764635079140476  0.0486501291893842
  0.2572338627910783  0.0556885697521936  0.0512490920473169
  0.3577040556327433  0.1115282445521505  0.0543487598218234
  0.3579064285795797  0.2234489376864985  0.0529715594462414
  0.2568012639788346  0.2770480241303316  0.0481311312185529
  0.4574399234393777  0.0553631789528875  0.0590245925374141
  0.5576723764872153  0.1119083067979837  0.0638995348108080
  0.5578308258876998  0.2250284363386754  0.0649675024161258
  0.4576760366875375  0.2820160520168056  0.0578594592943898
  0.6563944350950031  0.0513748760010934  0.0651555744172079
  0.7556941915358222  0.1091030526998964  0.0624221506800899
  0.7570927661820519  0.2217958635398405  0.0631728218809602
  0.6594319508398536  0.2818089077614214  0.0685921460575912
  0.8555672693519311  0.0536873161716518  0.0577359069852032
  0.9559083525708896  0.1095615537399542  0.0537185634604797
  0.9567155228591853  0.2207917572504598  0.0530354645657549
  0.8570845870210224  0.2766088636570224  0.0576972189245684
  0.0559660429487199  0.3878248070681916  0.0460384996332882
  0.1549336438709010  0.4434172307613289  0.0432929825490133
  0.1552265469923635  0.5549579431660056  0.0420383468485056
  0.0562367827170812  0.6105163478039104  0.0428751089255263
  0.2547443988830947  0.3879147549822568  0.0451576751631032
  0.3529327600608295  0.4441695895503727  0.0472229649386263
  0.3535555485539139  0.5567840057516519  0.0473824088172676
  0.2542255460010988  0.6116235249812124  0.0435888747797906
  0.7589638493584936  0.4442604040302760  0.0659614053322259
  0.8576994197000013  0.3880685656431107  0.0565074182760543
  0.9564904088310655  0.4436776808624158  0.0488226166867856
  0.9569978138614305  0.5547837090129326  0.0467817448194075
  0.8579166009926438  0.6101097106245376  0.0534266111499840
  0.0568690102454108  0.7218782771972861  0.0439564210563202
  0.1556863856994092  0.7780468036471470  0.0445549257501513
  0.1561878001842547  0.8890521892612651  0.0473691122617436
  0.0562833127451918  0.9443295512479446  0.0493309406549160
  0.2549907880735250  0.7222318195629857  0.0451711213377035
  0.3544119575747401  0.7768395201760119  0.0508976578530661
  0.3558264336176641  0.8882014071413303  0.0530227849121869
  0.2563316397744200  0.9444813585578277  0.0501004823640429
  0.4529942489967764  0.7196343205340869  0.0585849464334782
  0.5531898738606058  0.8820432888657846  0.0653549250347147
  0.4559435544029001  0.9430940863230000  0.0588216369343871
  0.7577019028226266  0.8820678491202639  0.0624932125510671
  0.6560552728619724  0.9376126691883181  0.0660409025791857
  0.8594086510007448  0.7230011118038543  0.0536321113036748
  0.9577597741810918  0.7778586998512469  0.0482295455372318
  0.9567639473071589  0.8886468678041646  0.0511253290549671
  0.8558886000655496  0.9418310573776613  0.0569585499909365
  0.4531592124141013  0.3934851797112910  0.0543830463631707
  0.4532794002903532  0.6074735054552184  0.0565284341820661
  0.7594986306872189  0.5572536367114377  0.0656944961824603
  0.6634260558014371  0.3891693759734517  0.0740418455010727
  0.5478283535128754  0.7755777566936636  0.0688770992922378
  0.7628508773854764  0.7737309103910438  0.0624188596007487
  0.6561463542516751  0.6642377313462668  0.0888194301711415
  0.5552209676494378  0.4937431220450041  0.0795666413536737
  0.6028187922866752  0.5829582206579706  0.1482534756515233
 
  0.00000000E+00  0.00000000E+00  0.00000000E+00
  0.00000000E+00  0.00000000E+00  0.00000000E+00
  0.00000000E+00  0.00000000E+00  0.00000000E+00
  0.00000000E+00  0.00000000E+00  0.00000000E+00
  0.00000000E+00  0.00000000E+00  0.00000000E+00
  0.00000000E+00  0.00000000E+00  0.00000000E+00
  0.00000000E+00  0.00000000E+00  0.00000000E+00
  0.00000000E+00  0.00000000E+00  0.00000000E+00
  0.00000000E+00  0.00000000E+00  0.00000000E+00
  0.00000000E+00  0.00000000E+00  0.00000000E+00
  0.00000000E+00  0.00000000E+00  0.00000000E+00
  0.00000000E+00  0.00000000E+00  0.00000000E+00
  0.00000000E+00  0.00000000E+00  0.00000000E+00
  0.00000000E+00  0.00000000E+00  0.00000000E+00
  0.00000000E+00  0.00000000E+00  0.00000000E+00
  0.00000000E+00  0.00000000E+00  0.00000000E+00
  0.00000000E+00  0.00000000E+00  0.00000000E+00
  0.00000000E+00  0.00000000E+00  0.00000000E+00
  0.00000000E+00  0.00000000E+00  0.00000000E+00
  0.00000000E+00  0.00000000E+00  0.00000000E+00
  0.00000000E+00  0.00000000E+00  0.00000000E+00
  0.00000000E+00  0.00000000E+00  0.00000000E+00
  0.00000000E+00  0.00000000E+00  0.00000000E+00
  0.00000000E+00  0.00000000E+00  0.00000000E+00
  0.00000000E+00  0.00000000E+00  0.00000000E+00
  0.00000000E+00  0.00000000E+00  0.00000000E+00
  0.00000000E+00  0.00000000E+00  0.00000000E+00
  0.00000000E+00  0.00000000E+00  0.00000000E+00
  0.00000000E+00  0.00000000E+00  0.00000000E+00
  0.00000000E+00  0.00000000E+00  0.00000000E+00
  0.00000000E+00  0.00000000E+00  0.00000000E+00
  0.00000000E+00  0.00000000E+00  0.00000000E+00
  0.00000000E+00  0.00000000E+00  0.00000000E+00
  0.00000000E+00  0.00000000E+00  0.00000000E+00
  0.00000000E+00  0.00000000E+00  0.00000000E+00
  0.00000000E+00  0.00000000E+00  0.00000000E+00
  0.00000000E+00  0.00000000E+00  0.00000000E+00
  0.00000000E+00  0.00000000E+00  0.00000000E+00
  0.00000000E+00  0.00000000E+00  0.00000000E+00
  0.00000000E+00  0.00000000E+00  0.00000000E+00
  0.00000000E+00  0.00000000E+00  0.00000000E+00
  0.00000000E+00  0.00000000E+00  0.00000000E+00
  0.00000000E+00  0.00000000E+00  0.00000000E+00
  0.00000000E+00  0.00000000E+00  0.00000000E+00
  0.00000000E+00  0.00000000E+00  0.00000000E+00
  0.00000000E+00  0.00000000E+00  0.00000000E+00
  0.00000000E+00  0.00000000E+00  0.00000000E+00
  0.00000000E+00  0.00000000E+00  0.00000000E+00
  0.00000000E+00  0.00000000E+00  0.00000000E+00
  0.00000000E+00  0.00000000E+00  0.00000000E+00
  0.00000000E+00  0.00000000E+00  0.00000000E+00
  0.00000000E+00  0.00000000E+00  0.00000000E+00
  0.00000000E+00  0.00000000E+00  0.00000000E+00
  0.00000000E+00  0.00000000E+00  0.00000000E+00
  0.00000000E+00  0.00000000E+00  0.00000000E+00
  0.00000000E+00  0.00000000E+00  0.00000000E+00
  0.00000000E+00  0.00000000E+00  0.00000000E+00
  0.00000000E+00  0.00000000E+00  0.00000000E+00
  0.00000000E+00  0.00000000E+00  0.00000000E+00
