12                                      
   1.00000000000000     
    12.3312997818000003    0.0000000000000000    0.0000000000000000
     0.0001127485000000   12.8291997905000006    0.0000000000000000
     0.0005937186000000    0.0011528207000000   19.9943999824000009
   C    N    Fe   Ni   O    H 
    54     2     1     1     1     1
Direct
  0.0563727453166063  0.0551481424286420  0.0505190307220904
  0.1566751009488609  0.1103099124121347  0.0508352227786246
  0.1566314590171235  0.2211773283738574  0.0494171686962510
  0.0566768337817854  0.2763330617778734  0.0479301610055052
  0.2568840607997850  0.0554308159494952  0.0533054872696724
  0.3570234104010355  0.1114020636317707  0.0568030805587677
  0.3567885635762881  0.2234322476826723  0.0559664701422321
  0.2563030613329442  0.2769738378567629  0.0509212124949315
  0.4563580297970677  0.0552305256658530  0.0609388742278131
  0.5555955476526367  0.1129649664485063  0.0637079832830807
  0.5558130763190372  0.2252241998594135  0.0646493985090059
  0.4555041826240134  0.2823616206279333  0.0605491259816193
  0.6554659585235266  0.0540334678979745  0.0633269611057693
  0.7556683584078566  0.1106287125636577  0.0592779008101223
  0.7563866844819050  0.2225061358339941  0.0593578166516203
  0.6571575672832076  0.2813728827637786  0.0657153831003867
  0.8555085436458065  0.0546200543944803  0.0551314046121825
  0.9559572956361191  0.1100923980800202  0.0518728819849748
  0.9564231088635263  0.2211146020123370  0.0507488101037873
  0.8567767560177286  0.2770633915433647  0.0537975702971849
  0.0575962355821375  0.3873574645486341  0.0455323475091795
  0.1566012685477080  0.4433868708173725  0.0451498003128979
  0.1564508577308712  0.5545657623825190  0.0442834071007219
  0.0574870106336125  0.6103562882207976  0.0436082311744889
  0.2561658245023982  0.3880189654811968  0.0488969637772170
  0.3553629111857369  0.4428295708565353  0.0534374000084415
  0.3548185983312448  0.5563509215624256  0.0544682340857911
  0.2551246860703026  0.6105267553299565  0.0479969545265155
  0.7604764042935080  0.4462654718046748  0.0591911397465132
  0.8587343444695796  0.3881180295379041  0.0518413673945544
  0.9580699091424852  0.4430999591579949  0.0462272634861420
  0.9586980704984343  0.5540532311580791  0.0449185649890898
  0.8593628348272561  0.6093879595902618  0.0485163669729501
  0.0570517373298165  0.7220008672691466  0.0449271556351887
  0.1559327748659156  0.7777102036730665  0.0469369719548257
  0.1563620635036133  0.8890171102700061  0.0491362559244841
  0.0563350197855911  0.9443190662518171  0.0495269721514320
  0.2550798103197855  0.7216143121148865  0.0494011018436780
  0.3544419473615371  0.7758694996974658  0.0554938414445598
  0.3561139278574206  0.8877457872817519  0.0566055412129837
  0.2565323929599964  0.9440299537161697  0.0526654780485018
  0.4519809141542852  0.7169290651331968  0.0636113920688129
  0.5545255209295797  0.8837953516437160  0.0672244418639939
  0.4559178422496772  0.9430104739736637  0.0617251374353238
  0.7557440224351516  0.8853975500740746  0.0601749358544518
  0.6552914912885819  0.9420483935370891  0.0649198062728703
  0.8587779806769923  0.7223302820935413  0.0502040166485481
  0.9575034528699677  0.7780128288713811  0.0475118453471564
  0.9562198530422283  0.8888749654113629  0.0502078181319904
  0.8554255650649393  0.9430169094668450  0.0547276136254719
  0.6623609861166559  0.3909049658939851  0.0701670259042629
  0.7610860966543169  0.5570555695234601  0.0566661356703183
  0.5510627498385389  0.7729592001794000  0.0725484802629953
  0.7591378162402039  0.7743349850849853  0.0594454201696275
  0.4524271903393062  0.3910394710813835  0.0599192064857393
  0.4494619981623820  0.6077426587969327  0.0641725178895136
  0.6597327700917407  0.6694717274345606  0.0893467958674134
  0.5564537132577962  0.4900525836388701  0.0816231687691539
  0.6166375961066528  0.5729306271770069  0.1580064249333697
  0.5547133702552194  0.5996379214573896  0.1831545001632118
 
  0.00000000E+00  0.00000000E+00  0.00000000E+00
  0.00000000E+00  0.00000000E+00  0.00000000E+00
  0.00000000E+00  0.00000000E+00  0.00000000E+00
  0.00000000E+00  0.00000000E+00  0.00000000E+00
  0.00000000E+00  0.00000000E+00  0.00000000E+00
  0.00000000E+00  0.00000000E+00  0.00000000E+00
  0.00000000E+00  0.00000000E+00  0.00000000E+00
  0.00000000E+00  0.00000000E+00  0.00000000E+00
  0.00000000E+00  0.00000000E+00  0.00000000E+00
  0.00000000E+00  0.00000000E+00  0.00000000E+00
  0.00000000E+00  0.00000000E+00  0.00000000E+00
  0.00000000E+00  0.00000000E+00  0.00000000E+00
  0.00000000E+00  0.00000000E+00  0.00000000E+00
  0.00000000E+00  0.00000000E+00  0.00000000E+00
  0.00000000E+00  0.00000000E+00  0.00000000E+00
  0.00000000E+00  0.00000000E+00  0.00000000E+00
  0.00000000E+00  0.00000000E+00  0.00000000E+00
  0.00000000E+00  0.00000000E+00  0.00000000E+00
  0.00000000E+00  0.00000000E+00  0.00000000E+00
  0.00000000E+00  0.00000000E+00  0.00000000E+00
  0.00000000E+00  0.00000000E+00  0.00000000E+00
  0.00000000E+00  0.00000000E+00  0.00000000E+00
  0.00000000E+00  0.00000000E+00  0.00000000E+00
  0.00000000E+00  0.00000000E+00  0.00000000E+00
  0.00000000E+00  0.00000000E+00  0.00000000E+00
  0.00000000E+00  0.00000000E+00  0.00000000E+00
  0.00000000E+00  0.00000000E+00  0.00000000E+00
  0.00000000E+00  0.00000000E+00  0.00000000E+00
  0.00000000E+00  0.00000000E+00  0.00000000E+00
  0.00000000E+00  0.00000000E+00  0.00000000E+00
  0.00000000E+00  0.00000000E+00  0.00000000E+00
  0.00000000E+00  0.00000000E+00  0.00000000E+00
  0.00000000E+00  0.00000000E+00  0.00000000E+00
  0.00000000E+00  0.00000000E+00  0.00000000E+00
  0.00000000E+00  0.00000000E+00  0.00000000E+00
  0.00000000E+00  0.00000000E+00  0.00000000E+00
  0.00000000E+00  0.00000000E+00  0.00000000E+00
  0.00000000E+00  0.00000000E+00  0.00000000E+00
  0.00000000E+00  0.00000000E+00  0.00000000E+00
  0.00000000E+00  0.00000000E+00  0.00000000E+00
  0.00000000E+00  0.00000000E+00  0.00000000E+00
  0.00000000E+00  0.00000000E+00  0.00000000E+00
  0.00000000E+00  0.00000000E+00  0.00000000E+00
  0.00000000E+00  0.00000000E+00  0.00000000E+00
  0.00000000E+00  0.00000000E+00  0.00000000E+00
  0.00000000E+00  0.00000000E+00  0.00000000E+00
  0.00000000E+00  0.00000000E+00  0.00000000E+00
  0.00000000E+00  0.00000000E+00  0.00000000E+00
  0.00000000E+00  0.00000000E+00  0.00000000E+00
  0.00000000E+00  0.00000000E+00  0.00000000E+00
  0.00000000E+00  0.00000000E+00  0.00000000E+00
  0.00000000E+00  0.00000000E+00  0.00000000E+00
  0.00000000E+00  0.00000000E+00  0.00000000E+00
  0.00000000E+00  0.00000000E+00  0.00000000E+00
  0.00000000E+00  0.00000000E+00  0.00000000E+00
  0.00000000E+00  0.00000000E+00  0.00000000E+00
  0.00000000E+00  0.00000000E+00  0.00000000E+00
  0.00000000E+00  0.00000000E+00  0.00000000E+00
  0.00000000E+00  0.00000000E+00  0.00000000E+00
  0.00000000E+00  0.00000000E+00  0.00000000E+00
