1236                                    
   1.00000000000000     
    12.3312997818000003    0.0000000000000000    0.0000000000000000
     0.0001127485000000   12.8291997905000006    0.0000000000000000
     0.0005937186000000    0.0011528207000000   19.9943999824000009
   C    N    Fe   Ni   O 
    52     4     1     1     1
Direct
  0.0558927895486169  0.0549894393021052  0.0518272504388871
  0.1563596369013571  0.1104470359149500  0.0517451675747482
  0.1562700310015863  0.2213221004977957  0.0503045722105818
  0.0560405280675892  0.2762200670268163  0.0488938798004756
  0.2567875714784207  0.0558171327343705  0.0536900345521561
  0.3570452916947247  0.1116249201007119  0.0567163149750022
  0.3564920954589889  0.2236125656137504  0.0559806893502846
  0.2558460732507516  0.2772591362734013  0.0513954975221891
  0.4570652586088443  0.0557369582911268  0.0605379198197725
  0.5560287657717463  0.1136740239651663  0.0633222566485124
  0.5564318813048871  0.2280694980529121  0.0639757974181309
  0.4548676809765346  0.2836430551038934  0.0604939801590324
  0.6541879517894454  0.0530735600734008  0.0634099824446847
  0.7543014615527648  0.1101096353693479  0.0601164469660157
  0.7556524140761216  0.2227405464533865  0.0594934086864189
  0.6579658599794833  0.2840837289373369  0.0640834083326130
  0.8546518927331449  0.0541965229468871  0.0564815378591517
  0.9551598228058726  0.1096840461841528  0.0533211533089203
  0.9559217247183251  0.2208553132136730  0.0519088587576581
  0.8563686863745413  0.2768493979228266  0.0543631612498422
  0.0565415938502486  0.3871083789099903  0.0461104758226912
  0.1555575334776072  0.4434692119885443  0.0456023139836864
  0.1561418575686868  0.5544853332347836  0.0450032909763658
  0.0575003299306532  0.6103461819712410  0.0444565050776246
  0.2548906828723327  0.3884589460889040  0.0490628703995148
  0.3536558880549042  0.4437070823499286  0.0535133173971006
  0.3541772691372733  0.5566777692262544  0.0539528648437156
  0.2549505655218843  0.6105784604881759  0.0485346101899129
  0.7592614546773954  0.4453144985568649  0.0568669397979899
  0.8579048171773750  0.3879903174183090  0.0516590862966433
  0.9574288953160300  0.4428818235634556  0.0465442194066473
  0.9589026951717710  0.5537581629407600  0.0454780902963138
  0.8600919704070615  0.6088092942650455  0.0485344183332821
  0.0574451684062386  0.7218119559603466  0.0458785873618370
  0.1560553306095823  0.7777757575673515  0.0477840498451280
  0.1561498253383382  0.8890544653817598  0.0501710757151787
  0.0559470707261339  0.9442633569039147  0.0509180486431871
  0.2549179133885932  0.7216954077428636  0.0498559112397975
  0.3538075037326951  0.7764051014285800  0.0552398935059208
  0.3555480667319464  0.8881279385958761  0.0562160225977496
  0.2561810513650414  0.9442947209563122  0.0531068297119005
  0.4515635206531929  0.7182758339736596  0.0612799501625954
  0.5529906816125456  0.8818425102989645  0.0646942971758225
  0.4559766647476800  0.9425703514602547  0.0606168763625463
  0.7554147806462395  0.8834041221946602  0.0613282174535646
  0.6536497817429119  0.9390591492300157  0.0645682707474843
  0.8604192851019760  0.7213869429368996  0.0519082932079676
  0.9581867279044545  0.7776199202754233  0.0488026029239929
  0.9559400200797920  0.8885959038491474  0.0517075368262821
  0.8548186545226520  0.9423554596280077  0.0560830135009420
  0.7605591861462379  0.5566235185056866  0.0532609338272521
  0.7610373499799354  0.7727926307555844  0.0611336271669234
  0.4497970287531752  0.3914333405372645  0.0608772124585572
  0.4504970670659800  0.6094426261959521  0.0616004651952072
  0.6632028733004799  0.3919059233952441  0.0660802059024050
  0.5480741537242921  0.7716518497471291  0.0667670130557019
  0.6577540884940170  0.6644199799005469  0.0826685864537501
  0.5538085115300729  0.4939565015050051  0.0819980050099212
  0.6214448034388473  0.5783103790932904  0.1441341570517934
 
  0.00000000E+00  0.00000000E+00  0.00000000E+00
  0.00000000E+00  0.00000000E+00  0.00000000E+00
  0.00000000E+00  0.00000000E+00  0.00000000E+00
  0.00000000E+00  0.00000000E+00  0.00000000E+00
  0.00000000E+00  0.00000000E+00  0.00000000E+00
  0.00000000E+00  0.00000000E+00  0.00000000E+00
  0.00000000E+00  0.00000000E+00  0.00000000E+00
  0.00000000E+00  0.00000000E+00  0.00000000E+00
  0.00000000E+00  0.00000000E+00  0.00000000E+00
  0.00000000E+00  0.00000000E+00  0.00000000E+00
  0.00000000E+00  0.00000000E+00  0.00000000E+00
  0.00000000E+00  0.00000000E+00  0.00000000E+00
  0.00000000E+00  0.00000000E+00  0.00000000E+00
  0.00000000E+00  0.00000000E+00  0.00000000E+00
  0.00000000E+00  0.00000000E+00  0.00000000E+00
  0.00000000E+00  0.00000000E+00  0.00000000E+00
  0.00000000E+00  0.00000000E+00  0.00000000E+00
  0.00000000E+00  0.00000000E+00  0.00000000E+00
  0.00000000E+00  0.00000000E+00  0.00000000E+00
  0.00000000E+00  0.00000000E+00  0.00000000E+00
  0.00000000E+00  0.00000000E+00  0.00000000E+00
  0.00000000E+00  0.00000000E+00  0.00000000E+00
  0.00000000E+00  0.00000000E+00  0.00000000E+00
  0.00000000E+00  0.00000000E+00  0.00000000E+00
  0.00000000E+00  0.00000000E+00  0.00000000E+00
  0.00000000E+00  0.00000000E+00  0.00000000E+00
  0.00000000E+00  0.00000000E+00  0.00000000E+00
  0.00000000E+00  0.00000000E+00  0.00000000E+00
  0.00000000E+00  0.00000000E+00  0.00000000E+00
  0.00000000E+00  0.00000000E+00  0.00000000E+00
  0.00000000E+00  0.00000000E+00  0.00000000E+00
  0.00000000E+00  0.00000000E+00  0.00000000E+00
  0.00000000E+00  0.00000000E+00  0.00000000E+00
  0.00000000E+00  0.00000000E+00  0.00000000E+00
  0.00000000E+00  0.00000000E+00  0.00000000E+00
  0.00000000E+00  0.00000000E+00  0.00000000E+00
  0.00000000E+00  0.00000000E+00  0.00000000E+00
  0.00000000E+00  0.00000000E+00  0.00000000E+00
  0.00000000E+00  0.00000000E+00  0.00000000E+00
  0.00000000E+00  0.00000000E+00  0.00000000E+00
  0.00000000E+00  0.00000000E+00  0.00000000E+00
  0.00000000E+00  0.00000000E+00  0.00000000E+00
  0.00000000E+00  0.00000000E+00  0.00000000E+00
  0.00000000E+00  0.00000000E+00  0.00000000E+00
  0.00000000E+00  0.00000000E+00  0.00000000E+00
  0.00000000E+00  0.00000000E+00  0.00000000E+00
  0.00000000E+00  0.00000000E+00  0.00000000E+00
  0.00000000E+00  0.00000000E+00  0.00000000E+00
  0.00000000E+00  0.00000000E+00  0.00000000E+00
  0.00000000E+00  0.00000000E+00  0.00000000E+00
  0.00000000E+00  0.00000000E+00  0.00000000E+00
  0.00000000E+00  0.00000000E+00  0.00000000E+00
  0.00000000E+00  0.00000000E+00  0.00000000E+00
  0.00000000E+00  0.00000000E+00  0.00000000E+00
  0.00000000E+00  0.00000000E+00  0.00000000E+00
  0.00000000E+00  0.00000000E+00  0.00000000E+00
  0.00000000E+00  0.00000000E+00  0.00000000E+00
  0.00000000E+00  0.00000000E+00  0.00000000E+00
  0.00000000E+00  0.00000000E+00  0.00000000E+00
