an23456                                 
   1.00000000000000     
    12.3312997818000003    0.0000000000000000    0.0000000000000000
     0.0001127485000000   12.8291997905000006    0.0000000000000000
     0.0005937186000000    0.0011528207000000   19.9943999824000009
   C    N    Fe   Ni
    52     4     1     1
Direct
  0.0557629848917183  0.0546476868304981  0.0557759694913437
  0.1559108690924992  0.1102982622630108  0.0557777233767106
  0.1559637623209824  0.2208528707146361  0.0557575322377371
  0.0561833145437593  0.2761973271973576  0.0557461465172338
  0.2563875750775239  0.0557052384396989  0.0557926248890347
  0.3568356336510299  0.1110687993112747  0.0557671917186420
  0.3564992230726616  0.2229064074324802  0.0557402492489737
  0.2557226355265054  0.2764957011584172  0.0557516257844973
  0.4567852811952370  0.0551214219786077  0.0557416823933665
  0.5564821996891615  0.1125200735938170  0.0556963192842031
  0.5567758195396181  0.2257317923925183  0.0556680631540289
  0.4551044010977829  0.2823808707230303  0.0556833506475221
  0.6555343401915387  0.0519717818066517  0.0556781700246258
  0.7549976094499996  0.1096176290183062  0.0556998549814468
  0.7559050725335956  0.2222180540703151  0.0557025796694555
  0.6578584886400030  0.2827456264917185  0.0556580629096644
  0.8549723188267194  0.0533657182569882  0.0557200507117966
  0.9554055793454627  0.1093681643027513  0.0557489064887554
  0.9561858953427927  0.2208289768769725  0.0557405538014094
  0.8566932866152875  0.2770730228523086  0.0557222473199026
  0.0576571980028805  0.3874750265985958  0.0557509965292337
  0.1562337961092209  0.4436341224959151  0.0557613377346261
  0.1562850392598432  0.5545191304422109  0.0557701361364464
  0.0573976092657153  0.6105907641678062  0.0557643190414094
  0.2553319980937752  0.3874436433052276  0.0557446709958905
  0.3541124669120416  0.4420346630058887  0.0557133151271741
  0.3557196870088214  0.5556260328916860  0.0557311435407656
  0.2554081704382741  0.6102861034545444  0.0557649301542942
  0.7627586091848584  0.4469380611080181  0.0556450239607562
  0.8601953123390196  0.3885013991604658  0.0556971698740825
  0.9591609314500383  0.4434191336246383  0.0557254517675448
  0.9586856622244094  0.5546600992333638  0.0557264721840470
  0.8592361035855420  0.6095821210964005  0.0556748339685220
  0.0569128001396018  0.7214391402253876  0.0557790339025219
  0.1553776121053972  0.7775608183797957  0.0558004283070928
  0.1557396058549321  0.8885602913604629  0.0558083810113084
  0.0557964055555197  0.9437481376623259  0.0557884446521560
  0.2542609471373151  0.7214315706405968  0.0557783672625483
  0.3523562679774246  0.7778963211518812  0.0557457777952760
  0.3546625800312299  0.8889393537705214  0.0557695342027167
  0.2553920445868348  0.9446748321395712  0.0558053300516486
  0.4503800579764931  0.7215178088363218  0.0556843968585804
  0.5534728890909740  0.8822834725007032  0.0556635697256104
  0.4554892957456078  0.9432690308060979  0.0557337697089940
  0.7569619192662191  0.8812674056093189  0.0556475843591060
  0.6554734641264107  0.9378082945991004  0.0556476009845632
  0.8587615448450321  0.7221521651976648  0.0556781404076008
  0.9576201912605209  0.7768723226084510  0.0557428032342740
  0.9564196621278088  0.8879336473190637  0.0557534993648867
  0.8553967096626200  0.9414917600149616  0.0557073935531359
  0.4552401342603783  0.6103352762496130  0.0556888630073897
  0.6627960906753878  0.3941045707094736  0.0556277574432875
  0.4507153190408701  0.3901466153672515  0.0556691365528366
  0.7627325434759592  0.5564954710762712  0.0556248794522478
  0.5474446130770579  0.7753937716619250  0.0556344512436601
  0.7612542731822933  0.7730666223221936  0.0556143120167429
  0.6463933451612939  0.6565232023816610  0.0556205466775175
  0.5601308521185149  0.4978023191132475  0.0556373045591210
 
  0.00000000E+00  0.00000000E+00  0.00000000E+00
  0.00000000E+00  0.00000000E+00  0.00000000E+00
  0.00000000E+00  0.00000000E+00  0.00000000E+00
  0.00000000E+00  0.00000000E+00  0.00000000E+00
  0.00000000E+00  0.00000000E+00  0.00000000E+00
  0.00000000E+00  0.00000000E+00  0.00000000E+00
  0.00000000E+00  0.00000000E+00  0.00000000E+00
  0.00000000E+00  0.00000000E+00  0.00000000E+00
  0.00000000E+00  0.00000000E+00  0.00000000E+00
  0.00000000E+00  0.00000000E+00  0.00000000E+00
  0.00000000E+00  0.00000000E+00  0.00000000E+00
  0.00000000E+00  0.00000000E+00  0.00000000E+00
  0.00000000E+00  0.00000000E+00  0.00000000E+00
  0.00000000E+00  0.00000000E+00  0.00000000E+00
  0.00000000E+00  0.00000000E+00  0.00000000E+00
  0.00000000E+00  0.00000000E+00  0.00000000E+00
  0.00000000E+00  0.00000000E+00  0.00000000E+00
  0.00000000E+00  0.00000000E+00  0.00000000E+00
  0.00000000E+00  0.00000000E+00  0.00000000E+00
  0.00000000E+00  0.00000000E+00  0.00000000E+00
  0.00000000E+00  0.00000000E+00  0.00000000E+00
  0.00000000E+00  0.00000000E+00  0.00000000E+00
  0.00000000E+00  0.00000000E+00  0.00000000E+00
  0.00000000E+00  0.00000000E+00  0.00000000E+00
  0.00000000E+00  0.00000000E+00  0.00000000E+00
  0.00000000E+00  0.00000000E+00  0.00000000E+00
  0.00000000E+00  0.00000000E+00  0.00000000E+00
  0.00000000E+00  0.00000000E+00  0.00000000E+00
  0.00000000E+00  0.00000000E+00  0.00000000E+00
  0.00000000E+00  0.00000000E+00  0.00000000E+00
  0.00000000E+00  0.00000000E+00  0.00000000E+00
  0.00000000E+00  0.00000000E+00  0.00000000E+00
  0.00000000E+00  0.00000000E+00  0.00000000E+00
  0.00000000E+00  0.00000000E+00  0.00000000E+00
  0.00000000E+00  0.00000000E+00  0.00000000E+00
  0.00000000E+00  0.00000000E+00  0.00000000E+00
  0.00000000E+00  0.00000000E+00  0.00000000E+00
  0.00000000E+00  0.00000000E+00  0.00000000E+00
  0.00000000E+00  0.00000000E+00  0.00000000E+00
  0.00000000E+00  0.00000000E+00  0.00000000E+00
  0.00000000E+00  0.00000000E+00  0.00000000E+00
  0.00000000E+00  0.00000000E+00  0.00000000E+00
  0.00000000E+00  0.00000000E+00  0.00000000E+00
  0.00000000E+00  0.00000000E+00  0.00000000E+00
  0.00000000E+00  0.00000000E+00  0.00000000E+00
  0.00000000E+00  0.00000000E+00  0.00000000E+00
  0.00000000E+00  0.00000000E+00  0.00000000E+00
  0.00000000E+00  0.00000000E+00  0.00000000E+00
  0.00000000E+00  0.00000000E+00  0.00000000E+00
  0.00000000E+00  0.00000000E+00  0.00000000E+00
  0.00000000E+00  0.00000000E+00  0.00000000E+00
  0.00000000E+00  0.00000000E+00  0.00000000E+00
  0.00000000E+00  0.00000000E+00  0.00000000E+00
  0.00000000E+00  0.00000000E+00  0.00000000E+00
  0.00000000E+00  0.00000000E+00  0.00000000E+00
  0.00000000E+00  0.00000000E+00  0.00000000E+00
  0.00000000E+00  0.00000000E+00  0.00000000E+00
  0.00000000E+00  0.00000000E+00  0.00000000E+00
