123456                                  
   1.00000000000000     
    12.3312997818000003    0.0000000000000000    0.0000000000000000
     0.0001127485000000   12.8291997905000006    0.0000000000000000
     0.0005937186000000    0.0011528207000000   19.9943999824000009
   C    N    Fe   Ni   O 
    50     6     1     1     1
Direct
  0.0558164743054652  0.0545486049915947  0.0521139934914311
  0.1564684422094172  0.1101710044908741  0.0517034796062754
  0.1563180702059298  0.2209569067319493  0.0499702355725868
  0.0560625506890220  0.2762005530936811  0.0492917113857914
  0.2570616527391065  0.0554456118388065  0.0534790756259752
  0.3575601382307128  0.1112083394097995  0.0562953573098299
  0.3568495792288366  0.2232057291507561  0.0550126163797981
  0.2561219131615033  0.2769209913886291  0.0502567201885981
  0.4578658835081639  0.0552649358470773  0.0602023753327420
  0.5573036118360603  0.1134092064136977  0.0633159507331604
  0.5576479469461504  0.2287273298294158  0.0640962653132928
  0.4551389329906220  0.2837130886236742  0.0594765082956211
  0.6551505747107207  0.0519372415363686  0.0635943908193998
  0.7545883330955739  0.1098922305842876  0.0610397841917820
  0.7558341615618017  0.2229942150785230  0.0613689754755671
  0.6592104568425317  0.2854581075752474  0.0656081204329321
  0.8547207501704978  0.0535304762836347  0.0573044241597559
  0.9552703127877523  0.1092742935833049  0.0541373706599450
  0.9559815147882820  0.2208112620606959  0.0531550566633240
  0.8567559855040259  0.2772213627605241  0.0566196148484368
  0.0566368195605953  0.3870774862635083  0.0462507035447881
  0.1557491754189292  0.4434418512614375  0.0441774890624812
  0.1557921610406122  0.5542222224531345  0.0432949916781026
  0.0571033099159530  0.6105864162819996  0.0434935145042762
  0.2549496469452281  0.3881915886912572  0.0471882698754664
  0.3538988914829303  0.4434316820507476  0.0508476509806835
  0.3540320129763452  0.5565254988773360  0.0507293064258937
  0.2547085696812461  0.6103843788181895  0.0461597924595691
  0.7615237927217774  0.4472715646827989  0.0613565264732496
  0.8590026844000977  0.3886075685024743  0.0548298162139368
  0.9580577850733477  0.4431797411294695  0.0482458554251921
  0.9583112644216755  0.5544365574955142  0.0463007603564265
  0.8592784182660445  0.6083140130939163  0.0515627038425430
  0.0567459540396292  0.7213383828274350  0.0448784734390695
  0.1558031102659599  0.7776785249410785  0.0467158046551103
  0.1562972669919001  0.8884873160342713  0.0496385662842021
  0.0559660785699909  0.9437145542911552  0.0507291770042268
  0.2545378149671416  0.7216249042913954  0.0482535071077202
  0.3535247881060524  0.7763731473057667  0.0544121292196542
  0.3557190136636135  0.8877924843492730  0.0559608323201451
  0.2564394271997035  0.9439358117403368  0.0528181547045673
  0.4509545531415422  0.7177360869012018  0.0603996441954987
  0.5532760606558539  0.8802744987343625  0.0648586064548826
  0.4566795889988501  0.9422156355295066  0.0604161682298008
  0.7569425711132914  0.8809135968450958  0.0605638017581285
  0.6547509864246387  0.9365382327100116  0.0642745522803081
  0.8586856128308826  0.7211184605858307  0.0518341541533499
  0.9574161799129132  0.7765142815592199  0.0482135157849710
  0.9562172581346058  0.8877866334894660  0.0514027076503061
  0.8552798238439100  0.9413897695645639  0.0563073627598250
  0.4498863586272176  0.3911114283518899  0.0587319536583457
  0.4501960004280982  0.6098336459091608  0.0579773316261526
  0.6653384339816063  0.3949706636081192  0.0687468829359996
  0.7633588780348791  0.5555857782177802  0.0595925390632160
  0.5475816723638217  0.7705043379901170  0.0680009770042382
  0.7617003329029923  0.7728180864266133  0.0595480241750361
  0.6567633302003123  0.6664150773818526  0.0839423334143923
  0.5525205881374978  0.4964385485481788  0.0808688520831257
  0.6081764260461345  0.5870180129919879  0.1445045507088241
 
  0.00000000E+00  0.00000000E+00  0.00000000E+00
  0.00000000E+00  0.00000000E+00  0.00000000E+00
  0.00000000E+00  0.00000000E+00  0.00000000E+00
  0.00000000E+00  0.00000000E+00  0.00000000E+00
  0.00000000E+00  0.00000000E+00  0.00000000E+00
  0.00000000E+00  0.00000000E+00  0.00000000E+00
  0.00000000E+00  0.00000000E+00  0.00000000E+00
  0.00000000E+00  0.00000000E+00  0.00000000E+00
  0.00000000E+00  0.00000000E+00  0.00000000E+00
  0.00000000E+00  0.00000000E+00  0.00000000E+00
  0.00000000E+00  0.00000000E+00  0.00000000E+00
  0.00000000E+00  0.00000000E+00  0.00000000E+00
  0.00000000E+00  0.00000000E+00  0.00000000E+00
  0.00000000E+00  0.00000000E+00  0.00000000E+00
  0.00000000E+00  0.00000000E+00  0.00000000E+00
  0.00000000E+00  0.00000000E+00  0.00000000E+00
  0.00000000E+00  0.00000000E+00  0.00000000E+00
  0.00000000E+00  0.00000000E+00  0.00000000E+00
  0.00000000E+00  0.00000000E+00  0.00000000E+00
  0.00000000E+00  0.00000000E+00  0.00000000E+00
  0.00000000E+00  0.00000000E+00  0.00000000E+00
  0.00000000E+00  0.00000000E+00  0.00000000E+00
  0.00000000E+00  0.00000000E+00  0.00000000E+00
  0.00000000E+00  0.00000000E+00  0.00000000E+00
  0.00000000E+00  0.00000000E+00  0.00000000E+00
  0.00000000E+00  0.00000000E+00  0.00000000E+00
  0.00000000E+00  0.00000000E+00  0.00000000E+00
  0.00000000E+00  0.00000000E+00  0.00000000E+00
  0.00000000E+00  0.00000000E+00  0.00000000E+00
  0.00000000E+00  0.00000000E+00  0.00000000E+00
  0.00000000E+00  0.00000000E+00  0.00000000E+00
  0.00000000E+00  0.00000000E+00  0.00000000E+00
  0.00000000E+00  0.00000000E+00  0.00000000E+00
  0.00000000E+00  0.00000000E+00  0.00000000E+00
  0.00000000E+00  0.00000000E+00  0.00000000E+00
  0.00000000E+00  0.00000000E+00  0.00000000E+00
  0.00000000E+00  0.00000000E+00  0.00000000E+00
  0.00000000E+00  0.00000000E+00  0.00000000E+00
  0.00000000E+00  0.00000000E+00  0.00000000E+00
  0.00000000E+00  0.00000000E+00  0.00000000E+00
  0.00000000E+00  0.00000000E+00  0.00000000E+00
  0.00000000E+00  0.00000000E+00  0.00000000E+00
  0.00000000E+00  0.00000000E+00  0.00000000E+00
  0.00000000E+00  0.00000000E+00  0.00000000E+00
  0.00000000E+00  0.00000000E+00  0.00000000E+00
  0.00000000E+00  0.00000000E+00  0.00000000E+00
  0.00000000E+00  0.00000000E+00  0.00000000E+00
  0.00000000E+00  0.00000000E+00  0.00000000E+00
  0.00000000E+00  0.00000000E+00  0.00000000E+00
  0.00000000E+00  0.00000000E+00  0.00000000E+00
  0.00000000E+00  0.00000000E+00  0.00000000E+00
  0.00000000E+00  0.00000000E+00  0.00000000E+00
  0.00000000E+00  0.00000000E+00  0.00000000E+00
  0.00000000E+00  0.00000000E+00  0.00000000E+00
  0.00000000E+00  0.00000000E+00  0.00000000E+00
  0.00000000E+00  0.00000000E+00  0.00000000E+00
  0.00000000E+00  0.00000000E+00  0.00000000E+00
  0.00000000E+00  0.00000000E+00  0.00000000E+00
  0.00000000E+00  0.00000000E+00  0.00000000E+00
