CONTCAR                                 
   1.00000000000000     
    12.3312997818000003    0.0000000000000000    0.0000000000000000
     0.0001127485000000   12.8291997905000006    0.0000000000000000
     0.0005937186000000    0.0011528207000000   19.9943999824000009
   C    N    Fe   Ni   O    H 
    52     4     1     1     2     2
Direct
  0.0549093604084541  0.0532342093024600  0.0457339807566014
  0.1554078604036548  0.1079868313427749  0.0455081516293357
  0.1547915848335616  0.2188961409495268  0.0445021271548794
  0.0545870668883149  0.2747078748500080  0.0450697719332622
  0.2560230755249884  0.0526486160749842  0.0471697964726140
  0.3563447959961175  0.1083189992597846  0.0508654739238901
  0.3555093329473796  0.2204359143416451  0.0495350917139683
  0.2546538356850185  0.2742976555600042  0.0445841587634099
  0.4561068557173767  0.0519486997135128  0.0559287960951434
  0.5551595988379554  0.1103378689994152  0.0605735340120726
  0.5550009871725496  0.2234486971027922  0.0616185768528560
  0.4541376467807754  0.2796925047053198  0.0543732330631219
  0.6549737807358125  0.0508301621429567  0.0616950277733981
  0.7542784926605295  0.1089144408258347  0.0582780259438469
  0.7545462797658092  0.2213479842183935  0.0599148624482833
  0.6558887423506399  0.2813035144641778  0.0660658806396000
  0.8542785726864086  0.0532333180412356  0.0526501258619338
  0.9545231809983242  0.1087106384734279  0.0490234756624251
  0.9544451873740336  0.2200077892246017  0.0494435680859845
  0.8546540430889868  0.2764163941440578  0.0548099928961344
  0.0549082027141829  0.3858015587560185  0.0425590597653167
  0.1540043594383496  0.4414279648468620  0.0393539681055408
  0.1535230875643950  0.5523283804096375  0.0374473848102591
  0.0545352303000837  0.6088045922163879  0.0380648271994283
  0.2538892946339527  0.3853936061728375  0.0417333595826217
  0.3530021162817857  0.4399476088663180  0.0447603085027281
  0.3519506467607752  0.5532333265388731  0.0459802477262936
  0.2525968958369926  0.6079885262251659  0.0398420358812421
  0.7591095567929570  0.4479218508725319  0.0639576468707461
  0.8562535951631020  0.3880473947726181  0.0543263667073293
  0.9555513806995817  0.4422471705147215  0.0459940399492160
  0.9555302615961255  0.5533248804370883  0.0433384934260284
  0.8556421302840991  0.6079567455994599  0.0506203310563183
  0.0550509934215531  0.7198650036647731  0.0382170466119941
  0.1544238729367204  0.7755365577051428  0.0393538761405599
  0.1554457673733836  0.8865712243680860  0.0421970612886777
  0.0552810829501722  0.9423249658193469  0.0435431928925936
  0.2537707619837835  0.7190462642471694  0.0416318547937602
  0.3536826082357719  0.7726449408367375  0.0490404362519507
  0.3557454312426822  0.8844347560260034  0.0504246652912094
  0.2560006441510105  0.9411757874211799  0.0460707999949486
  0.4507238835573499  0.7123758848354105  0.0589806868092999
  0.5542692496100551  0.8788384747639947  0.0647684363180278
  0.4560243626613186  0.9392877394759955  0.0567465839667524
  0.7571791695700906  0.8830590430952576  0.0581495656545755
  0.6552011236150496  0.9376802402772445  0.0635141908042573
  0.8565061846040954  0.7217314714883973  0.0488854903428122
  0.9556113324362803  0.7758585228985090  0.0421049222340634
  0.9554478407754573  0.8869456006503237  0.0448152120096049
  0.8551440839121859  0.9415853829903791  0.0509610292048921
  0.6600875983094060  0.3918353805723160  0.0732333011651969
  0.5499476917962284  0.7671683736202161  0.0716624183510295
  0.4503184851527167  0.3879128084270730  0.0516573564629584
  0.4463541495860969  0.6039992516215780  0.0576272393472692
  0.7615302155033152  0.5566031656351390  0.0626412346349924
  0.7619945042200658  0.7756015855898662  0.0595385449641459
  0.6684775518882119  0.6837756566870726  0.1063491771427924
  0.5482775353047703  0.4866663378069833  0.0804849377628878
  0.5975036328575429  0.5734380250362523  0.1533267987394983
  0.7496510181676609  0.7169476132189105  0.1824459218582143
  0.7314399259965257  0.6660422212804348  0.2169450149535702
  0.5304622032574304  0.5958659849747424  0.1748812867416290
 
  0.00000000E+00  0.00000000E+00  0.00000000E+00
  0.00000000E+00  0.00000000E+00  0.00000000E+00
  0.00000000E+00  0.00000000E+00  0.00000000E+00
  0.00000000E+00  0.00000000E+00  0.00000000E+00
  0.00000000E+00  0.00000000E+00  0.00000000E+00
  0.00000000E+00  0.00000000E+00  0.00000000E+00
  0.00000000E+00  0.00000000E+00  0.00000000E+00
  0.00000000E+00  0.00000000E+00  0.00000000E+00
  0.00000000E+00  0.00000000E+00  0.00000000E+00
  0.00000000E+00  0.00000000E+00  0.00000000E+00
  0.00000000E+00  0.00000000E+00  0.00000000E+00
  0.00000000E+00  0.00000000E+00  0.00000000E+00
  0.00000000E+00  0.00000000E+00  0.00000000E+00
  0.00000000E+00  0.00000000E+00  0.00000000E+00
  0.00000000E+00  0.00000000E+00  0.00000000E+00
  0.00000000E+00  0.00000000E+00  0.00000000E+00
  0.00000000E+00  0.00000000E+00  0.00000000E+00
  0.00000000E+00  0.00000000E+00  0.00000000E+00
  0.00000000E+00  0.00000000E+00  0.00000000E+00
  0.00000000E+00  0.00000000E+00  0.00000000E+00
  0.00000000E+00  0.00000000E+00  0.00000000E+00
  0.00000000E+00  0.00000000E+00  0.00000000E+00
  0.00000000E+00  0.00000000E+00  0.00000000E+00
  0.00000000E+00  0.00000000E+00  0.00000000E+00
  0.00000000E+00  0.00000000E+00  0.00000000E+00
  0.00000000E+00  0.00000000E+00  0.00000000E+00
  0.00000000E+00  0.00000000E+00  0.00000000E+00
  0.00000000E+00  0.00000000E+00  0.00000000E+00
  0.00000000E+00  0.00000000E+00  0.00000000E+00
  0.00000000E+00  0.00000000E+00  0.00000000E+00
  0.00000000E+00  0.00000000E+00  0.00000000E+00
  0.00000000E+00  0.00000000E+00  0.00000000E+00
  0.00000000E+00  0.00000000E+00  0.00000000E+00
  0.00000000E+00  0.00000000E+00  0.00000000E+00
  0.00000000E+00  0.00000000E+00  0.00000000E+00
  0.00000000E+00  0.00000000E+00  0.00000000E+00
  0.00000000E+00  0.00000000E+00  0.00000000E+00
  0.00000000E+00  0.00000000E+00  0.00000000E+00
  0.00000000E+00  0.00000000E+00  0.00000000E+00
  0.00000000E+00  0.00000000E+00  0.00000000E+00
  0.00000000E+00  0.00000000E+00  0.00000000E+00
  0.00000000E+00  0.00000000E+00  0.00000000E+00
  0.00000000E+00  0.00000000E+00  0.00000000E+00
  0.00000000E+00  0.00000000E+00  0.00000000E+00
  0.00000000E+00  0.00000000E+00  0.00000000E+00
  0.00000000E+00  0.00000000E+00  0.00000000E+00
  0.00000000E+00  0.00000000E+00  0.00000000E+00
  0.00000000E+00  0.00000000E+00  0.00000000E+00
  0.00000000E+00  0.00000000E+00  0.00000000E+00
  0.00000000E+00  0.00000000E+00  0.00000000E+00
  0.00000000E+00  0.00000000E+00  0.00000000E+00
  0.00000000E+00  0.00000000E+00  0.00000000E+00
  0.00000000E+00  0.00000000E+00  0.00000000E+00
  0.00000000E+00  0.00000000E+00  0.00000000E+00
  0.00000000E+00  0.00000000E+00  0.00000000E+00
  0.00000000E+00  0.00000000E+00  0.00000000E+00
  0.00000000E+00  0.00000000E+00  0.00000000E+00
  0.00000000E+00  0.00000000E+00  0.00000000E+00
  0.00000000E+00  0.00000000E+00  0.00000000E+00
  0.00000000E+00  0.00000000E+00  0.00000000E+00
  0.00000000E+00  0.00000000E+00  0.00000000E+00
  0.00000000E+00  0.00000000E+00  0.00000000E+00
