CONTCAR                                 
   1.00000000000000     
    12.3312997818000003    0.0000000000000000    0.0000000000000000
     0.0001127485000000   12.8291997905000006    0.0000000000000000
     0.0005937186000000    0.0011528207000000   19.9943999824000009
   C    Fe   Ni   H 
    56     1     1     2
Direct
  0.0549493851001923  0.0530278356037450  0.0537981630676748
  0.1551635559308959  0.1089864727705565  0.0528896564838496
  0.1557664544992730  0.2197171842479869  0.0526615044318197
  0.0557890029243437  0.2746473548033310  0.0530002860835669
  0.2552616013124804  0.0543829425697672  0.0527489963912711
  0.3554181131358334  0.1103566613070201  0.0543003578329198
  0.3561064543044163  0.2216891417013793  0.0547404573239465
  0.2556990047890512  0.2757197656640641  0.0527733760748591
  0.4550516642018219  0.0543845982298092  0.0556442609579054
  0.5556171300338271  0.1100500954541579  0.0587237878009648
  0.5562166273465776  0.2212469462782072  0.0602695988062741
  0.4563544066493231  0.2792290586830558  0.0573732645120580
  0.6554481912105147  0.0520945037634368  0.0599971880202920
  0.7556394848086682  0.1080368848701186  0.0598284009314230
  0.7564301135440387  0.2193533588344149  0.0604045815294576
  0.6571264928817392  0.2770175486284355  0.0630570111792638
  0.8546350362127547  0.0510095997057335  0.0578148304374200
  0.9547426177351533  0.1074409520920024  0.0555491929836812
  0.9556951412641597  0.2188403648033602  0.0550988604156682
  0.8565273619111097  0.2749907681332573  0.0573362470316754
  0.0564113727921278  0.3858063022158895  0.0521522037137115
  0.1556623518278014  0.4421066773259010  0.0509641766018124
  0.1558719921849191  0.5534702680819852  0.0503575572131706
  0.0563160111429155  0.6088246948114129  0.0514672014152800
  0.2551309295933790  0.3866936475801938  0.0517276138250175
  0.3543049224598719  0.4425902364457075  0.0528269323586185
  0.3555137897115639  0.5553932851210163  0.0519401215320560
  0.2553339366984645  0.6098807724687221  0.0503596631994861
  0.7592240788671867  0.4434566335740369  0.0615558884527449
  0.8581128766359886  0.3862184094674088  0.0563314101569160
  0.9573313105277822  0.4412879293835538  0.0534713602857231
  0.9570998768182586  0.5523989184090431  0.0537450196714433
  0.8581160526684301  0.6077933811878963  0.0578483010226166
  0.0552699114105036  0.7200570266261378  0.0518408484218955
  0.1543429222627042  0.7763586698837538  0.0507572135100746
  0.1545834379479318  0.8873968125791172  0.0516988215212569
  0.0544112287739378  0.9422880982175958  0.0534532635564929
  0.2538456818111673  0.7210794637777178  0.0504355486992796
  0.3525134060092179  0.7768914776322537  0.0516794671259405
  0.3540500909055688  0.8877748248628594  0.0521275317636724
  0.2544997288572949  0.9433238238098064  0.0518837353951154
  0.4522003783794993  0.7203512332067313  0.0532803357266768
  0.5538632930201159  0.8864756785478857  0.0563376616441316
  0.4543582477978168  0.9434771776903197  0.0541834011178232
  0.7532969706738214  0.8803943369573386  0.0607407877426473
  0.6549521841060590  0.9407197396830225  0.0596695666499114
  0.8568715416049508  0.7193041619963559  0.0588093686947643
  0.9554548993755727  0.7753182153898637  0.0548575081073596
  0.9546692600653756  0.8861868234854392  0.0554182065584151
  0.8536281217511590  0.9390558942055837  0.0581181536190994
  0.4543888584073165  0.3899047693572282  0.0565053448953592
  0.4564595888154527  0.6086536496552115  0.0542686754499731
  0.6604671449264649  0.3867703799461873  0.0661888031639425
  0.7573844546382013  0.5560209130236020  0.0621640932364010
  0.5512223428511959  0.7772844361324839  0.0563333204773849
  0.7535798012267942  0.7677000171213753  0.0626231972203344
  0.6367545764267041  0.6616964849544806  0.0699371129269976
  0.5619107475884558  0.4912502574256560  0.0659826095261989
  0.6538903045712957  0.6893123510198583  0.1405424913769175
  0.6328836640705542  0.5678599395955388  0.1200954421273254
 
  0.00000000E+00  0.00000000E+00  0.00000000E+00
  0.00000000E+00  0.00000000E+00  0.00000000E+00
  0.00000000E+00  0.00000000E+00  0.00000000E+00
  0.00000000E+00  0.00000000E+00  0.00000000E+00
  0.00000000E+00  0.00000000E+00  0.00000000E+00
  0.00000000E+00  0.00000000E+00  0.00000000E+00
  0.00000000E+00  0.00000000E+00  0.00000000E+00
  0.00000000E+00  0.00000000E+00  0.00000000E+00
  0.00000000E+00  0.00000000E+00  0.00000000E+00
  0.00000000E+00  0.00000000E+00  0.00000000E+00
  0.00000000E+00  0.00000000E+00  0.00000000E+00
  0.00000000E+00  0.00000000E+00  0.00000000E+00
  0.00000000E+00  0.00000000E+00  0.00000000E+00
  0.00000000E+00  0.00000000E+00  0.00000000E+00
  0.00000000E+00  0.00000000E+00  0.00000000E+00
  0.00000000E+00  0.00000000E+00  0.00000000E+00
  0.00000000E+00  0.00000000E+00  0.00000000E+00
  0.00000000E+00  0.00000000E+00  0.00000000E+00
  0.00000000E+00  0.00000000E+00  0.00000000E+00
  0.00000000E+00  0.00000000E+00  0.00000000E+00
  0.00000000E+00  0.00000000E+00  0.00000000E+00
  0.00000000E+00  0.00000000E+00  0.00000000E+00
  0.00000000E+00  0.00000000E+00  0.00000000E+00
  0.00000000E+00  0.00000000E+00  0.00000000E+00
  0.00000000E+00  0.00000000E+00  0.00000000E+00
  0.00000000E+00  0.00000000E+00  0.00000000E+00
  0.00000000E+00  0.00000000E+00  0.00000000E+00
  0.00000000E+00  0.00000000E+00  0.00000000E+00
  0.00000000E+00  0.00000000E+00  0.00000000E+00
  0.00000000E+00  0.00000000E+00  0.00000000E+00
  0.00000000E+00  0.00000000E+00  0.00000000E+00
  0.00000000E+00  0.00000000E+00  0.00000000E+00
  0.00000000E+00  0.00000000E+00  0.00000000E+00
  0.00000000E+00  0.00000000E+00  0.00000000E+00
  0.00000000E+00  0.00000000E+00  0.00000000E+00
  0.00000000E+00  0.00000000E+00  0.00000000E+00
  0.00000000E+00  0.00000000E+00  0.00000000E+00
  0.00000000E+00  0.00000000E+00  0.00000000E+00
  0.00000000E+00  0.00000000E+00  0.00000000E+00
  0.00000000E+00  0.00000000E+00  0.00000000E+00
  0.00000000E+00  0.00000000E+00  0.00000000E+00
  0.00000000E+00  0.00000000E+00  0.00000000E+00
  0.00000000E+00  0.00000000E+00  0.00000000E+00
  0.00000000E+00  0.00000000E+00  0.00000000E+00
  0.00000000E+00  0.00000000E+00  0.00000000E+00
  0.00000000E+00  0.00000000E+00  0.00000000E+00
  0.00000000E+00  0.00000000E+00  0.00000000E+00
  0.00000000E+00  0.00000000E+00  0.00000000E+00
  0.00000000E+00  0.00000000E+00  0.00000000E+00
  0.00000000E+00  0.00000000E+00  0.00000000E+00
  0.00000000E+00  0.00000000E+00  0.00000000E+00
  0.00000000E+00  0.00000000E+00  0.00000000E+00
  0.00000000E+00  0.00000000E+00  0.00000000E+00
  0.00000000E+00  0.00000000E+00  0.00000000E+00
  0.00000000E+00  0.00000000E+00  0.00000000E+00
  0.00000000E+00  0.00000000E+00  0.00000000E+00
  0.00000000E+00  0.00000000E+00  0.00000000E+00
  0.00000000E+00  0.00000000E+00  0.00000000E+00
  0.00000000E+00  0.00000000E+00  0.00000000E+00
  0.00000000E+00  0.00000000E+00  0.00000000E+00
