CONTCAR\(2)\(3)                         
   1.00000000000000     
    12.3312997818000003    0.0000000000000000    0.0000000000000000
     0.0001127485000000   12.8291997905000006    0.0000000000000000
     0.0005937186000000    0.0011528207000000   19.9943999824000009
   C    N    Fe   Ni   O 
    55     1     1     1     2
Direct
  0.0559263241129463  0.0517562807934056  0.0511409695301527
  0.1561952338553686  0.1074506272388422  0.0497738019796438
  0.1563767316760372  0.2184401891997761  0.0486197883508629
  0.0562398136084057  0.2738080618054927  0.0485627057058982
  0.2567890737112681  0.0527503036251466  0.0501098127766595
  0.3569366794004315  0.1094745967124718  0.0515452736563995
  0.3572963358764258  0.2215790831406656  0.0509698770396871
  0.2560422946907535  0.2746976767663806  0.0485007317809593
  0.4566084314778824  0.0532069850916115  0.0540254397589932
  0.5564640782056054  0.1108550989261151  0.0569185847836605
  0.5568868888591897  0.2227754888201013  0.0565856674396344
  0.4573172562971949  0.2808531081703800  0.0531696118902506
  0.6557033655338493  0.0522725444220454  0.0592748595348402
  0.7560124415570246  0.1077401086887506  0.0579471624887005
  0.7572920236140065  0.2190027997209758  0.0570355413932617
  0.6588436199347641  0.2780324349536046  0.0583509175133308
  0.8556002230045884  0.0515197273955691  0.0560152583823492
  0.9558830100201654  0.1069040194902094  0.0528365907041562
  0.9567211473116609  0.2178911739966795  0.0514410075928732
  0.8572110805680346  0.2736977464628116  0.0535999342353396
  0.0556151870522972  0.3850589486397689  0.0469236403503854
  0.1542624472072761  0.4411751001359663  0.0457117046943397
  0.1536101763030580  0.5525909156127212  0.0451874052343562
  0.0535325339545782  0.6076867828646607  0.0462483455877955
  0.2540022428479318  0.3855346848139482  0.0470694775310397
  0.3520799433165913  0.4420534559667106  0.0482778685144248
  0.3528775998417458  0.5538612886614050  0.0475600905524360
  0.2533457188373660  0.6089303409373402  0.0457188769354981
  0.7578999001181663  0.4398858357951670  0.0573719830034722
  0.8576634553296875  0.3846105726812968  0.0524213417355386
  0.9558937436431492  0.4407383798290384  0.0484660833619100
  0.9536613112209987  0.5514646024875157  0.0481701584263484
  0.8519274414733160  0.6051814153841510  0.0523577282392853
  0.0545889633271487  0.7190144911956940  0.0474305407871016
  0.1545879463268647  0.7748942164563677  0.0469644901987700
  0.1554853956891170  0.8859050118636677  0.0487583891634755
  0.0552391489153699  0.9408384256805312  0.0509227002553450
  0.2546586834502692  0.7195577821700360  0.0463702813320062
  0.3555368706384855  0.7733754230590756  0.0487127047848119
  0.3561755012872925  0.8850312319492902  0.0502774052522487
  0.2562212888950126  0.9412399432908576  0.0494360673673431
  0.4557748214864809  0.7147615971013688  0.0515595962071376
  0.5555702707998972  0.8830787012206951  0.0583864463929972
  0.4561698657336591  0.9411113953951029  0.0536040601888463
  0.7546585697866912  0.8835834046859361  0.0615537244184044
  0.6552043266339704  0.9409454202334336  0.0612330096595655
  0.8545005816591974  0.7180210474752520  0.0549311937312710
  0.9544480221864093  0.7740436471437774  0.0512789362096304
  0.9549889893220956  0.8851310750417580  0.0532018103529321
  0.8548903366663470  0.9400330991624233  0.0569341530358525
  0.4533246559871829  0.3923578251712756  0.0516730822264647
  0.7510421252200441  0.5518858986633620  0.0581111975951884
  0.5543335140375194  0.7725441171263898  0.0599598197847267
  0.7558780713878948  0.7725303739792363  0.0640123752803922
  0.4554597421317703  0.6029248440892802  0.0505113760491240
  0.6628991712278253  0.3838665032356629  0.0598572228044479
  0.6536133889981186  0.6758428592671165  0.0992766069646209
  0.5649633874792688  0.4929442331820238  0.0550701027405882
  0.6592670201288239  0.6089480423864490  0.1822920388759643
  0.6122415851355042  0.7073189795431749  0.1837624186362604
 
  0.00000000E+00  0.00000000E+00  0.00000000E+00
  0.00000000E+00  0.00000000E+00  0.00000000E+00
  0.00000000E+00  0.00000000E+00  0.00000000E+00
  0.00000000E+00  0.00000000E+00  0.00000000E+00
  0.00000000E+00  0.00000000E+00  0.00000000E+00
  0.00000000E+00  0.00000000E+00  0.00000000E+00
  0.00000000E+00  0.00000000E+00  0.00000000E+00
  0.00000000E+00  0.00000000E+00  0.00000000E+00
  0.00000000E+00  0.00000000E+00  0.00000000E+00
  0.00000000E+00  0.00000000E+00  0.00000000E+00
  0.00000000E+00  0.00000000E+00  0.00000000E+00
  0.00000000E+00  0.00000000E+00  0.00000000E+00
  0.00000000E+00  0.00000000E+00  0.00000000E+00
  0.00000000E+00  0.00000000E+00  0.00000000E+00
  0.00000000E+00  0.00000000E+00  0.00000000E+00
  0.00000000E+00  0.00000000E+00  0.00000000E+00
  0.00000000E+00  0.00000000E+00  0.00000000E+00
  0.00000000E+00  0.00000000E+00  0.00000000E+00
  0.00000000E+00  0.00000000E+00  0.00000000E+00
  0.00000000E+00  0.00000000E+00  0.00000000E+00
  0.00000000E+00  0.00000000E+00  0.00000000E+00
  0.00000000E+00  0.00000000E+00  0.00000000E+00
  0.00000000E+00  0.00000000E+00  0.00000000E+00
  0.00000000E+00  0.00000000E+00  0.00000000E+00
  0.00000000E+00  0.00000000E+00  0.00000000E+00
  0.00000000E+00  0.00000000E+00  0.00000000E+00
  0.00000000E+00  0.00000000E+00  0.00000000E+00
  0.00000000E+00  0.00000000E+00  0.00000000E+00
  0.00000000E+00  0.00000000E+00  0.00000000E+00
  0.00000000E+00  0.00000000E+00  0.00000000E+00
  0.00000000E+00  0.00000000E+00  0.00000000E+00
  0.00000000E+00  0.00000000E+00  0.00000000E+00
  0.00000000E+00  0.00000000E+00  0.00000000E+00
  0.00000000E+00  0.00000000E+00  0.00000000E+00
  0.00000000E+00  0.00000000E+00  0.00000000E+00
  0.00000000E+00  0.00000000E+00  0.00000000E+00
  0.00000000E+00  0.00000000E+00  0.00000000E+00
  0.00000000E+00  0.00000000E+00  0.00000000E+00
  0.00000000E+00  0.00000000E+00  0.00000000E+00
  0.00000000E+00  0.00000000E+00  0.00000000E+00
  0.00000000E+00  0.00000000E+00  0.00000000E+00
  0.00000000E+00  0.00000000E+00  0.00000000E+00
  0.00000000E+00  0.00000000E+00  0.00000000E+00
  0.00000000E+00  0.00000000E+00  0.00000000E+00
  0.00000000E+00  0.00000000E+00  0.00000000E+00
  0.00000000E+00  0.00000000E+00  0.00000000E+00
  0.00000000E+00  0.00000000E+00  0.00000000E+00
  0.00000000E+00  0.00000000E+00  0.00000000E+00
  0.00000000E+00  0.00000000E+00  0.00000000E+00
  0.00000000E+00  0.00000000E+00  0.00000000E+00
  0.00000000E+00  0.00000000E+00  0.00000000E+00
  0.00000000E+00  0.00000000E+00  0.00000000E+00
  0.00000000E+00  0.00000000E+00  0.00000000E+00
  0.00000000E+00  0.00000000E+00  0.00000000E+00
  0.00000000E+00  0.00000000E+00  0.00000000E+00
  0.00000000E+00  0.00000000E+00  0.00000000E+00
  0.00000000E+00  0.00000000E+00  0.00000000E+00
  0.00000000E+00  0.00000000E+00  0.00000000E+00
  0.00000000E+00  0.00000000E+00  0.00000000E+00
  0.00000000E+00  0.00000000E+00  0.00000000E+00
