CONTCAR                                 
   1.00000000000000     
    12.3312997818000003    0.0000000000000000    0.0000000000000000
     0.0001127485000000   12.8291997905000006    0.0000000000000000
     0.0005937186000000    0.0011528207000000   19.9943999824000009
   C    N    Fe   Ni   O    H 
    52     4     1     1     1     1
Direct
  0.0555795172361370  0.0546952308402458  0.0501129889564265
  0.1561581884662888  0.1102016333208628  0.0499356662425261
  0.1559780802158226  0.2210816785434264  0.0483932821025282
  0.0560301123669524  0.2765323980634625  0.0475962228948724
  0.2567720006332344  0.0557826236654529  0.0519973876917761
  0.3569268399577357  0.1124228135328996  0.0547267493105627
  0.3563293660801943  0.2242962697664725  0.0534870168829302
  0.2554049500257761  0.2773968568503420  0.0490585176826807
  0.4569286456563308  0.0568905105157083  0.0588725489817106
  0.5561446775750374  0.1157567729781519  0.0611329516412862
  0.5567710137268750  0.2299022722130686  0.0613482095726060
  0.4547508063856477  0.2849860109051043  0.0574857391204514
  0.6546439703187293  0.0557519451712436  0.0611637609233428
  0.7547773851265169  0.1120059775769904  0.0578384986607313
  0.7558587018623372  0.2241538286757845  0.0577959250314139
  0.6587513752401755  0.2859022025241950  0.0620808992045910
  0.8546489694023904  0.0551628232786327  0.0543775152222493
  0.9553269069111283  0.1100678345511618  0.0515523013711712
  0.9560015416839990  0.2212673737647881  0.0506078095392140
  0.8568401107744541  0.2775120519727236  0.0533493270536205
  0.0564981584679614  0.3873418391704583  0.0454613424473309
  0.1551975770413025  0.4440281335398798  0.0444847378206839
  0.1551064764974028  0.5549860005057943  0.0444815428195844
  0.0562752758455594  0.6111014170708231  0.0447261215721734
  0.2541217609487901  0.3884811647194173  0.0469126129894136
  0.3527869981238250  0.4437180926301670  0.0510143369655747
  0.3528994691564947  0.5560021194322767  0.0527564497518623
  0.2540178788422544  0.6109880442394817  0.0478277666950408
  0.7611125967019479  0.4463638381444974  0.0566293020476175
  0.8587960294075099  0.3882975542280889  0.0514583746111859
  0.9577770342911519  0.4431681125732506  0.0467710376927848
  0.9575627655165213  0.5541297130504761  0.0460936386285866
  0.8578590548748279  0.6069657669904804  0.0492205850611490
  0.0557853108043949  0.7219205863242111  0.0461250591164239
  0.1553345974501031  0.7779908036340416  0.0476207673674468
  0.1558938634664235  0.8889721850324878  0.0492757658702194
  0.0553796724472547  0.9438502835514878  0.0495564536127037
  0.2544402173475435  0.7221857906017424  0.0495517441309509
  0.3545954119338920  0.7760703490750607  0.0549600490278669
  0.3562858347858220  0.8880553439431581  0.0556780844462511
  0.2564645892765546  0.9441082932406254  0.0519899243002389
  0.4523166991274290  0.7161803080873441  0.0617750172494617
  0.5545592963152182  0.8845931562636355  0.0649156577279374
  0.4563852277074673  0.9441781622574158  0.0600999726331665
  0.7546006951487225  0.8858000381995693  0.0584190371352942
  0.6543611318662069  0.9429603238025944  0.0626738085126423
  0.8560331611186781  0.7199721559276782  0.0505607303615578
  0.9556189709954866  0.7765432162694109  0.0484096246079134
  0.9548564128778075  0.8880749331873455  0.0503378713352387
  0.8544733854996959  0.9432430421882665  0.0539097705176709
  0.5520369239752008  0.7724071839810561  0.0692512620527981
  0.7567019650433290  0.7748425628781394  0.0579264107141752
  0.4494487125252211  0.3922806001280309  0.0572598733239991
  0.4493171846683129  0.6069105450976501  0.0615131613868213
  0.6645364080606935  0.3944677267726527  0.0649019211961294
  0.7616295275798373  0.5533107418196112  0.0536940684548605
  0.6587777296328106  0.6709186585813501  0.0865554276066508
  0.5534157989914374  0.4953346994004412  0.0787416973649621
  0.6168268115674728  0.5765119894605208  0.1550823011055417
  0.5561602264256935  0.6026453882886614  0.1815333876514006
 
  0.00000000E+00  0.00000000E+00  0.00000000E+00
  0.00000000E+00  0.00000000E+00  0.00000000E+00
  0.00000000E+00  0.00000000E+00  0.00000000E+00
  0.00000000E+00  0.00000000E+00  0.00000000E+00
  0.00000000E+00  0.00000000E+00  0.00000000E+00
  0.00000000E+00  0.00000000E+00  0.00000000E+00
  0.00000000E+00  0.00000000E+00  0.00000000E+00
  0.00000000E+00  0.00000000E+00  0.00000000E+00
  0.00000000E+00  0.00000000E+00  0.00000000E+00
  0.00000000E+00  0.00000000E+00  0.00000000E+00
  0.00000000E+00  0.00000000E+00  0.00000000E+00
  0.00000000E+00  0.00000000E+00  0.00000000E+00
  0.00000000E+00  0.00000000E+00  0.00000000E+00
  0.00000000E+00  0.00000000E+00  0.00000000E+00
  0.00000000E+00  0.00000000E+00  0.00000000E+00
  0.00000000E+00  0.00000000E+00  0.00000000E+00
  0.00000000E+00  0.00000000E+00  0.00000000E+00
  0.00000000E+00  0.00000000E+00  0.00000000E+00
  0.00000000E+00  0.00000000E+00  0.00000000E+00
  0.00000000E+00  0.00000000E+00  0.00000000E+00
  0.00000000E+00  0.00000000E+00  0.00000000E+00
  0.00000000E+00  0.00000000E+00  0.00000000E+00
  0.00000000E+00  0.00000000E+00  0.00000000E+00
  0.00000000E+00  0.00000000E+00  0.00000000E+00
  0.00000000E+00  0.00000000E+00  0.00000000E+00
  0.00000000E+00  0.00000000E+00  0.00000000E+00
  0.00000000E+00  0.00000000E+00  0.00000000E+00
  0.00000000E+00  0.00000000E+00  0.00000000E+00
  0.00000000E+00  0.00000000E+00  0.00000000E+00
  0.00000000E+00  0.00000000E+00  0.00000000E+00
  0.00000000E+00  0.00000000E+00  0.00000000E+00
  0.00000000E+00  0.00000000E+00  0.00000000E+00
  0.00000000E+00  0.00000000E+00  0.00000000E+00
  0.00000000E+00  0.00000000E+00  0.00000000E+00
  0.00000000E+00  0.00000000E+00  0.00000000E+00
  0.00000000E+00  0.00000000E+00  0.00000000E+00
  0.00000000E+00  0.00000000E+00  0.00000000E+00
  0.00000000E+00  0.00000000E+00  0.00000000E+00
  0.00000000E+00  0.00000000E+00  0.00000000E+00
  0.00000000E+00  0.00000000E+00  0.00000000E+00
  0.00000000E+00  0.00000000E+00  0.00000000E+00
  0.00000000E+00  0.00000000E+00  0.00000000E+00
  0.00000000E+00  0.00000000E+00  0.00000000E+00
  0.00000000E+00  0.00000000E+00  0.00000000E+00
  0.00000000E+00  0.00000000E+00  0.00000000E+00
  0.00000000E+00  0.00000000E+00  0.00000000E+00
  0.00000000E+00  0.00000000E+00  0.00000000E+00
  0.00000000E+00  0.00000000E+00  0.00000000E+00
  0.00000000E+00  0.00000000E+00  0.00000000E+00
  0.00000000E+00  0.00000000E+00  0.00000000E+00
  0.00000000E+00  0.00000000E+00  0.00000000E+00
  0.00000000E+00  0.00000000E+00  0.00000000E+00
  0.00000000E+00  0.00000000E+00  0.00000000E+00
  0.00000000E+00  0.00000000E+00  0.00000000E+00
  0.00000000E+00  0.00000000E+00  0.00000000E+00
  0.00000000E+00  0.00000000E+00  0.00000000E+00
  0.00000000E+00  0.00000000E+00  0.00000000E+00
  0.00000000E+00  0.00000000E+00  0.00000000E+00
  0.00000000E+00  0.00000000E+00  0.00000000E+00
  0.00000000E+00  0.00000000E+00  0.00000000E+00
