CONTCAR\(5)                             
   1.00000000000000     
    12.3312997818000003    0.0000000000000000    0.0000000000000000
     0.0001127485000000   12.8291997905000006    0.0000000000000000
     0.0005937186000000    0.0011528207000000   19.9943999824000009
   C    N    Fe   Ni   H 
    52     4     1     1     2
Direct
  0.0549440268546942  0.0539363160020240  0.0516327858336594
  0.1553027117244725  0.1093875656896998  0.0506029111622551
  0.1551855404227650  0.2202435647474184  0.0500123709013876
  0.0548851126127748  0.2751955013611334  0.0510536532187565
  0.2556112273707295  0.0543974257011468  0.0509943816339696
  0.3561356260780852  0.1096967217907430  0.0534736185054059
  0.3556795157289120  0.2217660639693103  0.0529755459176095
  0.2550993971062128  0.2758029921700616  0.0497118038054521
  0.4557505570059471  0.0530397959549334  0.0568744489387267
  0.5550723372678997  0.1101202073519381  0.0611192315278798
  0.5550629453005074  0.2236390378973454  0.0624328121680998
  0.4544008310492968  0.2809695146301158  0.0567409996093599
  0.6540710820451936  0.0494654469724505  0.0627003634750673
  0.7536375028575942  0.1078100082070281  0.0617472246620022
  0.7543398280455124  0.2206596644551615  0.0634234871297466
  0.6555263146282219  0.2805084089004521  0.0672388887729914
  0.8537908628467040  0.0521627920104323  0.0579164626074354
  0.9541814468167638  0.1082581146204544  0.0547683125317980
  0.9547130310552860  0.2197070968917103  0.0549160598480127
  0.8551905446210746  0.2757734110130930  0.0594295958631723
  0.0557816669938832  0.3863292016914743  0.0492902401285739
  0.1552159132887955  0.4422127066078083  0.0461677081908793
  0.1553431784386076  0.5529344102441599  0.0445564758870945
  0.0566642331298540  0.6092358336454166  0.0459103317480942
  0.2548562923069337  0.3871768219204726  0.0476011571807304
  0.3544204611385083  0.4420594228052436  0.0493549682039095
  0.3543274280146008  0.5554222273091119  0.0488392641052521
  0.2542945227905541  0.6089634931401200  0.0452531862046752
  0.7604886042901832  0.4457080780636625  0.0684471611382497
  0.8578496103469658  0.3873125006684482  0.0594553178648790
  0.9570381039662209  0.4422883430698052  0.0527543285360027
  0.9577941533914345  0.5538154597986817  0.0511199180586454
  0.8602294504282531  0.6104603279846863  0.0579201581135405
  0.0562055238566388  0.7202491963064236  0.0461337195612625
  0.1547849321443752  0.7764258970263765  0.0457014121180511
  0.1551130308971785  0.8875831354118138  0.0478568885615480
  0.0553088121580728  0.9432406482888225  0.0500196117046553
  0.2534189634865601  0.7201546649532403  0.0458995243496490
  0.3520571910218723  0.7754368904060437  0.0498054100310151
  0.3541621898985402  0.8866458667484040  0.0517585967367876
  0.2549754972949565  0.9430048152218287  0.0497457182670471
  0.4494995622681180  0.7178472382820219  0.0554738047120417
  0.5515279984216875  0.8789960754953192  0.0616462448558995
  0.4547717387656415  0.9406590178610389  0.0565229573150466
  0.7562412684615172  0.8792920926450620  0.0611495526495680
  0.6537916003745361  0.9349078794205573  0.0630289597975461
  0.8596162085818456  0.7221661718092881  0.0557103706854154
  0.9573799149410974  0.7769238356521629  0.0499135616632302
  0.9558073448064636  0.8875640322316958  0.0518599190406586
  0.8544391996885402  0.9401021805188161  0.0569233066868103
  0.6606362698682112  0.3916537663158344  0.0728671940587533
  0.7615614621861535  0.5581403130232552  0.0695959456949260
  0.4512032807696360  0.3891044090277093  0.0546339073036369
  0.4502989387262880  0.6097172888389021  0.0543927049280562
  0.5454630230065810  0.7705262483731417  0.0640758303315877
  0.7617212476423897  0.7713991028645319  0.0619384362308931
  0.6519124569954081  0.6577868403498447  0.0800413541636451
  0.5559621880585333  0.4935645305965924  0.0697266974358357
  0.6113719004654881  0.5667417357512533  0.1274242243997906
  0.6686941712502356  0.6643276832942581  0.1528789612433009
 
  0.00000000E+00  0.00000000E+00  0.00000000E+00
  0.00000000E+00  0.00000000E+00  0.00000000E+00
  0.00000000E+00  0.00000000E+00  0.00000000E+00
  0.00000000E+00  0.00000000E+00  0.00000000E+00
  0.00000000E+00  0.00000000E+00  0.00000000E+00
  0.00000000E+00  0.00000000E+00  0.00000000E+00
  0.00000000E+00  0.00000000E+00  0.00000000E+00
  0.00000000E+00  0.00000000E+00  0.00000000E+00
  0.00000000E+00  0.00000000E+00  0.00000000E+00
  0.00000000E+00  0.00000000E+00  0.00000000E+00
  0.00000000E+00  0.00000000E+00  0.00000000E+00
  0.00000000E+00  0.00000000E+00  0.00000000E+00
  0.00000000E+00  0.00000000E+00  0.00000000E+00
  0.00000000E+00  0.00000000E+00  0.00000000E+00
  0.00000000E+00  0.00000000E+00  0.00000000E+00
  0.00000000E+00  0.00000000E+00  0.00000000E+00
  0.00000000E+00  0.00000000E+00  0.00000000E+00
  0.00000000E+00  0.00000000E+00  0.00000000E+00
  0.00000000E+00  0.00000000E+00  0.00000000E+00
  0.00000000E+00  0.00000000E+00  0.00000000E+00
  0.00000000E+00  0.00000000E+00  0.00000000E+00
  0.00000000E+00  0.00000000E+00  0.00000000E+00
  0.00000000E+00  0.00000000E+00  0.00000000E+00
  0.00000000E+00  0.00000000E+00  0.00000000E+00
  0.00000000E+00  0.00000000E+00  0.00000000E+00
  0.00000000E+00  0.00000000E+00  0.00000000E+00
  0.00000000E+00  0.00000000E+00  0.00000000E+00
  0.00000000E+00  0.00000000E+00  0.00000000E+00
  0.00000000E+00  0.00000000E+00  0.00000000E+00
  0.00000000E+00  0.00000000E+00  0.00000000E+00
  0.00000000E+00  0.00000000E+00  0.00000000E+00
  0.00000000E+00  0.00000000E+00  0.00000000E+00
  0.00000000E+00  0.00000000E+00  0.00000000E+00
  0.00000000E+00  0.00000000E+00  0.00000000E+00
  0.00000000E+00  0.00000000E+00  0.00000000E+00
  0.00000000E+00  0.00000000E+00  0.00000000E+00
  0.00000000E+00  0.00000000E+00  0.00000000E+00
  0.00000000E+00  0.00000000E+00  0.00000000E+00
  0.00000000E+00  0.00000000E+00  0.00000000E+00
  0.00000000E+00  0.00000000E+00  0.00000000E+00
  0.00000000E+00  0.00000000E+00  0.00000000E+00
  0.00000000E+00  0.00000000E+00  0.00000000E+00
  0.00000000E+00  0.00000000E+00  0.00000000E+00
  0.00000000E+00  0.00000000E+00  0.00000000E+00
  0.00000000E+00  0.00000000E+00  0.00000000E+00
  0.00000000E+00  0.00000000E+00  0.00000000E+00
  0.00000000E+00  0.00000000E+00  0.00000000E+00
  0.00000000E+00  0.00000000E+00  0.00000000E+00
  0.00000000E+00  0.00000000E+00  0.00000000E+00
  0.00000000E+00  0.00000000E+00  0.00000000E+00
  0.00000000E+00  0.00000000E+00  0.00000000E+00
  0.00000000E+00  0.00000000E+00  0.00000000E+00
  0.00000000E+00  0.00000000E+00  0.00000000E+00
  0.00000000E+00  0.00000000E+00  0.00000000E+00
  0.00000000E+00  0.00000000E+00  0.00000000E+00
  0.00000000E+00  0.00000000E+00  0.00000000E+00
  0.00000000E+00  0.00000000E+00  0.00000000E+00
  0.00000000E+00  0.00000000E+00  0.00000000E+00
  0.00000000E+00  0.00000000E+00  0.00000000E+00
  0.00000000E+00  0.00000000E+00  0.00000000E+00
