CONTCAR\(2)                             
   1.00000000000000     
    12.3312997818000003    0.0000000000000000    0.0000000000000000
     0.0001127485000000   12.8291997905000006    0.0000000000000000
     0.0005937186000000    0.0011528207000000   19.9943999824000009
   C    N    Fe   Ni   O    H 
    52     4     1     1     1     1
Direct
  0.0565791594718068  0.0551413925093852  0.0494971504376780
  0.1569464153357245  0.1103375188054731  0.0491298794326540
  0.1564161415391489  0.2212165889274236  0.0479705437690543
  0.0562751558786952  0.2767629379244294  0.0475574790630044
  0.2576190388172443  0.0552943364838825  0.0508542932056256
  0.3578809677058487  0.1113545055956278  0.0540392830800913
  0.3569698370053006  0.2234122884457394  0.0533014234693114
  0.2560186204755072  0.2768804053042945  0.0487752268603235
  0.4578288164245954  0.0551826909426623  0.0584520543269487
  0.5570572642186498  0.1135273017341924  0.0619620131629105
  0.5569059218013178  0.2276347302693845  0.0623788502557281
  0.4552820311110086  0.2836502623707461  0.0579390376117782
  0.6561699350001730  0.0532905738247910  0.0626160023512211
  0.7555978836154574  0.1108172747451979  0.0593177245035700
  0.7565397963210672  0.2231225884218507  0.0593041907421296
  0.6585716670517905  0.2840662402990706  0.0635697488063863
  0.8555625477972955  0.0548329840102101  0.0553299071454567
  0.9560321451285260  0.1100885961186436  0.0517298973594979
  0.9564758771792657  0.2212247216000501  0.0509359017299204
  0.8570326042488928  0.2773698068684605  0.0545332623329158
  0.0561951988544693  0.3878702963344351  0.0455651766868971
  0.1551630104768542  0.4436632255140877  0.0439837828710887
  0.1551737095367294  0.5546123631631791  0.0433119415911069
  0.0562256293244351  0.6108898239637058  0.0438670127205293
  0.2545657714695056  0.3878646194728176  0.0465045278867845
  0.3533626703599217  0.4425890352970294  0.0502102700807759
  0.3535046707061260  0.5552518530091389  0.0501566935732576
  0.2542344464529932  0.6103164844200230  0.0455742014265159
  0.7597914674890028  0.4454383797703967  0.0598140254000418
  0.8582559414881571  0.3885162103327013  0.0533511008850574
  0.9569521670085338  0.4442704262575319  0.0477312286254171
  0.9568210481794895  0.5554760404671137  0.0467011440996684
  0.8567561614629959  0.6105905385137226  0.0518394420830424
  0.0568487322304373  0.7219023512668968  0.0447738819028045
  0.1559490921440386  0.7777280235839695  0.0453707459638536
  0.1570205127408903  0.8888321368701687  0.0474423439050774
  0.0568901022510590  0.9444508834082088  0.0485390958690537
  0.2549769933142741  0.7214166761202169  0.0466743222650518
  0.3548104204809645  0.7751204018440694  0.0521075250119942
  0.3571517604038748  0.8870269634516242  0.0536442872716253
  0.2574305791937121  0.9436689002366251  0.0502122379096323
  0.4522651937466373  0.7152185638522500  0.0592093872810148
  0.5553603571706764  0.8817239894872791  0.0653170481668897
  0.4574007344637802  0.9423487933427245  0.0589717074536663
  0.7577589288444030  0.8840472735950067  0.0602182650598088
  0.6562425153033393  0.9397337110016275  0.0642788531314613
  0.8589831209396358  0.7237050655739041  0.0523645439017084
  0.9576056025004259  0.7781852757583638  0.0481999640688971
  0.9570406410622041  0.8891626965617607  0.0501847347679717
  0.8562207053070997  0.9430056318602152  0.0548983204706386
  0.7574221805026012  0.5569368707131008  0.0601023510735944
  0.5508307462144236  0.7699629782981147  0.0702721188579912
  0.4501240399076186  0.3914837327743423  0.0572556892424070
  0.4498006428908629  0.6060631526238367  0.0572068879424074
  0.6634556212876433  0.3914252906120308  0.0662936373137942
  0.7623251287472658  0.7757860698088408  0.0605133070098922
  0.6627860436923148  0.6729510259767002  0.0931353169355682
  0.5564857933243083  0.4969228803166990  0.0733509852670249
  0.6013662496571904  0.5873431841968119  0.1573656949618349
  0.5367036597417865  0.6183904211471954  0.1773923674179463
 
  0.00000000E+00  0.00000000E+00  0.00000000E+00
  0.00000000E+00  0.00000000E+00  0.00000000E+00
  0.00000000E+00  0.00000000E+00  0.00000000E+00
  0.00000000E+00  0.00000000E+00  0.00000000E+00
  0.00000000E+00  0.00000000E+00  0.00000000E+00
  0.00000000E+00  0.00000000E+00  0.00000000E+00
  0.00000000E+00  0.00000000E+00  0.00000000E+00
  0.00000000E+00  0.00000000E+00  0.00000000E+00
  0.00000000E+00  0.00000000E+00  0.00000000E+00
  0.00000000E+00  0.00000000E+00  0.00000000E+00
  0.00000000E+00  0.00000000E+00  0.00000000E+00
  0.00000000E+00  0.00000000E+00  0.00000000E+00
  0.00000000E+00  0.00000000E+00  0.00000000E+00
  0.00000000E+00  0.00000000E+00  0.00000000E+00
  0.00000000E+00  0.00000000E+00  0.00000000E+00
  0.00000000E+00  0.00000000E+00  0.00000000E+00
  0.00000000E+00  0.00000000E+00  0.00000000E+00
  0.00000000E+00  0.00000000E+00  0.00000000E+00
  0.00000000E+00  0.00000000E+00  0.00000000E+00
  0.00000000E+00  0.00000000E+00  0.00000000E+00
  0.00000000E+00  0.00000000E+00  0.00000000E+00
  0.00000000E+00  0.00000000E+00  0.00000000E+00
  0.00000000E+00  0.00000000E+00  0.00000000E+00
  0.00000000E+00  0.00000000E+00  0.00000000E+00
  0.00000000E+00  0.00000000E+00  0.00000000E+00
  0.00000000E+00  0.00000000E+00  0.00000000E+00
  0.00000000E+00  0.00000000E+00  0.00000000E+00
  0.00000000E+00  0.00000000E+00  0.00000000E+00
  0.00000000E+00  0.00000000E+00  0.00000000E+00
  0.00000000E+00  0.00000000E+00  0.00000000E+00
  0.00000000E+00  0.00000000E+00  0.00000000E+00
  0.00000000E+00  0.00000000E+00  0.00000000E+00
  0.00000000E+00  0.00000000E+00  0.00000000E+00
  0.00000000E+00  0.00000000E+00  0.00000000E+00
  0.00000000E+00  0.00000000E+00  0.00000000E+00
  0.00000000E+00  0.00000000E+00  0.00000000E+00
  0.00000000E+00  0.00000000E+00  0.00000000E+00
  0.00000000E+00  0.00000000E+00  0.00000000E+00
  0.00000000E+00  0.00000000E+00  0.00000000E+00
  0.00000000E+00  0.00000000E+00  0.00000000E+00
  0.00000000E+00  0.00000000E+00  0.00000000E+00
  0.00000000E+00  0.00000000E+00  0.00000000E+00
  0.00000000E+00  0.00000000E+00  0.00000000E+00
  0.00000000E+00  0.00000000E+00  0.00000000E+00
  0.00000000E+00  0.00000000E+00  0.00000000E+00
  0.00000000E+00  0.00000000E+00  0.00000000E+00
  0.00000000E+00  0.00000000E+00  0.00000000E+00
  0.00000000E+00  0.00000000E+00  0.00000000E+00
  0.00000000E+00  0.00000000E+00  0.00000000E+00
  0.00000000E+00  0.00000000E+00  0.00000000E+00
  0.00000000E+00  0.00000000E+00  0.00000000E+00
  0.00000000E+00  0.00000000E+00  0.00000000E+00
  0.00000000E+00  0.00000000E+00  0.00000000E+00
  0.00000000E+00  0.00000000E+00  0.00000000E+00
  0.00000000E+00  0.00000000E+00  0.00000000E+00
  0.00000000E+00  0.00000000E+00  0.00000000E+00
  0.00000000E+00  0.00000000E+00  0.00000000E+00
  0.00000000E+00  0.00000000E+00  0.00000000E+00
  0.00000000E+00  0.00000000E+00  0.00000000E+00
  0.00000000E+00  0.00000000E+00  0.00000000E+00
