CONTCAR                                 
   1.00000000000000     
    12.3312997818000003    0.0000000000000000    0.0000000000000000
     0.0001127485000000   12.8291997905000006    0.0000000000000000
     0.0005937186000000    0.0011528207000000   19.9943999824000009
   C    N    Fe   Ni   O 
    52     4     1     1     2
Direct
  0.0557444970425700  0.0551510611492822  0.0491724997741369
  0.1561194294325657  0.1104879984772704  0.0492528255817910
  0.1560997974000361  0.2213554204941839  0.0483834864894884
  0.0559555659841674  0.2766428827476169  0.0473498173545154
  0.2565803413621164  0.0554952608010816  0.0509233809139445
  0.3569353986085434  0.1112991759143631  0.0537972449327467
  0.3565974396468817  0.2232359543738936  0.0536205035079010
  0.2559360003558195  0.2771473589189883  0.0497754396299863
  0.4566445284983926  0.0550021499230489  0.0570155139214528
  0.5562450374168790  0.1125100866635668  0.0596474150732672
  0.5563319782313491  0.2255270948151586  0.0610579053073039
  0.4554563302122342  0.2822101959751593  0.0578132641304106
  0.6558356270391483  0.0529801594672744  0.0593533534643014
  0.7551274793644981  0.1105807638255414  0.0563142804808424
  0.7558072119367408  0.2229218182105346  0.0565436541687463
  0.6572986619839196  0.2828795270564236  0.0623407194418548
  0.8548516880328403  0.0540751757981868  0.0530629606985755
  0.9552327646531757  0.1100473437516424  0.0504245658581085
  0.9556698737418421  0.2215288687931014  0.0496006897414360
  0.8559640106662815  0.2779774747429334  0.0521604223841415
  0.0569816840875671  0.3876886813636476  0.0455094687821110
  0.1560741942173020  0.4438212727971372  0.0453881892962825
  0.1559469286305543  0.5545378707124468  0.0445871256426435
  0.0569507472706097  0.6108942214325906  0.0438861993084296
  0.2558851536341846  0.3883221390476379  0.0485101671076141
  0.3550742334130771  0.4431096605758147  0.0526782441879893
  0.3547651761529196  0.5561952538715228  0.0542048068263051
  0.2547540910088596  0.6104342439340216  0.0478695768713527
  0.7608111713413220  0.4492571669892126  0.0574320499301145
  0.8580744065000873  0.3894701164933475  0.0506830681668448
  0.9577957058395374  0.4438621439004491  0.0462085686581734
  0.9581473207829555  0.5549663249793045  0.0453805500848699
  0.8582869543483918  0.6095053141675482  0.0491913155976244
  0.0562964211652327  0.7216664765642872  0.0446998415061417
  0.1549680229842817  0.7778193558497032  0.0461598838466282
  0.1559572525744385  0.8888395446097961  0.0477885974329185
  0.0557966329434986  0.9441929340481393  0.0483690380754935
  0.2539213053082399  0.7215445702260925  0.0485622762076822
  0.3529200105061596  0.7762055835359787  0.0535539700192185
  0.3556952328656296  0.8877993421279409  0.0535979455511322
  0.2561215734171204  0.9440913642629890  0.0503587928766584
  0.4497398892177214  0.7170839101847297  0.0616244303311869
  0.5544411423360845  0.8830005304295730  0.0620249160032646
  0.4559925551570348  0.9429563899805459  0.0574938606801525
  0.7564416506719729  0.8827959480943719  0.0572850401976642
  0.6557297500722337  0.9395853287418928  0.0604795252766659
  0.8579656010186523  0.7221933794973737  0.0501013871210561
  0.9565510592858484  0.7772165204195164  0.0470832948466747
  0.9561766479488795  0.8883942468331867  0.0492242592952985
  0.8551932579874638  0.9420187298179173  0.0529507064365555
  0.6626754050507948  0.3932863448548001  0.0679032596250309
  0.5493935134352536  0.7724079650039906  0.0669300150796917
  0.4521252977419397  0.3904509110012744  0.0580277240784142
  0.4492515315227946  0.6088089279288426  0.0640837550644806
  0.7628147465608754  0.5575446530314008  0.0553254786025522
  0.7600563204938576  0.7736690116770928  0.0576404797012036
  0.6552969937817784  0.6723116322773679  0.0804861314801916
  0.5554535760745922  0.4876683275409337  0.0861306502478488
  0.6091576625002516  0.5379342275603071  0.1668931977197880
  0.6462254265400099  0.6413037547360098  0.1674322613810795
 
  0.00000000E+00  0.00000000E+00  0.00000000E+00
  0.00000000E+00  0.00000000E+00  0.00000000E+00
  0.00000000E+00  0.00000000E+00  0.00000000E+00
  0.00000000E+00  0.00000000E+00  0.00000000E+00
  0.00000000E+00  0.00000000E+00  0.00000000E+00
  0.00000000E+00  0.00000000E+00  0.00000000E+00
  0.00000000E+00  0.00000000E+00  0.00000000E+00
  0.00000000E+00  0.00000000E+00  0.00000000E+00
  0.00000000E+00  0.00000000E+00  0.00000000E+00
  0.00000000E+00  0.00000000E+00  0.00000000E+00
  0.00000000E+00  0.00000000E+00  0.00000000E+00
  0.00000000E+00  0.00000000E+00  0.00000000E+00
  0.00000000E+00  0.00000000E+00  0.00000000E+00
  0.00000000E+00  0.00000000E+00  0.00000000E+00
  0.00000000E+00  0.00000000E+00  0.00000000E+00
  0.00000000E+00  0.00000000E+00  0.00000000E+00
  0.00000000E+00  0.00000000E+00  0.00000000E+00
  0.00000000E+00  0.00000000E+00  0.00000000E+00
  0.00000000E+00  0.00000000E+00  0.00000000E+00
  0.00000000E+00  0.00000000E+00  0.00000000E+00
  0.00000000E+00  0.00000000E+00  0.00000000E+00
  0.00000000E+00  0.00000000E+00  0.00000000E+00
  0.00000000E+00  0.00000000E+00  0.00000000E+00
  0.00000000E+00  0.00000000E+00  0.00000000E+00
  0.00000000E+00  0.00000000E+00  0.00000000E+00
  0.00000000E+00  0.00000000E+00  0.00000000E+00
  0.00000000E+00  0.00000000E+00  0.00000000E+00
  0.00000000E+00  0.00000000E+00  0.00000000E+00
  0.00000000E+00  0.00000000E+00  0.00000000E+00
  0.00000000E+00  0.00000000E+00  0.00000000E+00
  0.00000000E+00  0.00000000E+00  0.00000000E+00
  0.00000000E+00  0.00000000E+00  0.00000000E+00
  0.00000000E+00  0.00000000E+00  0.00000000E+00
  0.00000000E+00  0.00000000E+00  0.00000000E+00
  0.00000000E+00  0.00000000E+00  0.00000000E+00
  0.00000000E+00  0.00000000E+00  0.00000000E+00
  0.00000000E+00  0.00000000E+00  0.00000000E+00
  0.00000000E+00  0.00000000E+00  0.00000000E+00
  0.00000000E+00  0.00000000E+00  0.00000000E+00
  0.00000000E+00  0.00000000E+00  0.00000000E+00
  0.00000000E+00  0.00000000E+00  0.00000000E+00
  0.00000000E+00  0.00000000E+00  0.00000000E+00
  0.00000000E+00  0.00000000E+00  0.00000000E+00
  0.00000000E+00  0.00000000E+00  0.00000000E+00
  0.00000000E+00  0.00000000E+00  0.00000000E+00
  0.00000000E+00  0.00000000E+00  0.00000000E+00
  0.00000000E+00  0.00000000E+00  0.00000000E+00
  0.00000000E+00  0.00000000E+00  0.00000000E+00
  0.00000000E+00  0.00000000E+00  0.00000000E+00
  0.00000000E+00  0.00000000E+00  0.00000000E+00
  0.00000000E+00  0.00000000E+00  0.00000000E+00
  0.00000000E+00  0.00000000E+00  0.00000000E+00
  0.00000000E+00  0.00000000E+00  0.00000000E+00
  0.00000000E+00  0.00000000E+00  0.00000000E+00
  0.00000000E+00  0.00000000E+00  0.00000000E+00
  0.00000000E+00  0.00000000E+00  0.00000000E+00
  0.00000000E+00  0.00000000E+00  0.00000000E+00
  0.00000000E+00  0.00000000E+00  0.00000000E+00
  0.00000000E+00  0.00000000E+00  0.00000000E+00
  0.00000000E+00  0.00000000E+00  0.00000000E+00
