CONTCAR\(3)                             
   1.00000000000000     
    12.3312997818000003    0.0000000000000000    0.0000000000000000
     0.0001127485000000   12.8291997905000006    0.0000000000000000
     0.0005937186000000    0.0011528207000000   19.9943999824000009
   C    N    Fe   Ni   O 
    54     2     1     1     2
Direct
  0.0569779330049982  0.0549770294758944  0.0508778623091910
  0.1573394772328429  0.1101561487438921  0.0498956354384109
  0.1572852475432281  0.2212412960276588  0.0490257663841478
  0.0570325292017447  0.2763303680031408  0.0489158692181555
  0.2579316086016027  0.0550338781211669  0.0505602815577678
  0.3582327301198280  0.1111547309785518  0.0527982245089337
  0.3581774571960201  0.2234328653172037  0.0525281537802350
  0.2571567140014090  0.2773557735408069  0.0493429307511233
  0.4579056536486627  0.0549258234395130  0.0559804958120310
  0.5574939674381741  0.1127093338699236  0.0594532557838797
  0.5577428853106515  0.2250850127016567  0.0600564516733600
  0.4577964237274637  0.2820332669948757  0.0561567659347219
  0.6565490906947894  0.0536409437939336  0.0610146103414405
  0.7563366289081339  0.1103768046099426  0.0588884022902897
  0.7573358349917083  0.2224513310133101  0.0584346292448097
  0.6589529124643105  0.2820616568121010  0.0617148493166418
  0.8562268243978012  0.0544418088604946  0.0561007317496136
  0.9565860429431449  0.1099362353179615  0.0527694255039730
  0.9571378558502172  0.2208930463352195  0.0517137165205089
  0.8574155009313905  0.2768894897517418  0.0543516730827624
  0.0565427811002839  0.3875255662539761  0.0472389616523363
  0.1552713674388468  0.4434228152034915  0.0462385692587275
  0.1548343220118802  0.5547871830552831  0.0455604672114962
  0.0557267608234645  0.6102649837217902  0.0458783241278710
  0.2552117864146723  0.3883487124608130  0.0479798666540744
  0.3537005239305160  0.4449997011112301  0.0504971797573315
  0.3531396252939398  0.5573275710939162  0.0509956723351658
  0.2538589587850127  0.6115946150148568  0.0470816871107801
  0.7582598931034144  0.4445282536885965  0.0582308715374900
  0.8576783497570512  0.3879877253778838  0.0529182235033166
  0.9568064915963025  0.4433859786147698  0.0484412455666239
  0.9563059873663525  0.5540175871105314  0.0476662303460932
  0.8559660649819667  0.6086398330384970  0.0518305090493845
  0.0564473514234736  0.7218684810788859  0.0467646773689422
  0.1556422256975808  0.7777951112350729  0.0469904639844572
  0.1567518016705642  0.8889117097748837  0.0485674718421050
  0.0566827297792613  0.9440199675378749  0.0503328567261616
  0.2552207337999978  0.7220189106410214  0.0475638053183161
  0.3561247333669497  0.7750486872970046  0.0507143399323991
  0.3576012903822837  0.8870763828774960  0.0516250517303045
  0.2575729973455676  0.9436066621305836  0.0498034510122609
  0.4543552587064225  0.7152255668621860  0.0563196778765634
  0.5563284864403846  0.8825671975596029  0.0611180393379160
  0.4576351512528702  0.9421051561499123  0.0557348835335670
  0.7564556710047818  0.8853551239098357  0.0624942499462339
  0.6561872805483551  0.9416472459360565  0.0629692566176635
  0.8576813432843643  0.7215036544563894  0.0545897468950046
  0.9566333865941367  0.7773625517597809  0.0502032345617087
  0.9565869558655854  0.8884309087504224  0.0524255904954639
  0.8560651116796225  0.9428027199609900  0.0568210188756031
  0.4535966849099170  0.3934002060919626  0.0553423766533669
  0.7559844504421303  0.5564443808487994  0.0575279888913738
  0.5545053790482630  0.7708591677134139  0.0640015068152653
  0.7587837386273211  0.7741774781330828  0.0655298952763875
  0.4500974689740767  0.6062491414224106  0.0570129937522494
  0.6623325865330485  0.3890060317795166  0.0641682108440138
  0.6583738377702922  0.6738481532900314  0.0981397259808770
  0.5585941902753552  0.4929339803120820  0.0720732169539315
  0.5837916355342692  0.6662144016976983  0.1771609936892679
  0.6277413872313070  0.5674535973383810  0.1586977387759147
 
  0.00000000E+00  0.00000000E+00  0.00000000E+00
  0.00000000E+00  0.00000000E+00  0.00000000E+00
  0.00000000E+00  0.00000000E+00  0.00000000E+00
  0.00000000E+00  0.00000000E+00  0.00000000E+00
  0.00000000E+00  0.00000000E+00  0.00000000E+00
  0.00000000E+00  0.00000000E+00  0.00000000E+00
  0.00000000E+00  0.00000000E+00  0.00000000E+00
  0.00000000E+00  0.00000000E+00  0.00000000E+00
  0.00000000E+00  0.00000000E+00  0.00000000E+00
  0.00000000E+00  0.00000000E+00  0.00000000E+00
  0.00000000E+00  0.00000000E+00  0.00000000E+00
  0.00000000E+00  0.00000000E+00  0.00000000E+00
  0.00000000E+00  0.00000000E+00  0.00000000E+00
  0.00000000E+00  0.00000000E+00  0.00000000E+00
  0.00000000E+00  0.00000000E+00  0.00000000E+00
  0.00000000E+00  0.00000000E+00  0.00000000E+00
  0.00000000E+00  0.00000000E+00  0.00000000E+00
  0.00000000E+00  0.00000000E+00  0.00000000E+00
  0.00000000E+00  0.00000000E+00  0.00000000E+00
  0.00000000E+00  0.00000000E+00  0.00000000E+00
  0.00000000E+00  0.00000000E+00  0.00000000E+00
  0.00000000E+00  0.00000000E+00  0.00000000E+00
  0.00000000E+00  0.00000000E+00  0.00000000E+00
  0.00000000E+00  0.00000000E+00  0.00000000E+00
  0.00000000E+00  0.00000000E+00  0.00000000E+00
  0.00000000E+00  0.00000000E+00  0.00000000E+00
  0.00000000E+00  0.00000000E+00  0.00000000E+00
  0.00000000E+00  0.00000000E+00  0.00000000E+00
  0.00000000E+00  0.00000000E+00  0.00000000E+00
  0.00000000E+00  0.00000000E+00  0.00000000E+00
  0.00000000E+00  0.00000000E+00  0.00000000E+00
  0.00000000E+00  0.00000000E+00  0.00000000E+00
  0.00000000E+00  0.00000000E+00  0.00000000E+00
  0.00000000E+00  0.00000000E+00  0.00000000E+00
  0.00000000E+00  0.00000000E+00  0.00000000E+00
  0.00000000E+00  0.00000000E+00  0.00000000E+00
  0.00000000E+00  0.00000000E+00  0.00000000E+00
  0.00000000E+00  0.00000000E+00  0.00000000E+00
  0.00000000E+00  0.00000000E+00  0.00000000E+00
  0.00000000E+00  0.00000000E+00  0.00000000E+00
  0.00000000E+00  0.00000000E+00  0.00000000E+00
  0.00000000E+00  0.00000000E+00  0.00000000E+00
  0.00000000E+00  0.00000000E+00  0.00000000E+00
  0.00000000E+00  0.00000000E+00  0.00000000E+00
  0.00000000E+00  0.00000000E+00  0.00000000E+00
  0.00000000E+00  0.00000000E+00  0.00000000E+00
  0.00000000E+00  0.00000000E+00  0.00000000E+00
  0.00000000E+00  0.00000000E+00  0.00000000E+00
  0.00000000E+00  0.00000000E+00  0.00000000E+00
  0.00000000E+00  0.00000000E+00  0.00000000E+00
  0.00000000E+00  0.00000000E+00  0.00000000E+00
  0.00000000E+00  0.00000000E+00  0.00000000E+00
  0.00000000E+00  0.00000000E+00  0.00000000E+00
  0.00000000E+00  0.00000000E+00  0.00000000E+00
  0.00000000E+00  0.00000000E+00  0.00000000E+00
  0.00000000E+00  0.00000000E+00  0.00000000E+00
  0.00000000E+00  0.00000000E+00  0.00000000E+00
  0.00000000E+00  0.00000000E+00  0.00000000E+00
  0.00000000E+00  0.00000000E+00  0.00000000E+00
  0.00000000E+00  0.00000000E+00  0.00000000E+00
