CONTCAR                                 
   1.00000000000000     
    12.3312997818000003    0.0000000000000000    0.0000000000000000
     0.0001127485000000   12.8291997905000006    0.0000000000000000
     0.0005937186000000    0.0011528207000000   19.9943999824000009
   C    N    Fe   Ni   H 
    53     3     1     1     1
Direct
  0.0559815179475186  0.0554150345333918  0.0508249825153992
  0.1565061386238917  0.1105241116123007  0.0505027820559701
  0.1567429382391980  0.2213780810186963  0.0489931660627658
  0.0564457588805432  0.2762461541690916  0.0481418782153447
  0.2569194101932695  0.0554870921695008  0.0525352865326132
  0.3574131481649907  0.1109837361872063  0.0559958389736622
  0.3577200340000827  0.2230386675231814  0.0551292412743090
  0.2569977656849270  0.2772169684376991  0.0498995847871692
  0.4569811145335720  0.0544794044751211  0.0604936811697741
  0.5572319029554944  0.1113564686811372  0.0642349467455029
  0.5575203254130510  0.2239241231941604  0.0651381540064492
  0.4573161337310711  0.2811358993577880  0.0600543796700730
  0.6566303013598920  0.0515065470812102  0.0646271347184337
  0.7557168703137863  0.1100562720848779  0.0612133445685439
  0.7562119301574339  0.2228751241523678  0.0615411890694511
  0.6580248341492824  0.2829730711263943  0.0672586433205692
  0.8551970412461949  0.0539679560813702  0.0568072357350096
  0.9555618282167637  0.1099773917577169  0.0528939121693654
  0.9560426520599601  0.2212823647164597  0.0517047848607695
  0.8564290513132702  0.2775807472947519  0.0554779792765711
  0.0570572834117258  0.3873644249506647  0.0457947634554284
  0.1559949296859511  0.4433425808833447  0.0443914070331713
  0.1553349523862582  0.5545525897271164  0.0433505198697557
  0.0568314349049232  0.6107663187204615  0.0433841669011404
  0.2559216307504169  0.3883050485661237  0.0474242825120887
  0.3547195361491574  0.4445640256809252  0.0512708554477321
  0.3522557628700475  0.5574189837665589  0.0518891941719454
  0.2532633120870350  0.6116943507050333  0.0463425591565564
  0.7615439928313765  0.4484962963442043  0.0623753253557294
  0.8584287222141396  0.3892280640267667  0.0538206085878573
  0.9580635880019636  0.4434002662245332  0.0476774937508138
  0.9585215231212696  0.5545096182727981  0.0463888536979278
  0.8598954108158835  0.6092224614054534  0.0529301189362748
  0.0563234561013499  0.7218370929819152  0.0449131137237360
  0.1546272682655628  0.7784425533551209  0.0461464683512704
  0.1558309448942369  0.8893259461103731  0.0486500509206986
  0.0558531822364699  0.9445269218686250  0.0497651228072318
  0.2533103514008965  0.7224053036610685  0.0477102583036296
  0.3524486268459379  0.7764779910423659  0.0537298130127720
  0.3555800532882344  0.8878734114314385  0.0553395434238226
  0.2562599347383591  0.9442915835306450  0.0517408586654281
  0.4486663001676592  0.7171007615663887  0.0622494264046861
  0.5541221163647054  0.8815317092197549  0.0674456018814781
  0.4562308570954467  0.9421215855712749  0.0610390322666122
  0.7571451923020245  0.8820107277858602  0.0615242006620362
  0.6562250908033510  0.9383416947365193  0.0658928220181978
  0.8587184317470770  0.7222471117557938  0.0530709096182751
  0.9570902219493901  0.7774441668584372  0.0487089274612772
  0.9563681256056770  0.8885297902470447  0.0511873952737720
  0.8553928498110666  0.9417193630361331  0.0563629876399335
  0.4549704030192060  0.3928411995427719  0.0587082859362257
  0.6609924658985197  0.3947250338022408  0.0716685996797510
  0.5483539684848771  0.7706153811823940  0.0726076980771628
  0.4465477640684922  0.6088150393534310  0.0610180206548739
  0.7651462519446171  0.5574156306513747  0.0628553318978987
  0.7613076791137207  0.7728024674499373  0.0608466282698065
  0.6542395674175063  0.6654376337791499  0.0803055091238782
  0.5560913797126118  0.4965859055274541  0.0783473053443962
  0.6082847333086704  0.5769537800240572  0.1337777899769539
 
  0.00000000E+00  0.00000000E+00  0.00000000E+00
  0.00000000E+00  0.00000000E+00  0.00000000E+00
  0.00000000E+00  0.00000000E+00  0.00000000E+00
  0.00000000E+00  0.00000000E+00  0.00000000E+00
  0.00000000E+00  0.00000000E+00  0.00000000E+00
  0.00000000E+00  0.00000000E+00  0.00000000E+00
  0.00000000E+00  0.00000000E+00  0.00000000E+00
  0.00000000E+00  0.00000000E+00  0.00000000E+00
  0.00000000E+00  0.00000000E+00  0.00000000E+00
  0.00000000E+00  0.00000000E+00  0.00000000E+00
  0.00000000E+00  0.00000000E+00  0.00000000E+00
  0.00000000E+00  0.00000000E+00  0.00000000E+00
  0.00000000E+00  0.00000000E+00  0.00000000E+00
  0.00000000E+00  0.00000000E+00  0.00000000E+00
  0.00000000E+00  0.00000000E+00  0.00000000E+00
  0.00000000E+00  0.00000000E+00  0.00000000E+00
  0.00000000E+00  0.00000000E+00  0.00000000E+00
  0.00000000E+00  0.00000000E+00  0.00000000E+00
  0.00000000E+00  0.00000000E+00  0.00000000E+00
  0.00000000E+00  0.00000000E+00  0.00000000E+00
  0.00000000E+00  0.00000000E+00  0.00000000E+00
  0.00000000E+00  0.00000000E+00  0.00000000E+00
  0.00000000E+00  0.00000000E+00  0.00000000E+00
  0.00000000E+00  0.00000000E+00  0.00000000E+00
  0.00000000E+00  0.00000000E+00  0.00000000E+00
  0.00000000E+00  0.00000000E+00  0.00000000E+00
  0.00000000E+00  0.00000000E+00  0.00000000E+00
  0.00000000E+00  0.00000000E+00  0.00000000E+00
  0.00000000E+00  0.00000000E+00  0.00000000E+00
  0.00000000E+00  0.00000000E+00  0.00000000E+00
  0.00000000E+00  0.00000000E+00  0.00000000E+00
  0.00000000E+00  0.00000000E+00  0.00000000E+00
  0.00000000E+00  0.00000000E+00  0.00000000E+00
  0.00000000E+00  0.00000000E+00  0.00000000E+00
  0.00000000E+00  0.00000000E+00  0.00000000E+00
  0.00000000E+00  0.00000000E+00  0.00000000E+00
  0.00000000E+00  0.00000000E+00  0.00000000E+00
  0.00000000E+00  0.00000000E+00  0.00000000E+00
  0.00000000E+00  0.00000000E+00  0.00000000E+00
  0.00000000E+00  0.00000000E+00  0.00000000E+00
  0.00000000E+00  0.00000000E+00  0.00000000E+00
  0.00000000E+00  0.00000000E+00  0.00000000E+00
  0.00000000E+00  0.00000000E+00  0.00000000E+00
  0.00000000E+00  0.00000000E+00  0.00000000E+00
  0.00000000E+00  0.00000000E+00  0.00000000E+00
  0.00000000E+00  0.00000000E+00  0.00000000E+00
  0.00000000E+00  0.00000000E+00  0.00000000E+00
  0.00000000E+00  0.00000000E+00  0.00000000E+00
  0.00000000E+00  0.00000000E+00  0.00000000E+00
  0.00000000E+00  0.00000000E+00  0.00000000E+00
  0.00000000E+00  0.00000000E+00  0.00000000E+00
  0.00000000E+00  0.00000000E+00  0.00000000E+00
  0.00000000E+00  0.00000000E+00  0.00000000E+00
  0.00000000E+00  0.00000000E+00  0.00000000E+00
  0.00000000E+00  0.00000000E+00  0.00000000E+00
  0.00000000E+00  0.00000000E+00  0.00000000E+00
  0.00000000E+00  0.00000000E+00  0.00000000E+00
  0.00000000E+00  0.00000000E+00  0.00000000E+00
  0.00000000E+00  0.00000000E+00  0.00000000E+00
