0                                       
   1.00000000000000     
    12.3312997818000003    0.0000000000000000    0.0000000000000000
     0.0001127485000000   12.8291997905000006    0.0000000000000000
     0.0005937186000000    0.0011528207000000   19.9943999824000009
   C    Fe   Ni   O 
    56     1     1     1
Direct
  0.0557317778286401  0.0549591428247578  0.0519528435422664
  0.1560167642714928  0.1102210288316467  0.0513279130512098
  0.1558204572094287  0.2210252784783023  0.0506550664071007
  0.0556937044124563  0.2765837935419446  0.0496299977211174
  0.2564068261042702  0.0550346323615503  0.0521028819501282
  0.3564427534451322  0.1108841485348666  0.0551311223473319
  0.3563330261508337  0.2223424605442459  0.0559253476965665
  0.2558106845214425  0.2765344362336790  0.0520576520571961
  0.4562607487678884  0.0547913202341378  0.0578140006289738
  0.5561469604882456  0.1114407368009001  0.0615977198882524
  0.5560280041613257  0.2225453447604689  0.0638677740213282
  0.4561346122018819  0.2799672189070681  0.0612597658609319
  0.6561582353000456  0.0539671454878986  0.0620892841645655
  0.7559230466514739  0.1108131982772668  0.0601577114824613
  0.7558318930981157  0.2224270215364142  0.0596951253578201
  0.6560517661126906  0.2800780040216007  0.0644828334149614
  0.8553749014921380  0.0541186979258013  0.0571386241204644
  0.9553334391234845  0.1101123442898166  0.0536201617080163
  0.9553432353264115  0.2214746440422740  0.0521699734922696
  0.8556177592643869  0.2780118858493854  0.0546182134626921
  0.0558657096903270  0.3876676080134513  0.0476683836423688
  0.1555297882355595  0.4432924981419936  0.0473924484137793
  0.1563007405434901  0.5547672943760035  0.0466277575508851
  0.0569015376743031  0.6105630242549682  0.0466048842336393
  0.2551053622134336  0.3873228682197214  0.0503456050851875
  0.3544371486650899  0.4426986883188059  0.0538198578897491
  0.3557508764399858  0.5550166823015459  0.0509934766886333
  0.2559067814063869  0.6106944710627450  0.0475622314480207
  0.7559236963527124  0.4476824750776814  0.0572089526181609
  0.8560159215663303  0.3894521310254001  0.0521474203033762
  0.9561253676925034  0.4436941915384842  0.0479130910483978
  0.9572968025730749  0.5545699655042770  0.0473370527678286
  0.8583182160185184  0.6105524988992553  0.0511732322480072
  0.0566414136430000  0.7218359714358711  0.0479941515037142
  0.1561653277005444  0.7775096044431739  0.0478388696616940
  0.1561693885591365  0.8886295181503251  0.0495484046123022
  0.0559293378638307  0.9441591245560528  0.0516278704193628
  0.2560006397637006  0.7215835727262173  0.0476494219862540
  0.3557853761141358  0.7764199496314145  0.0500487196643135
  0.3564431001648616  0.8876680314402509  0.0515977633550122
  0.2564047613821880  0.9438554376588605  0.0506068310300779
  0.4561136284440825  0.7187235660859350  0.0538974580216666
  0.5564090957655242  0.8859993054332234  0.0594864401004600
  0.4564059808134526  0.9433870349091037  0.0560530752302119
  0.7554539863243496  0.8841387614032895  0.0628126296381209
  0.6564072015619329  0.9428065943328297  0.0625160225907843
  0.8578166315239893  0.7222820980179266  0.0559483975786643
  0.9568806809496594  0.7777417415365099  0.0520569247020755
  0.9560655487470304  0.8885023769034727  0.0540549056585642
  0.8552773179913713  0.9422279326806081  0.0580556918323140
  0.4540929942500149  0.3905553070733433  0.0624586336077803
  0.4555781312039271  0.6072140383052625  0.0561514125315802
  0.6583412772637097  0.3901845166234872  0.0681957425755300
  0.7585032134153922  0.5590573142704058  0.0559779886216528
  0.5544930260403429  0.7762855560744443  0.0595334347845114
  0.7566488932756300  0.7725284488113223  0.0650762000742225
  0.6459894336097973  0.6637032539353152  0.0843085628076167
  0.5563538833631106  0.4916040795361872  0.0886634673498039
  0.6232112862617798  0.5827298828068104  0.1498325747479988
 
  0.00000000E+00  0.00000000E+00  0.00000000E+00
  0.00000000E+00  0.00000000E+00  0.00000000E+00
  0.00000000E+00  0.00000000E+00  0.00000000E+00
  0.00000000E+00  0.00000000E+00  0.00000000E+00
  0.00000000E+00  0.00000000E+00  0.00000000E+00
  0.00000000E+00  0.00000000E+00  0.00000000E+00
  0.00000000E+00  0.00000000E+00  0.00000000E+00
  0.00000000E+00  0.00000000E+00  0.00000000E+00
  0.00000000E+00  0.00000000E+00  0.00000000E+00
  0.00000000E+00  0.00000000E+00  0.00000000E+00
  0.00000000E+00  0.00000000E+00  0.00000000E+00
  0.00000000E+00  0.00000000E+00  0.00000000E+00
  0.00000000E+00  0.00000000E+00  0.00000000E+00
  0.00000000E+00  0.00000000E+00  0.00000000E+00
  0.00000000E+00  0.00000000E+00  0.00000000E+00
  0.00000000E+00  0.00000000E+00  0.00000000E+00
  0.00000000E+00  0.00000000E+00  0.00000000E+00
  0.00000000E+00  0.00000000E+00  0.00000000E+00
  0.00000000E+00  0.00000000E+00  0.00000000E+00
  0.00000000E+00  0.00000000E+00  0.00000000E+00
  0.00000000E+00  0.00000000E+00  0.00000000E+00
  0.00000000E+00  0.00000000E+00  0.00000000E+00
  0.00000000E+00  0.00000000E+00  0.00000000E+00
  0.00000000E+00  0.00000000E+00  0.00000000E+00
  0.00000000E+00  0.00000000E+00  0.00000000E+00
  0.00000000E+00  0.00000000E+00  0.00000000E+00
  0.00000000E+00  0.00000000E+00  0.00000000E+00
  0.00000000E+00  0.00000000E+00  0.00000000E+00
  0.00000000E+00  0.00000000E+00  0.00000000E+00
  0.00000000E+00  0.00000000E+00  0.00000000E+00
  0.00000000E+00  0.00000000E+00  0.00000000E+00
  0.00000000E+00  0.00000000E+00  0.00000000E+00
  0.00000000E+00  0.00000000E+00  0.00000000E+00
  0.00000000E+00  0.00000000E+00  0.00000000E+00
  0.00000000E+00  0.00000000E+00  0.00000000E+00
  0.00000000E+00  0.00000000E+00  0.00000000E+00
  0.00000000E+00  0.00000000E+00  0.00000000E+00
  0.00000000E+00  0.00000000E+00  0.00000000E+00
  0.00000000E+00  0.00000000E+00  0.00000000E+00
  0.00000000E+00  0.00000000E+00  0.00000000E+00
  0.00000000E+00  0.00000000E+00  0.00000000E+00
  0.00000000E+00  0.00000000E+00  0.00000000E+00
  0.00000000E+00  0.00000000E+00  0.00000000E+00
  0.00000000E+00  0.00000000E+00  0.00000000E+00
  0.00000000E+00  0.00000000E+00  0.00000000E+00
  0.00000000E+00  0.00000000E+00  0.00000000E+00
  0.00000000E+00  0.00000000E+00  0.00000000E+00
  0.00000000E+00  0.00000000E+00  0.00000000E+00
  0.00000000E+00  0.00000000E+00  0.00000000E+00
  0.00000000E+00  0.00000000E+00  0.00000000E+00
  0.00000000E+00  0.00000000E+00  0.00000000E+00
  0.00000000E+00  0.00000000E+00  0.00000000E+00
  0.00000000E+00  0.00000000E+00  0.00000000E+00
  0.00000000E+00  0.00000000E+00  0.00000000E+00
  0.00000000E+00  0.00000000E+00  0.00000000E+00
  0.00000000E+00  0.00000000E+00  0.00000000E+00
  0.00000000E+00  0.00000000E+00  0.00000000E+00
  0.00000000E+00  0.00000000E+00  0.00000000E+00
  0.00000000E+00  0.00000000E+00  0.00000000E+00
