CONTCAR\(3)                             
   1.00000000000000     
    12.3312997818000003    0.0000000000000000    0.0000000000000000
     0.0001127485000000   12.8291997905000006    0.0000000000000000
     0.0005937186000000    0.0011528207000000   19.9943999824000009
   C    N    Fe   Ni   H 
    53     3     1     1     1
Direct
  0.0555411309837350  0.0544278125455925  0.0520260518604936
  0.1560006436567834  0.1102082236737042  0.0521215778485222
  0.1567931352701474  0.2209874398088754  0.0506709154227734
  0.0568062617625338  0.2756771804846503  0.0497791774348524
  0.2566148276557336  0.0560203961460402  0.0543065690297794
  0.3571183113187717  0.1121482184092973  0.0565883974124839
  0.3577347375781928  0.2240404316108692  0.0553573577774239
  0.2566989774433938  0.2772524331590677  0.0514092274180037
  0.4570440443199630  0.0565967545363017  0.0601209463418396
  0.5573958829794173  0.1138436219392840  0.0621871914666536
  0.5584112477082787  0.2270046727488812  0.0627130665146444
  0.4574020826782689  0.2832565293060305  0.0586492588150958
  0.6553385710109152  0.0530852316932827  0.0614453891296851
  0.7551379737700082  0.1097198848043002  0.0581478641771805
  0.7567778969024527  0.2226034339654846  0.0584560173717161
  0.6602786314604051  0.2839180012605375  0.0636496888805711
  0.8546247290081239  0.0532231381525092  0.0548804422305719
  0.9553330826383889  0.1089992015264761  0.0527249071939406
  0.9566920299370136  0.2202632994486088  0.0518031487514683
  0.8573968913554102  0.2764136394184145  0.0539818230586065
  0.0573576498634803  0.3868204697255961  0.0485684020668915
  0.1557273006113842  0.4435139105741205  0.0486002457548223
  0.1557128196112436  0.5550861447561561  0.0489409131481321
  0.0571007693370317  0.6102476279822037  0.0486793311035738
  0.2550895954844927  0.3882416188770382  0.0500520812994236
  0.3530152756309328  0.4448954369550795  0.0529465745889509
  0.3535870720652535  0.5575583258172901  0.0552425495594136
  0.2545633106965988  0.6120982523431956  0.0517619259539793
  0.7615828739750889  0.4453404906973391  0.0573691685705336
  0.8592053345763282  0.3876039768306242  0.0519831122484632
  0.9586115011034616  0.4422672239166733  0.0489203639803780
  0.9587448361761641  0.5528262029328177  0.0488546132976518
  0.8593328810780339  0.6058320419314035  0.0506187230636278
  0.0563889785308649  0.7216242206376525  0.0497637998139468
  0.1549927755396058  0.7781227190428289  0.0514345967786320
  0.1551331572461000  0.8891048654376719  0.0523657318849352
  0.0548734560339822  0.9433418518956603  0.0517984413885710
  0.2542826036285831  0.7227416070719552  0.0532809188556581
  0.3532763494163529  0.7780762983492197  0.0578595905807699
  0.3547080022049497  0.8895128741661565  0.0580022078430953
  0.2553908338033665  0.9449860123139450  0.0546540036753493
  0.4512450758302951  0.7211955555036451  0.0644874069061467
  0.5529024335903645  0.8840341634148451  0.0650605771365000
  0.4551388060366459  0.9442650732714982  0.0612873735000461
  0.7540595549566856  0.8823659806690047  0.0568522374220614
  0.6545330627889757  0.9399199833493206  0.0618351384557254
  0.8576769526318141  0.7184630585447733  0.0509378257701274
  0.9564860997877750  0.7757490272308775  0.0504338817307589
  0.9549170050465715  0.8869693223283314  0.0517162198855157
  0.8538646866009699  0.9409662567207788  0.0541611488746621
  0.4533817248358482  0.3944942705147710  0.0571669746708485
  0.4536949567957920  0.6089790306821390  0.0645253416663142
  0.7570402764573898  0.7699231378498158  0.0543505189532818
  0.6658723198346322  0.3927689524737715  0.0676796847935076
  0.7625044490349553  0.5538506681935444  0.0546063528826119
  0.5481958886165258  0.7769244395862511  0.0696739672629373
  0.6481536013370726  0.6664973448978260  0.0699090553685775
  0.5586132395548224  0.4962060292153484  0.0785193486665119
  0.6154413362116189  0.5735760666605887  0.1302106364607853
 
  0.00000000E+00  0.00000000E+00  0.00000000E+00
  0.00000000E+00  0.00000000E+00  0.00000000E+00
  0.00000000E+00  0.00000000E+00  0.00000000E+00
  0.00000000E+00  0.00000000E+00  0.00000000E+00
  0.00000000E+00  0.00000000E+00  0.00000000E+00
  0.00000000E+00  0.00000000E+00  0.00000000E+00
  0.00000000E+00  0.00000000E+00  0.00000000E+00
  0.00000000E+00  0.00000000E+00  0.00000000E+00
  0.00000000E+00  0.00000000E+00  0.00000000E+00
  0.00000000E+00  0.00000000E+00  0.00000000E+00
  0.00000000E+00  0.00000000E+00  0.00000000E+00
  0.00000000E+00  0.00000000E+00  0.00000000E+00
  0.00000000E+00  0.00000000E+00  0.00000000E+00
  0.00000000E+00  0.00000000E+00  0.00000000E+00
  0.00000000E+00  0.00000000E+00  0.00000000E+00
  0.00000000E+00  0.00000000E+00  0.00000000E+00
  0.00000000E+00  0.00000000E+00  0.00000000E+00
  0.00000000E+00  0.00000000E+00  0.00000000E+00
  0.00000000E+00  0.00000000E+00  0.00000000E+00
  0.00000000E+00  0.00000000E+00  0.00000000E+00
  0.00000000E+00  0.00000000E+00  0.00000000E+00
  0.00000000E+00  0.00000000E+00  0.00000000E+00
  0.00000000E+00  0.00000000E+00  0.00000000E+00
  0.00000000E+00  0.00000000E+00  0.00000000E+00
  0.00000000E+00  0.00000000E+00  0.00000000E+00
  0.00000000E+00  0.00000000E+00  0.00000000E+00
  0.00000000E+00  0.00000000E+00  0.00000000E+00
  0.00000000E+00  0.00000000E+00  0.00000000E+00
  0.00000000E+00  0.00000000E+00  0.00000000E+00
  0.00000000E+00  0.00000000E+00  0.00000000E+00
  0.00000000E+00  0.00000000E+00  0.00000000E+00
  0.00000000E+00  0.00000000E+00  0.00000000E+00
  0.00000000E+00  0.00000000E+00  0.00000000E+00
  0.00000000E+00  0.00000000E+00  0.00000000E+00
  0.00000000E+00  0.00000000E+00  0.00000000E+00
  0.00000000E+00  0.00000000E+00  0.00000000E+00
  0.00000000E+00  0.00000000E+00  0.00000000E+00
  0.00000000E+00  0.00000000E+00  0.00000000E+00
  0.00000000E+00  0.00000000E+00  0.00000000E+00
  0.00000000E+00  0.00000000E+00  0.00000000E+00
  0.00000000E+00  0.00000000E+00  0.00000000E+00
  0.00000000E+00  0.00000000E+00  0.00000000E+00
  0.00000000E+00  0.00000000E+00  0.00000000E+00
  0.00000000E+00  0.00000000E+00  0.00000000E+00
  0.00000000E+00  0.00000000E+00  0.00000000E+00
  0.00000000E+00  0.00000000E+00  0.00000000E+00
  0.00000000E+00  0.00000000E+00  0.00000000E+00
  0.00000000E+00  0.00000000E+00  0.00000000E+00
  0.00000000E+00  0.00000000E+00  0.00000000E+00
  0.00000000E+00  0.00000000E+00  0.00000000E+00
  0.00000000E+00  0.00000000E+00  0.00000000E+00
  0.00000000E+00  0.00000000E+00  0.00000000E+00
  0.00000000E+00  0.00000000E+00  0.00000000E+00
  0.00000000E+00  0.00000000E+00  0.00000000E+00
  0.00000000E+00  0.00000000E+00  0.00000000E+00
  0.00000000E+00  0.00000000E+00  0.00000000E+00
  0.00000000E+00  0.00000000E+00  0.00000000E+00
  0.00000000E+00  0.00000000E+00  0.00000000E+00
  0.00000000E+00  0.00000000E+00  0.00000000E+00
