CONTCAR\(3)                             
   1.00000000000000     
    12.3312997818000003    0.0000000000000000    0.0000000000000000
     0.0001127485000000   12.8291997905000006    0.0000000000000000
     0.0005937186000000    0.0011528207000000   19.9943999824000009
   C    N    Fe   Ni   O 
    53     3     1     1     1
Direct
  0.0565621229196001  0.0549371628552799  0.0505997651305511
  0.1567322120833134  0.1097150009472469  0.0503908309812340
  0.1555415347058313  0.2204525053195678  0.0485716308978934
  0.0554782684166865  0.2766473761368790  0.0473533115088812
  0.2577527018053905  0.0546247269193964  0.0524798645401805
  0.3579172497666694  0.1105407575153181  0.0561089317438252
  0.3565727395731453  0.2226873642504532  0.0550378716224713
  0.2551142087392717  0.2755591816693319  0.0493870002709814
  0.4580651702834621  0.0546163291014755  0.0606315839162631
  0.5570401026617351  0.1134154471222157  0.0642620185837964
  0.5564473275648716  0.2274081873589184  0.0652616140994686
  0.4545171116855120  0.2830479422544279  0.0600662004079132
  0.6567258754850487  0.0536726295377354  0.0645640567521838
  0.7558706072548192  0.1109797095402169  0.0608731914381848
  0.7563201442943058  0.2233936768691614  0.0607826457481967
  0.6585128413450243  0.2838925347520161  0.0666083905297363
  0.8558148682670511  0.0550186984930756  0.0565744835122855
  0.9560146013457371  0.1103192630077882  0.0525652939458921
  0.9558055096684313  0.2215805111081822  0.0512206916721350
  0.8561296991650641  0.2781338885817312  0.0551402033544739
  0.0548441680868784  0.3879518654215994  0.0441195039960762
  0.1538383601448883  0.4431049405767854  0.0422297790619103
  0.1540966753113481  0.5543569562236793  0.0407833424396832
  0.0552973461367402  0.6108598323529081  0.0415757892146576
  0.2529051589861998  0.3859423546154209  0.0460487722079006
  0.3509305163303780  0.4402633861407210  0.0504990956729738
  0.3514512492105013  0.5522863874026273  0.0503495938214047
  0.2535500073732583  0.6094920504058108  0.0437535731426779
  0.7572543905069399  0.4460546125348527  0.0614884460118079
  0.8565254185046233  0.3896468841387972  0.0534199164436405
  0.9554015438963003  0.4447814271218654  0.0461259023096598
  0.9557197892492129  0.5558411798503510  0.0447223526515101
  0.8559463487021846  0.6120228140932981  0.0507314335447216
  0.0568980322948323  0.7220569676125445  0.0432159451444729
  0.1565318959926441  0.7771376472442989  0.0448447575387959
  0.1574938844533331  0.8883173689468040  0.0479275752985862
  0.0573326973504983  0.9441464019365119  0.0493838214763750
  0.2558857732173826  0.7204807756909862  0.0463327217369808
  0.3560582573812946  0.7741735438989346  0.0534304922960047
  0.3579790776863739  0.8862697742661305  0.0549907224870119
  0.2579645491697505  0.9430777634772249  0.0513141190520989
  0.4545077341732955  0.7145854545966531  0.0611513857921296
  0.5575658829227162  0.8816748679028371  0.0661450497483574
  0.4581231082146050  0.9415281269371044  0.0608025712898749
  0.7589323958345349  0.8847164141847885  0.0631688480730658
  0.6576427024234603  0.9403414872784854  0.0660942536556495
  0.8589095963048262  0.7248028142160511  0.0531267303884260
  0.9578203878011373  0.7785969178629832  0.0477108882892798
  0.9575862441999933  0.8893392526914169  0.0510119929131261
  0.8569751467867125  0.9432762101476457  0.0566648172276112
  0.4496507174340661  0.6027288546593644  0.0623742574613072
  0.7571504100741692  0.5588382565073883  0.0597672444000074
  0.5533527851364871  0.7703116416908707  0.0688548575257803
  0.4483327187548204  0.3911858957164068  0.0585277699250548
  0.6630148440912031  0.3909374193094561  0.0710061663137732
  0.7631564802675842  0.7763331173631189  0.0648950286365730
  0.6618163235411525  0.6706592546988827  0.0969762508341356
  0.5512552131933020  0.4968236895780720  0.0832103938947151
  0.6088971428293944  0.5810924933659061  0.1488442594256222
 
  0.00000000E+00  0.00000000E+00  0.00000000E+00
  0.00000000E+00  0.00000000E+00  0.00000000E+00
  0.00000000E+00  0.00000000E+00  0.00000000E+00
  0.00000000E+00  0.00000000E+00  0.00000000E+00
  0.00000000E+00  0.00000000E+00  0.00000000E+00
  0.00000000E+00  0.00000000E+00  0.00000000E+00
  0.00000000E+00  0.00000000E+00  0.00000000E+00
  0.00000000E+00  0.00000000E+00  0.00000000E+00
  0.00000000E+00  0.00000000E+00  0.00000000E+00
  0.00000000E+00  0.00000000E+00  0.00000000E+00
  0.00000000E+00  0.00000000E+00  0.00000000E+00
  0.00000000E+00  0.00000000E+00  0.00000000E+00
  0.00000000E+00  0.00000000E+00  0.00000000E+00
  0.00000000E+00  0.00000000E+00  0.00000000E+00
  0.00000000E+00  0.00000000E+00  0.00000000E+00
  0.00000000E+00  0.00000000E+00  0.00000000E+00
  0.00000000E+00  0.00000000E+00  0.00000000E+00
  0.00000000E+00  0.00000000E+00  0.00000000E+00
  0.00000000E+00  0.00000000E+00  0.00000000E+00
  0.00000000E+00  0.00000000E+00  0.00000000E+00
  0.00000000E+00  0.00000000E+00  0.00000000E+00
  0.00000000E+00  0.00000000E+00  0.00000000E+00
  0.00000000E+00  0.00000000E+00  0.00000000E+00
  0.00000000E+00  0.00000000E+00  0.00000000E+00
  0.00000000E+00  0.00000000E+00  0.00000000E+00
  0.00000000E+00  0.00000000E+00  0.00000000E+00
  0.00000000E+00  0.00000000E+00  0.00000000E+00
  0.00000000E+00  0.00000000E+00  0.00000000E+00
  0.00000000E+00  0.00000000E+00  0.00000000E+00
  0.00000000E+00  0.00000000E+00  0.00000000E+00
  0.00000000E+00  0.00000000E+00  0.00000000E+00
  0.00000000E+00  0.00000000E+00  0.00000000E+00
  0.00000000E+00  0.00000000E+00  0.00000000E+00
  0.00000000E+00  0.00000000E+00  0.00000000E+00
  0.00000000E+00  0.00000000E+00  0.00000000E+00
  0.00000000E+00  0.00000000E+00  0.00000000E+00
  0.00000000E+00  0.00000000E+00  0.00000000E+00
  0.00000000E+00  0.00000000E+00  0.00000000E+00
  0.00000000E+00  0.00000000E+00  0.00000000E+00
  0.00000000E+00  0.00000000E+00  0.00000000E+00
  0.00000000E+00  0.00000000E+00  0.00000000E+00
  0.00000000E+00  0.00000000E+00  0.00000000E+00
  0.00000000E+00  0.00000000E+00  0.00000000E+00
  0.00000000E+00  0.00000000E+00  0.00000000E+00
  0.00000000E+00  0.00000000E+00  0.00000000E+00
  0.00000000E+00  0.00000000E+00  0.00000000E+00
  0.00000000E+00  0.00000000E+00  0.00000000E+00
  0.00000000E+00  0.00000000E+00  0.00000000E+00
  0.00000000E+00  0.00000000E+00  0.00000000E+00
  0.00000000E+00  0.00000000E+00  0.00000000E+00
  0.00000000E+00  0.00000000E+00  0.00000000E+00
  0.00000000E+00  0.00000000E+00  0.00000000E+00
  0.00000000E+00  0.00000000E+00  0.00000000E+00
  0.00000000E+00  0.00000000E+00  0.00000000E+00
  0.00000000E+00  0.00000000E+00  0.00000000E+00
  0.00000000E+00  0.00000000E+00  0.00000000E+00
  0.00000000E+00  0.00000000E+00  0.00000000E+00
  0.00000000E+00  0.00000000E+00  0.00000000E+00
  0.00000000E+00  0.00000000E+00  0.00000000E+00
