CONTCAR\(2)                             
   1.00000000000000     
    12.3312997818000003    0.0000000000000000    0.0000000000000000
     0.0001127485000000   12.8291997905000006    0.0000000000000000
     0.0005937186000000    0.0011528207000000   19.9943999824000009
   C    N    Fe   Ni   H 
    52     4     1     1     2
Direct
  0.0544589175399069  0.0533128448618366  0.0519511955377355
  0.1549167580810231  0.1089812451135471  0.0520760721912333
  0.1551617480541509  0.2196825567749640  0.0507473618021974
  0.0553891451100345  0.2749199030127378  0.0497670675492572
  0.2556294257537458  0.0549097303515219  0.0538978511035814
  0.3559318972427032  0.1110426061343218  0.0564629113375705
  0.3557230527836344  0.2228534385427769  0.0555393333877172
  0.2547442691993454  0.2757894565336858  0.0515499751843886
  0.4561908604008343  0.0560248628987341  0.0597170637014408
  0.5557163334612779  0.1142548447625245  0.0618977121364673
  0.5565651340598908  0.2286567912559986  0.0624862586651569
  0.4540624770529866  0.2833334608472745  0.0586843770648105
  0.6538625205345829  0.0533468881654789  0.0617417244880874
  0.7538282518297204  0.1097386372180360  0.0590315330336957
  0.7553391615174181  0.2226508626742759  0.0593171245637149
  0.6587652081783543  0.2847523829596736  0.0637514137528730
  0.8534634792932392  0.0526181819847873  0.0557486111060559
  0.9540970642731978  0.1082198679131051  0.0532190443011357
  0.9552523485310392  0.2196819706913380  0.0523370554529412
  0.8561767683739822  0.2763074025153612  0.0549464923800728
  0.0566022904128565  0.3859376680747682  0.0477555409976904
  0.1550374714706262  0.4426320749700574  0.0470680643479133
  0.1556304103150031  0.5537480372539364  0.0463701897748561
  0.0568285319596257  0.6094776315290252  0.0461646255065960
  0.2539823099014350  0.3866575302195479  0.0496055717471517
  0.3523900119265016  0.4416055458835061  0.0527063732272631
  0.3542755743955135  0.5545699246028747  0.0538092691814700
  0.2547713037196652  0.6096930358061979  0.0491570123849033
  0.7614701257524107  0.4459284054413813  0.0591136919325562
  0.8587555490051918  0.3875360734011148  0.0531359555509028
  0.9580534254782315  0.4417587272046086  0.0486777312120861
  0.9584852004717799  0.5523450387238406  0.0480240523290175
  0.8593698415797836  0.6058866805616473  0.0518721535739762
  0.0560812485714188  0.7205318682678142  0.0471831450535250
  0.1549288082475977  0.7766636353676152  0.0487641051889911
  0.1547073271116637  0.8877477443986792  0.0506171912205525
  0.0541243030535446  0.9422987074629212  0.0510503423203216
  0.2543637076960644  0.7208044763727433  0.0503526143719804
  0.3531348851295528  0.7767151840332331  0.0550143974469036
  0.3542687009466438  0.8883314753854956  0.0560439774614172
  0.2547376091635149  0.9436833378084221  0.0532695160440799
  0.4513437608460041  0.7199796522503534  0.0610534122871044
  0.5524788509639477  0.8835520419267969  0.0636168756721819
  0.4546255982768669  0.9433783370455296  0.0601042982342737
  0.7533023476934992  0.8813839930623818  0.0590324554789829
  0.6534736590081496  0.9395269505508553  0.0623205752031436
  0.8575908375126567  0.7178463601303617  0.0520335934085942
  0.9558724635484972  0.7749003174032005  0.0493977471025164
  0.9541508194203168  0.8862143178347930  0.0515475691759267
  0.8529851046581176  0.9402000085348393  0.0552611221219906
  0.4539103218578083  0.6078047886848393  0.0620720020111294
  0.7562742536176782  0.7686647838416528  0.0580386954456224
  0.4490776016950417  0.3906920112274951  0.0571503648599152
  0.6654388396690967  0.3937143187313413  0.0677052131308021
  0.7624346835409491  0.5543963950278558  0.0573183493343273
  0.5483039545093098  0.7755377280800275  0.0659774795458777
  0.6466276717593545  0.6662669831954200  0.0707865667340781
  0.5562623798565972  0.4978605856880091  0.0745078237915963
  0.6795017563080180  0.6834013647164984  0.1407193004852535
  0.6076015196783855  0.5749883440863637  0.1256908643623837
 
  0.00000000E+00  0.00000000E+00  0.00000000E+00
  0.00000000E+00  0.00000000E+00  0.00000000E+00
  0.00000000E+00  0.00000000E+00  0.00000000E+00
  0.00000000E+00  0.00000000E+00  0.00000000E+00
  0.00000000E+00  0.00000000E+00  0.00000000E+00
  0.00000000E+00  0.00000000E+00  0.00000000E+00
  0.00000000E+00  0.00000000E+00  0.00000000E+00
  0.00000000E+00  0.00000000E+00  0.00000000E+00
  0.00000000E+00  0.00000000E+00  0.00000000E+00
  0.00000000E+00  0.00000000E+00  0.00000000E+00
  0.00000000E+00  0.00000000E+00  0.00000000E+00
  0.00000000E+00  0.00000000E+00  0.00000000E+00
  0.00000000E+00  0.00000000E+00  0.00000000E+00
  0.00000000E+00  0.00000000E+00  0.00000000E+00
  0.00000000E+00  0.00000000E+00  0.00000000E+00
  0.00000000E+00  0.00000000E+00  0.00000000E+00
  0.00000000E+00  0.00000000E+00  0.00000000E+00
  0.00000000E+00  0.00000000E+00  0.00000000E+00
  0.00000000E+00  0.00000000E+00  0.00000000E+00
  0.00000000E+00  0.00000000E+00  0.00000000E+00
  0.00000000E+00  0.00000000E+00  0.00000000E+00
  0.00000000E+00  0.00000000E+00  0.00000000E+00
  0.00000000E+00  0.00000000E+00  0.00000000E+00
  0.00000000E+00  0.00000000E+00  0.00000000E+00
  0.00000000E+00  0.00000000E+00  0.00000000E+00
  0.00000000E+00  0.00000000E+00  0.00000000E+00
  0.00000000E+00  0.00000000E+00  0.00000000E+00
  0.00000000E+00  0.00000000E+00  0.00000000E+00
  0.00000000E+00  0.00000000E+00  0.00000000E+00
  0.00000000E+00  0.00000000E+00  0.00000000E+00
  0.00000000E+00  0.00000000E+00  0.00000000E+00
  0.00000000E+00  0.00000000E+00  0.00000000E+00
  0.00000000E+00  0.00000000E+00  0.00000000E+00
  0.00000000E+00  0.00000000E+00  0.00000000E+00
  0.00000000E+00  0.00000000E+00  0.00000000E+00
  0.00000000E+00  0.00000000E+00  0.00000000E+00
  0.00000000E+00  0.00000000E+00  0.00000000E+00
  0.00000000E+00  0.00000000E+00  0.00000000E+00
  0.00000000E+00  0.00000000E+00  0.00000000E+00
  0.00000000E+00  0.00000000E+00  0.00000000E+00
  0.00000000E+00  0.00000000E+00  0.00000000E+00
  0.00000000E+00  0.00000000E+00  0.00000000E+00
  0.00000000E+00  0.00000000E+00  0.00000000E+00
  0.00000000E+00  0.00000000E+00  0.00000000E+00
  0.00000000E+00  0.00000000E+00  0.00000000E+00
  0.00000000E+00  0.00000000E+00  0.00000000E+00
  0.00000000E+00  0.00000000E+00  0.00000000E+00
  0.00000000E+00  0.00000000E+00  0.00000000E+00
  0.00000000E+00  0.00000000E+00  0.00000000E+00
  0.00000000E+00  0.00000000E+00  0.00000000E+00
  0.00000000E+00  0.00000000E+00  0.00000000E+00
  0.00000000E+00  0.00000000E+00  0.00000000E+00
  0.00000000E+00  0.00000000E+00  0.00000000E+00
  0.00000000E+00  0.00000000E+00  0.00000000E+00
  0.00000000E+00  0.00000000E+00  0.00000000E+00
  0.00000000E+00  0.00000000E+00  0.00000000E+00
  0.00000000E+00  0.00000000E+00  0.00000000E+00
  0.00000000E+00  0.00000000E+00  0.00000000E+00
  0.00000000E+00  0.00000000E+00  0.00000000E+00
  0.00000000E+00  0.00000000E+00  0.00000000E+00
