CONTCAR                                 
   1.00000000000000     
    12.3312997818000003    0.0000000000000000    0.0000000000000000
     0.0001127485000000   12.8291997905000006    0.0000000000000000
     0.0005937186000000    0.0011528207000000   19.9943999824000009
   C    N    Fe   Ni
    54     2     1     1
Direct
  0.0559903204787402  0.0548829476181366  0.0557897821166836
  0.1562086628164907  0.1112074378420987  0.0558085461115071
  0.1574613826854194  0.2222313059107345  0.0557875912720113
  0.0573329323903557  0.2761215484557202  0.0557696133334151
  0.2560149161479353  0.0567015285206813  0.0558145891652453
  0.3565715329071628  0.1123507741860662  0.0557833796265841
  0.3579561869372728  0.2242392289784215  0.0557433711085535
  0.2577980424636406  0.2788150655186470  0.0557609014300274
  0.4556072115716496  0.0557865595106215  0.0557544522691549
  0.5562185912625519  0.1105862423305511  0.0557121431869472
  0.5571622435064764  0.2220765288114304  0.0557018814736717
  0.4584002882712550  0.2812919155011782  0.0556943486779684
  0.6550205534956648  0.0510835023428519  0.0556668737792274
  0.7556006082389660  0.1075875442196953  0.0556768226375406
  0.7571647312368013  0.2194672819324915  0.0556840479889811
  0.6581939273508099  0.2773247653177335  0.0556816624260522
  0.8550904411685250  0.0517723260338009  0.0556915930851707
  0.9555895451007734  0.1086462981549826  0.0557374509130373
  0.9569682280440547  0.2198619656137754  0.0557356024128765
  0.8574642941977009  0.2752103881088498  0.0556981446500126
  0.0584807082635969  0.3872160616570180  0.0557529731902196
  0.1577746467481703  0.4437242372791992  0.0557649623982498
  0.1572516793396907  0.5549220788070872  0.0557769763488909
  0.0577968926336629  0.6096577103091606  0.0557632293640821
  0.2580674440930155  0.3901834819057001  0.0557462026233847
  0.3585869373523700  0.4470427968627925  0.0556976663900148
  0.3578301230756857  0.5605038912995677  0.0557030895777310
  0.2564196131264965  0.6122447179118959  0.0557707689641968
  0.7605424119975110  0.4437913161813246  0.0556534213553154
  0.8596408784065940  0.3865087183052626  0.0556845371879621
  0.9589485991826163  0.4419982935821393  0.0557097158144060
  0.9583323432079208  0.5529572196568048  0.0557073043435854
  0.8587776703964097  0.6074477560513575  0.0556670230172309
  0.0565809853307252  0.7211248332772512  0.0557889641557527
  0.1545655028604556  0.7780588198294078  0.0558188224940989
  0.1547603781759788  0.8893164121655963  0.0558267253571969
  0.0550987324935340  0.9439069772959220  0.0557988012039877
  0.2533359558291982  0.7229493155307881  0.0557920389746661
  0.3511694714874808  0.7792952617711383  0.0557546571707370
  0.3533729813824232  0.8902007064909401  0.0557740070214599
  0.2544463454618136  0.9456199142280470  0.0558227523337712
  0.4489681690493303  0.7237999620359430  0.0556764262862308
  0.5511078252445003  0.8848452631032188  0.0556525173571701
  0.4538243391300634  0.9443183942147007  0.0557321190364501
  0.7537964873152152  0.8805693436139620  0.0556319092453960
  0.6537365659001791  0.9386520757052018  0.0556341186407570
  0.8592277524428825  0.7195607959001100  0.0556655739380812
  0.9572059704838983  0.7762427875907593  0.0557423110868963
  0.9554085793635647  0.8871635897119337  0.0557480674161882
  0.8540588239636957  0.9398288735424931  0.0556811008358688
  0.4579787395546679  0.3931493669386998  0.0556646617456514
  0.6623071728093112  0.3867176732891051  0.0556515576604309
  0.7567515980367304  0.5563654738855233  0.0556443347543458
  0.7577779324399906  0.7686179198346439  0.0556217446998538
  0.4541466428039067  0.6158642647360280  0.0556491116052544
  0.5449368472268330  0.7776582203113284  0.0556281064140737
  0.6427142542196840  0.6670154241725178  0.0556101797019641
  0.5678272928979461  0.4923148551069607  0.0556187256237291
 
  0.00000000E+00  0.00000000E+00  0.00000000E+00
  0.00000000E+00  0.00000000E+00  0.00000000E+00
  0.00000000E+00  0.00000000E+00  0.00000000E+00
  0.00000000E+00  0.00000000E+00  0.00000000E+00
  0.00000000E+00  0.00000000E+00  0.00000000E+00
  0.00000000E+00  0.00000000E+00  0.00000000E+00
  0.00000000E+00  0.00000000E+00  0.00000000E+00
  0.00000000E+00  0.00000000E+00  0.00000000E+00
  0.00000000E+00  0.00000000E+00  0.00000000E+00
  0.00000000E+00  0.00000000E+00  0.00000000E+00
  0.00000000E+00  0.00000000E+00  0.00000000E+00
  0.00000000E+00  0.00000000E+00  0.00000000E+00
  0.00000000E+00  0.00000000E+00  0.00000000E+00
  0.00000000E+00  0.00000000E+00  0.00000000E+00
  0.00000000E+00  0.00000000E+00  0.00000000E+00
  0.00000000E+00  0.00000000E+00  0.00000000E+00
  0.00000000E+00  0.00000000E+00  0.00000000E+00
  0.00000000E+00  0.00000000E+00  0.00000000E+00
  0.00000000E+00  0.00000000E+00  0.00000000E+00
  0.00000000E+00  0.00000000E+00  0.00000000E+00
  0.00000000E+00  0.00000000E+00  0.00000000E+00
  0.00000000E+00  0.00000000E+00  0.00000000E+00
  0.00000000E+00  0.00000000E+00  0.00000000E+00
  0.00000000E+00  0.00000000E+00  0.00000000E+00
  0.00000000E+00  0.00000000E+00  0.00000000E+00
  0.00000000E+00  0.00000000E+00  0.00000000E+00
  0.00000000E+00  0.00000000E+00  0.00000000E+00
  0.00000000E+00  0.00000000E+00  0.00000000E+00
  0.00000000E+00  0.00000000E+00  0.00000000E+00
  0.00000000E+00  0.00000000E+00  0.00000000E+00
  0.00000000E+00  0.00000000E+00  0.00000000E+00
  0.00000000E+00  0.00000000E+00  0.00000000E+00
  0.00000000E+00  0.00000000E+00  0.00000000E+00
  0.00000000E+00  0.00000000E+00  0.00000000E+00
  0.00000000E+00  0.00000000E+00  0.00000000E+00
  0.00000000E+00  0.00000000E+00  0.00000000E+00
  0.00000000E+00  0.00000000E+00  0.00000000E+00
  0.00000000E+00  0.00000000E+00  0.00000000E+00
  0.00000000E+00  0.00000000E+00  0.00000000E+00
  0.00000000E+00  0.00000000E+00  0.00000000E+00
  0.00000000E+00  0.00000000E+00  0.00000000E+00
  0.00000000E+00  0.00000000E+00  0.00000000E+00
  0.00000000E+00  0.00000000E+00  0.00000000E+00
  0.00000000E+00  0.00000000E+00  0.00000000E+00
  0.00000000E+00  0.00000000E+00  0.00000000E+00
  0.00000000E+00  0.00000000E+00  0.00000000E+00
  0.00000000E+00  0.00000000E+00  0.00000000E+00
  0.00000000E+00  0.00000000E+00  0.00000000E+00
  0.00000000E+00  0.00000000E+00  0.00000000E+00
  0.00000000E+00  0.00000000E+00  0.00000000E+00
  0.00000000E+00  0.00000000E+00  0.00000000E+00
  0.00000000E+00  0.00000000E+00  0.00000000E+00
  0.00000000E+00  0.00000000E+00  0.00000000E+00
  0.00000000E+00  0.00000000E+00  0.00000000E+00
  0.00000000E+00  0.00000000E+00  0.00000000E+00
  0.00000000E+00  0.00000000E+00  0.00000000E+00
  0.00000000E+00  0.00000000E+00  0.00000000E+00
  0.00000000E+00  0.00000000E+00  0.00000000E+00
