1h\(2)                                  
   1.00000000000000     
    12.3312997818000003    0.0000000000000000    0.0000000000000000
     0.0001127485000000   12.8291997905000006    0.0000000000000000
     0.0005937186000000    0.0011528207000000   19.9943999824000009
   C    N    Fe   Ni
    53     3     1     1
Direct
  0.0559467652883226  0.0541869319331788  0.0550901709373080
  0.1564534399842501  0.1102348365677490  0.0548633018293879
  0.1572173081043959  0.2211840935492086  0.0542282307488946
  0.0573545130873524  0.2757248603022449  0.0537809336387527
  0.2568469016541453  0.0560223273950844  0.0555376798295168
  0.3572199154173920  0.1126861375519161  0.0563296644901371
  0.3579171992105871  0.2244940004479341  0.0560108468350569
  0.2570882142647778  0.2780731498388935  0.0545804958284868
  0.4570014562516757  0.0571362630258937  0.0574288327823677
  0.5575597155413521  0.1139173121072084  0.0580667375538953
  0.5587703730570450  0.2266368127614113  0.0579261448953227
  0.4581259647230981  0.2832147873570230  0.0570532185541678
  0.6560146252537744  0.0539003646341011  0.0583475367726141
  0.7559674522416675  0.1101173431270939  0.0575761192057259
  0.7574309684229169  0.2224080057423453  0.0572169531699162
  0.6601405329731446  0.2830414956853874  0.0579419048775484
  0.8550833623330631  0.0529993806757327  0.0567526269235755
  0.9558063674839355  0.1086930835450479  0.0555093825887265
  0.9572514245437996  0.2199005910016359  0.0548428643361777
  0.8582937011403096  0.2759528749061396  0.0557155224517785
  0.0579444863636339  0.3867870629634571  0.0529765624361950
  0.1563346073009989  0.4437460851796603  0.0527626887048484
  0.1558929547807040  0.5548689942950404  0.0526342478068098
  0.0568433850689111  0.6102441607846766  0.0527825655440158
  0.2557247243620611  0.3891603176331840  0.0539431410189506
  0.3545196411866181  0.4460752923207827  0.0551982743125660
  0.3543448308167603  0.5583018671373109  0.0551364012671096
  0.2546187250344615  0.6121338846254621  0.0536945851194488
  0.7628699352933872  0.4442994092919618  0.0571258335585442
  0.8604169550669988  0.3868361730624292  0.0552992714766880
  0.9592734145517808  0.4421786222904547  0.0536361440448245
  0.9581894125186171  0.5528392121968505  0.0535995335569325
  0.8582270780629273  0.6054054059532959  0.0558010862843020
  0.0557534820529125  0.7211787388141778  0.0534974334184327
  0.1544288061526737  0.7780471733193353  0.0538489188264419
  0.1552731460204184  0.8889219069650587  0.0546720876038269
  0.0549827226059935  0.9431786150953027  0.0550342650699747
  0.2534892978441829  0.7228576673058104  0.0541970980278611
  0.3529257274131006  0.7774605565636353  0.0558228318359365
  0.3553820947430117  0.8891374477863145  0.0563068078511527
  0.2557688491064827  0.9446817572942124  0.0554515902676906
  0.4508941082822893  0.7190938937660337  0.0572436638222704
  0.5535121876033225  0.8863314411317286  0.0588310607406549
  0.4556240031210150  0.9451071649362922  0.0575773339703914
  0.7539004601918546  0.8823267374623069  0.0583697213642324
  0.6549838398385640  0.9417116055962271  0.0588575353797171
  0.8565043909663672  0.7179086417179857  0.0562838034591758
  0.9556022739149842  0.7751810043647334  0.0549201721556532
  0.9548758914930839  0.8865695474308396  0.0556034642159900
  0.8539083061372872  0.9406334794752279  0.0570038719454780
  0.4536950687613014  0.3937193308980216  0.0568308276538895
  0.5498871913559110  0.7759181690241749  0.0593257324711613
  0.7555214355061725  0.7693433560271806  0.0584834989065487
  0.4515683665550029  0.6095052646647032  0.0568971826208230
  0.6653931097740962  0.3917587494008131  0.0581285608647043
  0.7613064976880780  0.5517890635597228  0.0579061944149793
  0.6426339566588427  0.6664852624852470  0.0608244198065765
  0.5627044788281900  0.4950625230250956  0.0577924149258538
 
  0.00000000E+00  0.00000000E+00  0.00000000E+00
  0.00000000E+00  0.00000000E+00  0.00000000E+00
  0.00000000E+00  0.00000000E+00  0.00000000E+00
  0.00000000E+00  0.00000000E+00  0.00000000E+00
  0.00000000E+00  0.00000000E+00  0.00000000E+00
  0.00000000E+00  0.00000000E+00  0.00000000E+00
  0.00000000E+00  0.00000000E+00  0.00000000E+00
  0.00000000E+00  0.00000000E+00  0.00000000E+00
  0.00000000E+00  0.00000000E+00  0.00000000E+00
  0.00000000E+00  0.00000000E+00  0.00000000E+00
  0.00000000E+00  0.00000000E+00  0.00000000E+00
  0.00000000E+00  0.00000000E+00  0.00000000E+00
  0.00000000E+00  0.00000000E+00  0.00000000E+00
  0.00000000E+00  0.00000000E+00  0.00000000E+00
  0.00000000E+00  0.00000000E+00  0.00000000E+00
  0.00000000E+00  0.00000000E+00  0.00000000E+00
  0.00000000E+00  0.00000000E+00  0.00000000E+00
  0.00000000E+00  0.00000000E+00  0.00000000E+00
  0.00000000E+00  0.00000000E+00  0.00000000E+00
  0.00000000E+00  0.00000000E+00  0.00000000E+00
  0.00000000E+00  0.00000000E+00  0.00000000E+00
  0.00000000E+00  0.00000000E+00  0.00000000E+00
  0.00000000E+00  0.00000000E+00  0.00000000E+00
  0.00000000E+00  0.00000000E+00  0.00000000E+00
  0.00000000E+00  0.00000000E+00  0.00000000E+00
  0.00000000E+00  0.00000000E+00  0.00000000E+00
  0.00000000E+00  0.00000000E+00  0.00000000E+00
  0.00000000E+00  0.00000000E+00  0.00000000E+00
  0.00000000E+00  0.00000000E+00  0.00000000E+00
  0.00000000E+00  0.00000000E+00  0.00000000E+00
  0.00000000E+00  0.00000000E+00  0.00000000E+00
  0.00000000E+00  0.00000000E+00  0.00000000E+00
  0.00000000E+00  0.00000000E+00  0.00000000E+00
  0.00000000E+00  0.00000000E+00  0.00000000E+00
  0.00000000E+00  0.00000000E+00  0.00000000E+00
  0.00000000E+00  0.00000000E+00  0.00000000E+00
  0.00000000E+00  0.00000000E+00  0.00000000E+00
  0.00000000E+00  0.00000000E+00  0.00000000E+00
  0.00000000E+00  0.00000000E+00  0.00000000E+00
  0.00000000E+00  0.00000000E+00  0.00000000E+00
  0.00000000E+00  0.00000000E+00  0.00000000E+00
  0.00000000E+00  0.00000000E+00  0.00000000E+00
  0.00000000E+00  0.00000000E+00  0.00000000E+00
  0.00000000E+00  0.00000000E+00  0.00000000E+00
  0.00000000E+00  0.00000000E+00  0.00000000E+00
  0.00000000E+00  0.00000000E+00  0.00000000E+00
  0.00000000E+00  0.00000000E+00  0.00000000E+00
  0.00000000E+00  0.00000000E+00  0.00000000E+00
  0.00000000E+00  0.00000000E+00  0.00000000E+00
  0.00000000E+00  0.00000000E+00  0.00000000E+00
  0.00000000E+00  0.00000000E+00  0.00000000E+00
  0.00000000E+00  0.00000000E+00  0.00000000E+00
  0.00000000E+00  0.00000000E+00  0.00000000E+00
  0.00000000E+00  0.00000000E+00  0.00000000E+00
  0.00000000E+00  0.00000000E+00  0.00000000E+00
  0.00000000E+00  0.00000000E+00  0.00000000E+00
  0.00000000E+00  0.00000000E+00  0.00000000E+00
  0.00000000E+00  0.00000000E+00  0.00000000E+00
