CONTCAR\(6)                             
   1.00000000000000     
    12.3312997818000003    0.0000000000000000    0.0000000000000000
     0.0001127485000000   12.8291997905000006    0.0000000000000000
     0.0005937186000000    0.0011528207000000   19.9943999824000009
   C    Fe   Ni   O    H 
    56     1     1     2     2
Direct
  0.0572550381803564  0.0480007527362138  0.0462318856361075
  0.1576663744053955  0.1028753983481184  0.0458712816012763
  0.1570734231444093  0.2136818056279702  0.0452196774177864
  0.0567108449416881  0.2695859716602731  0.0448104988851809
  0.2581258486523275  0.0474896216923495  0.0475670953698014
  0.3580476480018036  0.1032221824888699  0.0510633252704815
  0.3576750580231296  0.2148628245638675  0.0511174804799080
  0.2568904947568826  0.2689629899747177  0.0468248386681473
  0.4579063830807731  0.0468030949346382  0.0554628872088871
  0.5574686421245724  0.1038430287623232  0.0595104176144847
  0.5572134289440922  0.2154462266186097  0.0610904651926712
  0.4572411822583516  0.2727293006011982  0.0571272826222397
  0.6574686580240071  0.0467913947556295  0.0608194775848138
  0.7572777414556067  0.1036334763709558  0.0575501814244385
  0.7569440980662878  0.2151464529321447  0.0577658980774050
  0.6572965450245817  0.2724572479467632  0.0633263252837420
  0.8572157850131281  0.0477429992302032  0.0529470064520796
  0.9568990948956829  0.1034738684231492  0.0486359120901730
  0.9563711544003212  0.2148248789516574  0.0480008948221818
  0.8566189553200652  0.2711488489515529  0.0521997767244902
  0.0562808379015577  0.3805370530857009  0.0432030916914660
  0.1559228227656530  0.4360823251861264  0.0428615561535732
  0.1563239691745769  0.5473883886985494  0.0420900857095681
  0.0571334508114051  0.6034153566471462  0.0414195635010564
  0.2553863066179859  0.3798438081738683  0.0460185265921148
  0.3538553422959217  0.4354025789748407  0.0513622475237080
  0.3542857719493336  0.5472617021954980  0.0515561879401891
  0.2558642354427715  0.6031959784530950  0.0450611088717732
  0.7570029814596874  0.4410780930181114  0.0600595459420513
  0.8565448016612004  0.3827403391678786  0.0511501875932010
  0.9565290587812716  0.4366674867355683  0.0449308237377276
  0.9573803182563527  0.5475722521538720  0.0438844242019475
  0.8584963732577835  0.6034288898689461  0.0501017119898165
  0.0581088699389408  0.7146925564338602  0.0420313678251099
  0.1579955727527454  0.7703059399504681  0.0427070094916939
  0.1580318205416029  0.8813538330138220  0.0442004004406456
  0.0577463005694165  0.9372184831308285  0.0454516463122569
  0.2575068682895930  0.7141531165807657  0.0448222886885247
  0.3579866353624327  0.7679682148877316  0.0495983854308892
  0.3582567141077491  0.8793850287596354  0.0502601644566266
  0.2584417969909042  0.9360627278300757  0.0467931701126758
  0.4570615818783413  0.7087756856843277  0.0587058574448441
  0.5578204391919349  0.8774318219768649  0.0629701694903651
  0.4582387837764015  0.9350136004597193  0.0558353505784050
  0.7586894008586060  0.8790480389880146  0.0616320302010326
  0.6578673057302757  0.9351881049608664  0.0636138767338120
  0.8602448833423492  0.7153960582076259  0.0520606896686523
  0.9587201797329763  0.7709736049147666  0.0458460420222013
  0.9579853602870425  0.8818889861015635  0.0478907569241445
  0.8577766639631489  0.9363761355167882  0.0534663027059037
  0.6592108264495854  0.3825891519551929  0.0701043896187065
  0.7582851472383482  0.5529298670461427  0.0602509041943508
  0.4545095807261206  0.3835137695507910  0.0591365519041935
  0.4545240465113850  0.5971773213644860  0.0628513085759345
  0.5553635117013518  0.7664270471949788  0.0682236934434974
  0.7620488951023935  0.7686674600818656  0.0657738780313490
  0.6610328644786966  0.6774230129619658  0.1085321312994609
  0.5543593185361281  0.4804659004771772  0.0891055003442740
  0.6274310957642524  0.5520421100313506  0.1628956530901411
  0.6553833379230718  0.7506205976153133  0.1863476837306276
  0.6605147944389410  0.8262494497797550  0.1813059388573998
  0.5839047177262776  0.5798456736128731  0.1996751825078377
 
  0.00000000E+00  0.00000000E+00  0.00000000E+00
  0.00000000E+00  0.00000000E+00  0.00000000E+00
  0.00000000E+00  0.00000000E+00  0.00000000E+00
  0.00000000E+00  0.00000000E+00  0.00000000E+00
  0.00000000E+00  0.00000000E+00  0.00000000E+00
  0.00000000E+00  0.00000000E+00  0.00000000E+00
  0.00000000E+00  0.00000000E+00  0.00000000E+00
  0.00000000E+00  0.00000000E+00  0.00000000E+00
  0.00000000E+00  0.00000000E+00  0.00000000E+00
  0.00000000E+00  0.00000000E+00  0.00000000E+00
  0.00000000E+00  0.00000000E+00  0.00000000E+00
  0.00000000E+00  0.00000000E+00  0.00000000E+00
  0.00000000E+00  0.00000000E+00  0.00000000E+00
  0.00000000E+00  0.00000000E+00  0.00000000E+00
  0.00000000E+00  0.00000000E+00  0.00000000E+00
  0.00000000E+00  0.00000000E+00  0.00000000E+00
  0.00000000E+00  0.00000000E+00  0.00000000E+00
  0.00000000E+00  0.00000000E+00  0.00000000E+00
  0.00000000E+00  0.00000000E+00  0.00000000E+00
  0.00000000E+00  0.00000000E+00  0.00000000E+00
  0.00000000E+00  0.00000000E+00  0.00000000E+00
  0.00000000E+00  0.00000000E+00  0.00000000E+00
  0.00000000E+00  0.00000000E+00  0.00000000E+00
  0.00000000E+00  0.00000000E+00  0.00000000E+00
  0.00000000E+00  0.00000000E+00  0.00000000E+00
  0.00000000E+00  0.00000000E+00  0.00000000E+00
  0.00000000E+00  0.00000000E+00  0.00000000E+00
  0.00000000E+00  0.00000000E+00  0.00000000E+00
  0.00000000E+00  0.00000000E+00  0.00000000E+00
  0.00000000E+00  0.00000000E+00  0.00000000E+00
  0.00000000E+00  0.00000000E+00  0.00000000E+00
  0.00000000E+00  0.00000000E+00  0.00000000E+00
  0.00000000E+00  0.00000000E+00  0.00000000E+00
  0.00000000E+00  0.00000000E+00  0.00000000E+00
  0.00000000E+00  0.00000000E+00  0.00000000E+00
  0.00000000E+00  0.00000000E+00  0.00000000E+00
  0.00000000E+00  0.00000000E+00  0.00000000E+00
  0.00000000E+00  0.00000000E+00  0.00000000E+00
  0.00000000E+00  0.00000000E+00  0.00000000E+00
  0.00000000E+00  0.00000000E+00  0.00000000E+00
  0.00000000E+00  0.00000000E+00  0.00000000E+00
  0.00000000E+00  0.00000000E+00  0.00000000E+00
  0.00000000E+00  0.00000000E+00  0.00000000E+00
  0.00000000E+00  0.00000000E+00  0.00000000E+00
  0.00000000E+00  0.00000000E+00  0.00000000E+00
  0.00000000E+00  0.00000000E+00  0.00000000E+00
  0.00000000E+00  0.00000000E+00  0.00000000E+00
  0.00000000E+00  0.00000000E+00  0.00000000E+00
  0.00000000E+00  0.00000000E+00  0.00000000E+00
  0.00000000E+00  0.00000000E+00  0.00000000E+00
  0.00000000E+00  0.00000000E+00  0.00000000E+00
  0.00000000E+00  0.00000000E+00  0.00000000E+00
  0.00000000E+00  0.00000000E+00  0.00000000E+00
  0.00000000E+00  0.00000000E+00  0.00000000E+00
  0.00000000E+00  0.00000000E+00  0.00000000E+00
  0.00000000E+00  0.00000000E+00  0.00000000E+00
  0.00000000E+00  0.00000000E+00  0.00000000E+00
  0.00000000E+00  0.00000000E+00  0.00000000E+00
  0.00000000E+00  0.00000000E+00  0.00000000E+00
  0.00000000E+00  0.00000000E+00  0.00000000E+00
  0.00000000E+00  0.00000000E+00  0.00000000E+00
  0.00000000E+00  0.00000000E+00  0.00000000E+00
