CONTCAR\(3)                             
   1.00000000000000     
    12.3312997818000003    0.0000000000000000    0.0000000000000000
     0.0001127485000000   12.8291997905000006    0.0000000000000000
     0.0005937186000000    0.0011528207000000   19.9943999824000009
   C    N    Fe   Ni   O    H 
    55     1     1     1     2     2
Direct
  0.0554846255869224  0.0524867614037425  0.0454713002002636
  0.1558080800247625  0.1075982387868245  0.0455454458096550
  0.1559072710451001  0.2185782540857023  0.0450537858457291
  0.0559421482908889  0.2741593693912215  0.0446756791457133
  0.2562143563044795  0.0524517056073538  0.0472519100680673
  0.3562316697138933  0.1084711608796570  0.0494518099620836
  0.3563193341489204  0.2198744982606431  0.0493502710457709
  0.2559215369854535  0.2743026398153897  0.0464386854687981
  0.4561440837960758  0.0530382634503277  0.0525200045855625
  0.5562324068777474  0.1098736103432972  0.0546139035033591
  0.5564995306879521  0.2210112536841388  0.0560507370985686
  0.4562068213592320  0.2770187043654383  0.0539340487151225
  0.6560977609914707  0.0525127059861056  0.0544605985577151
  0.7555436373675842  0.1092424056210967  0.0517782086711762
  0.7555008707369801  0.2213075472550130  0.0520224819658466
  0.6562173484729161  0.2798559883170409  0.0566914208209272
  0.8551204542986340  0.0526200240994060  0.0489002326165880
  0.9553218433830286  0.1081381493932056  0.0464190903631641
  0.9554884441493184  0.2194895619359472  0.0461189016722266
  0.8555412736236754  0.2760013779691367  0.0487588735848076
  0.0565931942439862  0.3853318377096028  0.0443671407517846
  0.1558606106697837  0.4411334657105918  0.0448916851037139
  0.1565722718187489  0.5526011492063490  0.0453451510407930
  0.0568676692505001  0.6081091297831640  0.0445670846870084
  0.2555626581992329  0.3852554262348804  0.0464898229677138
  0.3548044284281410  0.4407312385841133  0.0508865084117872
  0.3565007918572474  0.5530779156048224  0.0531241652533871
  0.2562764309016849  0.6084984691133171  0.0484166712276638
  0.7576723309866715  0.4466005427888203  0.0547760042734511
  0.8564282351129406  0.3874322296737031  0.0489002239819663
  0.9569103291774510  0.4411172975965170  0.0457333092194381
  0.9576899140693738  0.5516903601492537  0.0456296006248828
  0.8572647973146218  0.6052668394558604  0.0494412024501096
  0.0563493605662602  0.7193119072422800  0.0449665739015850
  0.1557240362580973  0.7749390837500538  0.0461361849914771
  0.1557838523398943  0.8860698866080275  0.0461727871685367
  0.0554330618981286  0.9413288030546141  0.0455979322311613
  0.2558701393356914  0.7192697088370963  0.0487359747878312
  0.3555972276716289  0.7739315150113875  0.0524372763483224
  0.3562193430976875  0.8854021340484588  0.0510857757998144
  0.2561041519806098  0.9412711801122955  0.0477853363918153
  0.4557950089902876  0.7163647704040639  0.0593220667125528
  0.5557041296895060  0.8845936436960521  0.0576935765349499
  0.4558609981139538  0.9415542792570974  0.0535758135642776
  0.7552322058992021  0.8836078908629020  0.0535327806375760
  0.6559877785154040  0.9412993388256113  0.0560456430519981
  0.8562147194208972  0.7181924856846048  0.0490983013001868
  0.9559233204556161  0.7742542910664328  0.0460205339387462
  0.9553827094199761  0.8855756283740865  0.0465090584566633
  0.8550412177577852  0.9406926181033934  0.0491230281957128
  0.4536636594407715  0.3870858453645742  0.0566354306722406
  0.6578875780334850  0.3906894773840665  0.0621540075581934
  0.5537374908109228  0.7752608368870749  0.0627366557795007
  0.7567999265082033  0.7724770467732746  0.0550742987392765
  0.4557968051004841  0.6047516538901226  0.0625644553020239
  0.7611847997116337  0.5545245896744175  0.0556395126640514
  0.6552490705293790  0.6733070934767262  0.0889309645252918
  0.5508855742391612  0.4800124597034816  0.0956303300249434
  0.5680098514194646  0.5227514399805034  0.1792551464321339
  0.6866949513257542  0.6911095437593192  0.1793531784470029
  0.7034681817529679  0.7616656965365305  0.1938851544135474
  0.5960517578417277  0.5911069903697894  0.1943662787337234
 
  0.00000000E+00  0.00000000E+00  0.00000000E+00
  0.00000000E+00  0.00000000E+00  0.00000000E+00
  0.00000000E+00  0.00000000E+00  0.00000000E+00
  0.00000000E+00  0.00000000E+00  0.00000000E+00
  0.00000000E+00  0.00000000E+00  0.00000000E+00
  0.00000000E+00  0.00000000E+00  0.00000000E+00
  0.00000000E+00  0.00000000E+00  0.00000000E+00
  0.00000000E+00  0.00000000E+00  0.00000000E+00
  0.00000000E+00  0.00000000E+00  0.00000000E+00
  0.00000000E+00  0.00000000E+00  0.00000000E+00
  0.00000000E+00  0.00000000E+00  0.00000000E+00
  0.00000000E+00  0.00000000E+00  0.00000000E+00
  0.00000000E+00  0.00000000E+00  0.00000000E+00
  0.00000000E+00  0.00000000E+00  0.00000000E+00
  0.00000000E+00  0.00000000E+00  0.00000000E+00
  0.00000000E+00  0.00000000E+00  0.00000000E+00
  0.00000000E+00  0.00000000E+00  0.00000000E+00
  0.00000000E+00  0.00000000E+00  0.00000000E+00
  0.00000000E+00  0.00000000E+00  0.00000000E+00
  0.00000000E+00  0.00000000E+00  0.00000000E+00
  0.00000000E+00  0.00000000E+00  0.00000000E+00
  0.00000000E+00  0.00000000E+00  0.00000000E+00
  0.00000000E+00  0.00000000E+00  0.00000000E+00
  0.00000000E+00  0.00000000E+00  0.00000000E+00
  0.00000000E+00  0.00000000E+00  0.00000000E+00
  0.00000000E+00  0.00000000E+00  0.00000000E+00
  0.00000000E+00  0.00000000E+00  0.00000000E+00
  0.00000000E+00  0.00000000E+00  0.00000000E+00
  0.00000000E+00  0.00000000E+00  0.00000000E+00
  0.00000000E+00  0.00000000E+00  0.00000000E+00
  0.00000000E+00  0.00000000E+00  0.00000000E+00
  0.00000000E+00  0.00000000E+00  0.00000000E+00
  0.00000000E+00  0.00000000E+00  0.00000000E+00
  0.00000000E+00  0.00000000E+00  0.00000000E+00
  0.00000000E+00  0.00000000E+00  0.00000000E+00
  0.00000000E+00  0.00000000E+00  0.00000000E+00
  0.00000000E+00  0.00000000E+00  0.00000000E+00
  0.00000000E+00  0.00000000E+00  0.00000000E+00
  0.00000000E+00  0.00000000E+00  0.00000000E+00
  0.00000000E+00  0.00000000E+00  0.00000000E+00
  0.00000000E+00  0.00000000E+00  0.00000000E+00
  0.00000000E+00  0.00000000E+00  0.00000000E+00
  0.00000000E+00  0.00000000E+00  0.00000000E+00
  0.00000000E+00  0.00000000E+00  0.00000000E+00
  0.00000000E+00  0.00000000E+00  0.00000000E+00
  0.00000000E+00  0.00000000E+00  0.00000000E+00
  0.00000000E+00  0.00000000E+00  0.00000000E+00
  0.00000000E+00  0.00000000E+00  0.00000000E+00
  0.00000000E+00  0.00000000E+00  0.00000000E+00
  0.00000000E+00  0.00000000E+00  0.00000000E+00
  0.00000000E+00  0.00000000E+00  0.00000000E+00
  0.00000000E+00  0.00000000E+00  0.00000000E+00
  0.00000000E+00  0.00000000E+00  0.00000000E+00
  0.00000000E+00  0.00000000E+00  0.00000000E+00
  0.00000000E+00  0.00000000E+00  0.00000000E+00
  0.00000000E+00  0.00000000E+00  0.00000000E+00
  0.00000000E+00  0.00000000E+00  0.00000000E+00
  0.00000000E+00  0.00000000E+00  0.00000000E+00
  0.00000000E+00  0.00000000E+00  0.00000000E+00
  0.00000000E+00  0.00000000E+00  0.00000000E+00
  0.00000000E+00  0.00000000E+00  0.00000000E+00
  0.00000000E+00  0.00000000E+00  0.00000000E+00
