POSCAR\(2)                              
   1.00000000000000     
    12.3312997818000003    0.0000000000000000    0.0000000000000000
     0.0001127485000000   12.8291997905000006    0.0000000000000000
     0.0005937186000000    0.0011528207000000   19.9943999824000009
   C    N    Fe   Ni   H 
    55     1     1     1     1
Direct
  0.0556783511011887  0.0553159256282422  0.0556542489381732
  0.1557773969269651  0.1111566865642310  0.0552718181515629
  0.1562910556869303  0.2220138218044687  0.0547802217505383
  0.0563468083260886  0.2769175404376538  0.0540835256924821
  0.2557767452886251  0.0563014783799432  0.0551376825626058
  0.3562727388922043  0.1118836964844133  0.0554610295164341
  0.3568999737476402  0.2233524616101558  0.0559883363138983
  0.2564664825136593  0.2777357456359196  0.0551269000548774
  0.4556969792934424  0.0556026684101434  0.0551082856006073
  0.5565989384892163  0.1107957056533911  0.0563196973541791
  0.5569412255497441  0.2218777630175588  0.0576854257537768
  0.4572898963525635  0.2803338706880965  0.0570718715760256
  0.6568324477150184  0.0523876272444478  0.0565625402690806
  0.7562681935484771  0.1092575949350037  0.0565103557840017
  0.7570179048331722  0.2209212538605236  0.0563135030532480
  0.6577779818149697  0.2781595195156166  0.0584678567646565
  0.8552250327070371  0.0530466204849863  0.0562497724162917
  0.9554739864724369  0.1095291571570648  0.0554409514823469
  0.9563588095018259  0.2208853970826146  0.0544070773736500
  0.8569146968428439  0.2767105497567370  0.0543695387032026
  0.0569323899353247  0.3883250930854847  0.0537628628777920
  0.1562041005664708  0.4440414080763250  0.0541518431629428
  0.1562217657326528  0.5554553724390114  0.0542255189503638
  0.0563740840783003  0.6107572126933504  0.0546887268254716
  0.2560069856467675  0.3886908727092686  0.0547099623173760
  0.3555071815257022  0.4442864613632738  0.0552941046487926
  0.3566739056080301  0.5573391884263660  0.0544731648242928
  0.2556844649979262  0.6117387482347394  0.0541543790001734
  0.7592919183137554  0.4449670891290372  0.0562496584969406
  0.8584559908658910  0.3881976281827988  0.0532772308941194
  0.9574847965417423  0.4440347616353071  0.0534195251526397
  0.9568397437161743  0.5552821442268085  0.0546407647582311
  0.8566783996659324  0.6110005497587615  0.0565319281561496
  0.0552826043740805  0.7218901990428072  0.0553738599617137
  0.1539932325455406  0.7781151861739667  0.0548190734267539
  0.1549945095608714  0.8892989142694353  0.0551671264255549
  0.0553338941001347  0.9444675087826951  0.0560561564926141
  0.2533466098245905  0.7227814116893946  0.0540424729894426
  0.3514450146404869  0.7789990438448631  0.0530686369352141
  0.3542013832052816  0.8896790266873992  0.0533144358743256
  0.2548206970653374  0.9453292117857358  0.0545559799191948
  0.4504379922881326  0.7228897960290231  0.0520612869103282
  0.5544982742409569  0.8869134419868325  0.0532285536567913
  0.4548566155590847  0.9445745295128499  0.0534270697740800
  0.7556253228601189  0.8816514351428668  0.0582644762824450
  0.6564891159810408  0.9405891537428105  0.0562555806829623
  0.8563266847421147  0.7231055989041674  0.0580963789040247
  0.9556950422301874  0.7777730727874056  0.0566875590391702
  0.9558188209543504  0.8884335019311592  0.0569215283387163
  0.8547105454088113  0.9409620662232775  0.0573199981614187
  0.4553272232432811  0.3912759917517853  0.0568818233454472
  0.4565930712835575  0.6117356811097535  0.0539511314887011
  0.6609689824020015  0.3875232644347313  0.0605219917298815
  0.7570339882911091  0.5576671509751130  0.0576508746224014
  0.5492082786161718  0.7785075772503236  0.0518030970988172
  0.7573389163795760  0.7719285470179595  0.0603336485948727
  0.6366650480180193  0.6623624935937263  0.0647375678201832
  0.5640669872410189  0.4928803156507069  0.0626545219751083
  0.6361999081454385  0.5670642353674717  0.1163048693729139
 
  0.00000000E+00  0.00000000E+00  0.00000000E+00
  0.00000000E+00  0.00000000E+00  0.00000000E+00
  0.00000000E+00  0.00000000E+00  0.00000000E+00
  0.00000000E+00  0.00000000E+00  0.00000000E+00
  0.00000000E+00  0.00000000E+00  0.00000000E+00
  0.00000000E+00  0.00000000E+00  0.00000000E+00
  0.00000000E+00  0.00000000E+00  0.00000000E+00
  0.00000000E+00  0.00000000E+00  0.00000000E+00
  0.00000000E+00  0.00000000E+00  0.00000000E+00
  0.00000000E+00  0.00000000E+00  0.00000000E+00
  0.00000000E+00  0.00000000E+00  0.00000000E+00
  0.00000000E+00  0.00000000E+00  0.00000000E+00
  0.00000000E+00  0.00000000E+00  0.00000000E+00
  0.00000000E+00  0.00000000E+00  0.00000000E+00
  0.00000000E+00  0.00000000E+00  0.00000000E+00
  0.00000000E+00  0.00000000E+00  0.00000000E+00
  0.00000000E+00  0.00000000E+00  0.00000000E+00
  0.00000000E+00  0.00000000E+00  0.00000000E+00
  0.00000000E+00  0.00000000E+00  0.00000000E+00
  0.00000000E+00  0.00000000E+00  0.00000000E+00
  0.00000000E+00  0.00000000E+00  0.00000000E+00
  0.00000000E+00  0.00000000E+00  0.00000000E+00
  0.00000000E+00  0.00000000E+00  0.00000000E+00
  0.00000000E+00  0.00000000E+00  0.00000000E+00
  0.00000000E+00  0.00000000E+00  0.00000000E+00
  0.00000000E+00  0.00000000E+00  0.00000000E+00
  0.00000000E+00  0.00000000E+00  0.00000000E+00
  0.00000000E+00  0.00000000E+00  0.00000000E+00
  0.00000000E+00  0.00000000E+00  0.00000000E+00
  0.00000000E+00  0.00000000E+00  0.00000000E+00
  0.00000000E+00  0.00000000E+00  0.00000000E+00
  0.00000000E+00  0.00000000E+00  0.00000000E+00
  0.00000000E+00  0.00000000E+00  0.00000000E+00
  0.00000000E+00  0.00000000E+00  0.00000000E+00
  0.00000000E+00  0.00000000E+00  0.00000000E+00
  0.00000000E+00  0.00000000E+00  0.00000000E+00
  0.00000000E+00  0.00000000E+00  0.00000000E+00
  0.00000000E+00  0.00000000E+00  0.00000000E+00
  0.00000000E+00  0.00000000E+00  0.00000000E+00
  0.00000000E+00  0.00000000E+00  0.00000000E+00
  0.00000000E+00  0.00000000E+00  0.00000000E+00
  0.00000000E+00  0.00000000E+00  0.00000000E+00
  0.00000000E+00  0.00000000E+00  0.00000000E+00
  0.00000000E+00  0.00000000E+00  0.00000000E+00
  0.00000000E+00  0.00000000E+00  0.00000000E+00
  0.00000000E+00  0.00000000E+00  0.00000000E+00
  0.00000000E+00  0.00000000E+00  0.00000000E+00
  0.00000000E+00  0.00000000E+00  0.00000000E+00
  0.00000000E+00  0.00000000E+00  0.00000000E+00
  0.00000000E+00  0.00000000E+00  0.00000000E+00
  0.00000000E+00  0.00000000E+00  0.00000000E+00
  0.00000000E+00  0.00000000E+00  0.00000000E+00
  0.00000000E+00  0.00000000E+00  0.00000000E+00
  0.00000000E+00  0.00000000E+00  0.00000000E+00
  0.00000000E+00  0.00000000E+00  0.00000000E+00
  0.00000000E+00  0.00000000E+00  0.00000000E+00
  0.00000000E+00  0.00000000E+00  0.00000000E+00
  0.00000000E+00  0.00000000E+00  0.00000000E+00
  0.00000000E+00  0.00000000E+00  0.00000000E+00
