CONTCAR\(3)                             
   1.00000000000000     
    12.3312997818000003    0.0000000000000000    0.0000000000000000
     0.0001127485000000   12.8291997905000006    0.0000000000000000
     0.0005937186000000    0.0011528207000000   19.9943999824000009
   C    N    Fe   Ni   H 
    55     1     1     1     2
Direct
  0.0553648560049538  0.0529997411547878  0.0510388791772500
  0.1556397785521209  0.1086663549628039  0.0513658204826724
  0.1564086799315109  0.2195104349027506  0.0508847206868770
  0.0565249622345825  0.2744907680174349  0.0499143506468866
  0.2560111250910546  0.0542912694908901  0.0525860701435288
  0.3561943541745832  0.1104159996886182  0.0554140377948275
  0.3569465145685923  0.2218871345110311  0.0557849102688045
  0.2563613162603666  0.2756119738554756  0.0521604950440961
  0.4558961004793296  0.0547519682056119  0.0579945378102969
  0.5563895787790034  0.1109638846991336  0.0607711446343069
  0.5572534973397490  0.2226256058059007  0.0623461728687580
  0.4570340260116625  0.2796146905581435  0.0598161564103549
  0.6559666189187816  0.0526978015333747  0.0605417485486438
  0.7559239259053498  0.1088337583258621  0.0581596659501267
  0.7567571633735053  0.2207118958144212  0.0583696215143249
  0.6582540560779356  0.2796714610947932  0.0630793249581957
  0.8549920378959397  0.0519361124986828  0.0550200978550837
  0.9552395550420513  0.1078616195251560  0.0525008585652212
  0.9562692632267495  0.2191652819726218  0.0518495507052147
  0.8568816482311347  0.2753547226724486  0.0540602042471697
  0.0576067123566519  0.3856139014911353  0.0483632014950536
  0.1562618257364570  0.4420058611907599  0.0480679974387710
  0.1561531575012167  0.5535020958184754  0.0470857212193217
  0.0566467004033917  0.6088176630054208  0.0464401141922928
  0.2558325034533748  0.3865692239751367  0.0505554012155727
  0.3545236746555284  0.4426587385643067  0.0535752035824458
  0.3551972036938371  0.5554567536981090  0.0528429698523617
  0.2551182790125447  0.6101200313881090  0.0488230549849188
  0.7612586125855091  0.4451453675545922  0.0574726720754766
  0.8590060409839529  0.3866867405819394  0.0523040239319047
  0.9584830682238243  0.4411420527535946  0.0487568675476190
  0.9582074478078901  0.5517708002469649  0.0479178224544522
  0.8581175608037444  0.6054368387527586  0.0510455446035477
  0.0555469097969619  0.7200635831622755  0.0467820036520022
  0.1544005712670622  0.7763294207378206  0.0473591897894788
  0.1548624669135395  0.8874470124456108  0.0489827051872296
  0.0545914449086522  0.9419831369551190  0.0498754335546380
  0.2539822463486745  0.7210390651791437  0.0485503041258001
  0.3527958240739921  0.7766456831233587  0.0522069898575437
  0.3546379612928948  0.8877690055756856  0.0534093270145311
  0.2550583649611951  0.9432374758353337  0.0513373809327049
  0.4513157000825151  0.7198628312993895  0.0589364309160225
  0.5542422503413565  0.8860462608639098  0.0618853013543236
  0.4549287153788183  0.9433370919149312  0.0576246913274538
  0.7542353561096951  0.8818159944186713  0.0582223660973010
  0.6553804554149496  0.9410369305594202  0.0611357113908214
  0.8560322533179169  0.7181345339889663  0.0518911751370311
  0.9551523033327225  0.7745374000055530  0.0489988139188743
  0.9546739378665581  0.8857277140923734  0.0507349813931912
  0.8539713107057649  0.9396846511684228  0.0545862051583636
  0.4544943762201002  0.3904946167683178  0.0596083740967885
  0.6614219867889033  0.3903492590885741  0.0666243428333419
  0.5503748485825291  0.7763232441328776  0.0652997587454545
  0.7543656127327979  0.7690740265524649  0.0576250060378631
  0.4547446624879918  0.6084191180827926  0.0598878838122334
  0.7625068801348339  0.5536461919038933  0.0564554546582086
  0.6432663260085064  0.6650218083490048  0.0700925668321827
  0.5596125532248276  0.4923594095653350  0.0750384939820459
  0.6399297594620108  0.6595366010215269  0.1496745685272640
  0.6147931309273730  0.5922392818979774  0.1378355807609094
 
  0.00000000E+00  0.00000000E+00  0.00000000E+00
  0.00000000E+00  0.00000000E+00  0.00000000E+00
  0.00000000E+00  0.00000000E+00  0.00000000E+00
  0.00000000E+00  0.00000000E+00  0.00000000E+00
  0.00000000E+00  0.00000000E+00  0.00000000E+00
  0.00000000E+00  0.00000000E+00  0.00000000E+00
  0.00000000E+00  0.00000000E+00  0.00000000E+00
  0.00000000E+00  0.00000000E+00  0.00000000E+00
  0.00000000E+00  0.00000000E+00  0.00000000E+00
  0.00000000E+00  0.00000000E+00  0.00000000E+00
  0.00000000E+00  0.00000000E+00  0.00000000E+00
  0.00000000E+00  0.00000000E+00  0.00000000E+00
  0.00000000E+00  0.00000000E+00  0.00000000E+00
  0.00000000E+00  0.00000000E+00  0.00000000E+00
  0.00000000E+00  0.00000000E+00  0.00000000E+00
  0.00000000E+00  0.00000000E+00  0.00000000E+00
  0.00000000E+00  0.00000000E+00  0.00000000E+00
  0.00000000E+00  0.00000000E+00  0.00000000E+00
  0.00000000E+00  0.00000000E+00  0.00000000E+00
  0.00000000E+00  0.00000000E+00  0.00000000E+00
  0.00000000E+00  0.00000000E+00  0.00000000E+00
  0.00000000E+00  0.00000000E+00  0.00000000E+00
  0.00000000E+00  0.00000000E+00  0.00000000E+00
  0.00000000E+00  0.00000000E+00  0.00000000E+00
  0.00000000E+00  0.00000000E+00  0.00000000E+00
  0.00000000E+00  0.00000000E+00  0.00000000E+00
  0.00000000E+00  0.00000000E+00  0.00000000E+00
  0.00000000E+00  0.00000000E+00  0.00000000E+00
  0.00000000E+00  0.00000000E+00  0.00000000E+00
  0.00000000E+00  0.00000000E+00  0.00000000E+00
  0.00000000E+00  0.00000000E+00  0.00000000E+00
  0.00000000E+00  0.00000000E+00  0.00000000E+00
  0.00000000E+00  0.00000000E+00  0.00000000E+00
  0.00000000E+00  0.00000000E+00  0.00000000E+00
  0.00000000E+00  0.00000000E+00  0.00000000E+00
  0.00000000E+00  0.00000000E+00  0.00000000E+00
  0.00000000E+00  0.00000000E+00  0.00000000E+00
  0.00000000E+00  0.00000000E+00  0.00000000E+00
  0.00000000E+00  0.00000000E+00  0.00000000E+00
  0.00000000E+00  0.00000000E+00  0.00000000E+00
  0.00000000E+00  0.00000000E+00  0.00000000E+00
  0.00000000E+00  0.00000000E+00  0.00000000E+00
  0.00000000E+00  0.00000000E+00  0.00000000E+00
  0.00000000E+00  0.00000000E+00  0.00000000E+00
  0.00000000E+00  0.00000000E+00  0.00000000E+00
  0.00000000E+00  0.00000000E+00  0.00000000E+00
  0.00000000E+00  0.00000000E+00  0.00000000E+00
  0.00000000E+00  0.00000000E+00  0.00000000E+00
  0.00000000E+00  0.00000000E+00  0.00000000E+00
  0.00000000E+00  0.00000000E+00  0.00000000E+00
  0.00000000E+00  0.00000000E+00  0.00000000E+00
  0.00000000E+00  0.00000000E+00  0.00000000E+00
  0.00000000E+00  0.00000000E+00  0.00000000E+00
  0.00000000E+00  0.00000000E+00  0.00000000E+00
  0.00000000E+00  0.00000000E+00  0.00000000E+00
  0.00000000E+00  0.00000000E+00  0.00000000E+00
  0.00000000E+00  0.00000000E+00  0.00000000E+00
  0.00000000E+00  0.00000000E+00  0.00000000E+00
  0.00000000E+00  0.00000000E+00  0.00000000E+00
  0.00000000E+00  0.00000000E+00  0.00000000E+00
