CONTCAR\(3)                             
   1.00000000000000     
    12.3312997818000003    0.0000000000000000    0.0000000000000000
     0.0001127485000000   12.8291997905000006    0.0000000000000000
     0.0005937186000000    0.0011528207000000   19.9943999824000009
   C    N    Fe   Ni   O 
    52     4     1     1     1
Direct
  0.0559252828804938  0.0540548164304030  0.0497420134602423
  0.1563674803159205  0.1093320668044489  0.0503711206660613
  0.1559482065708734  0.2200167670540707  0.0485399760457414
  0.0560493728515470  0.2758297039157090  0.0464588116219572
  0.2573129965034905  0.0549451062613355  0.0536232706999205
  0.3574158195940483  0.1113884369393343  0.0575472237790546
  0.3567216084784979  0.2233136603027167  0.0565530664408418
  0.2554223971092658  0.2757818193281412  0.0505092352057896
  0.4576113301718041  0.0562071795871888  0.0624088766162924
  0.5573219343556829  0.1145787453027378  0.0647718085769622
  0.5576274359619406  0.2290978549262846  0.0656382559749867
  0.4548636123882807  0.2839208310318557  0.0622406771478882
  0.6563738272082572  0.0542549375477176  0.0635434175025033
  0.7554744115098598  0.1110932357258459  0.0589119385918324
  0.7563861057095845  0.2237656536946373  0.0586107523869847
  0.6597597391083322  0.2855763536304181  0.0649054002228117
  0.8550271395991315  0.0540399506877737  0.0545799978434567
  0.9555746974260423  0.1092348645603865  0.0510488565763422
  0.9561772460980569  0.2206989855585456  0.0496213974526631
  0.8569477457277828  0.2774241641343753  0.0527029149728820
  0.0563681560108648  0.3870108993165396  0.0432864516032306
  0.1550574003662852  0.4430925747184064  0.0431707825548219
  0.1552616263581093  0.5541906384219478  0.0424802054203872
  0.0564695743670780  0.6104891248499164  0.0410752602468877
  0.2537691427990788  0.3863540655689471  0.0479865781971534
  0.3513215271524159  0.4410724226563761  0.0547048455415378
  0.3517196995949955  0.5529970296442466  0.0563405523557352
  0.2540646757202534  0.6097185260834561  0.0481396569401199
  0.7610314724032051  0.4466771296979087  0.0571936617850525
  0.8587001373922400  0.3884865726511783  0.0500823151725446
  0.9575299259989305  0.4433460007311151  0.0438548079449184
  0.9576941342405093  0.5544890046818772  0.0422643968767225
  0.8576598458683355  0.6080404952746086  0.0463651901905603
  0.0563896940794426  0.7213713758117591  0.0429908779640823
  0.1558930639261878  0.7771425915765863  0.0463969415701450
  0.1566268737506067  0.8880962649237111  0.0489401366526021
  0.0560350935816750  0.9431156646032590  0.0486706476813717
  0.2552003265545861  0.7209880777968243  0.0501342845478165
  0.3545673340360090  0.7753258015401391  0.0584900236088371
  0.3566758585274470  0.8873700004031915  0.0586957732861135
  0.2569682907108710  0.9434021819840828  0.0534041060879773
  0.4523136637854904  0.7165513448780755  0.0697790109881928
  0.5555787729779648  0.8844030849530895  0.0697261159245464
  0.4568074479028606  0.9436030389279402  0.0639449681125715
  0.7567587617982551  0.8829496591498056  0.0589905033575835
  0.6565088707546948  0.9404141263800904  0.0651591385115065
  0.8568691174523642  0.7213197934213265  0.0478117387536992
  0.9563122341773463  0.7763804648890105  0.0455256565045830
  0.9561033397276137  0.8876991102177262  0.0488775986341564
  0.8553852595766682  0.9418456913355078  0.0538761553201262
  0.4494017643860642  0.6040808669781950  0.0705004473871485
  0.5506306361762529  0.7741887985190613  0.0774359601982492
  0.4484550259419344  0.3915715983685935  0.0631926901825694
  0.6655136403433547  0.3944207858578030  0.0684035738906422
  0.7624637063834012  0.5544570221296278  0.0534072303385912
  0.7594010628222637  0.7737724498822338  0.0563291798968674
  0.6555483701911575  0.6691618562380784  0.0830832893768413
  0.5519818029274149  0.4967399907968008  0.0872879231674736
  0.6161443516668581  0.5858586447170575  0.1457723074408561
 
  0.00000000E+00  0.00000000E+00  0.00000000E+00
  0.00000000E+00  0.00000000E+00  0.00000000E+00
  0.00000000E+00  0.00000000E+00  0.00000000E+00
  0.00000000E+00  0.00000000E+00  0.00000000E+00
  0.00000000E+00  0.00000000E+00  0.00000000E+00
  0.00000000E+00  0.00000000E+00  0.00000000E+00
  0.00000000E+00  0.00000000E+00  0.00000000E+00
  0.00000000E+00  0.00000000E+00  0.00000000E+00
  0.00000000E+00  0.00000000E+00  0.00000000E+00
  0.00000000E+00  0.00000000E+00  0.00000000E+00
  0.00000000E+00  0.00000000E+00  0.00000000E+00
  0.00000000E+00  0.00000000E+00  0.00000000E+00
  0.00000000E+00  0.00000000E+00  0.00000000E+00
  0.00000000E+00  0.00000000E+00  0.00000000E+00
  0.00000000E+00  0.00000000E+00  0.00000000E+00
  0.00000000E+00  0.00000000E+00  0.00000000E+00
  0.00000000E+00  0.00000000E+00  0.00000000E+00
  0.00000000E+00  0.00000000E+00  0.00000000E+00
  0.00000000E+00  0.00000000E+00  0.00000000E+00
  0.00000000E+00  0.00000000E+00  0.00000000E+00
  0.00000000E+00  0.00000000E+00  0.00000000E+00
  0.00000000E+00  0.00000000E+00  0.00000000E+00
  0.00000000E+00  0.00000000E+00  0.00000000E+00
  0.00000000E+00  0.00000000E+00  0.00000000E+00
  0.00000000E+00  0.00000000E+00  0.00000000E+00
  0.00000000E+00  0.00000000E+00  0.00000000E+00
  0.00000000E+00  0.00000000E+00  0.00000000E+00
  0.00000000E+00  0.00000000E+00  0.00000000E+00
  0.00000000E+00  0.00000000E+00  0.00000000E+00
  0.00000000E+00  0.00000000E+00  0.00000000E+00
  0.00000000E+00  0.00000000E+00  0.00000000E+00
  0.00000000E+00  0.00000000E+00  0.00000000E+00
  0.00000000E+00  0.00000000E+00  0.00000000E+00
  0.00000000E+00  0.00000000E+00  0.00000000E+00
  0.00000000E+00  0.00000000E+00  0.00000000E+00
  0.00000000E+00  0.00000000E+00  0.00000000E+00
  0.00000000E+00  0.00000000E+00  0.00000000E+00
  0.00000000E+00  0.00000000E+00  0.00000000E+00
  0.00000000E+00  0.00000000E+00  0.00000000E+00
  0.00000000E+00  0.00000000E+00  0.00000000E+00
  0.00000000E+00  0.00000000E+00  0.00000000E+00
  0.00000000E+00  0.00000000E+00  0.00000000E+00
  0.00000000E+00  0.00000000E+00  0.00000000E+00
  0.00000000E+00  0.00000000E+00  0.00000000E+00
  0.00000000E+00  0.00000000E+00  0.00000000E+00
  0.00000000E+00  0.00000000E+00  0.00000000E+00
  0.00000000E+00  0.00000000E+00  0.00000000E+00
  0.00000000E+00  0.00000000E+00  0.00000000E+00
  0.00000000E+00  0.00000000E+00  0.00000000E+00
  0.00000000E+00  0.00000000E+00  0.00000000E+00
  0.00000000E+00  0.00000000E+00  0.00000000E+00
  0.00000000E+00  0.00000000E+00  0.00000000E+00
  0.00000000E+00  0.00000000E+00  0.00000000E+00
  0.00000000E+00  0.00000000E+00  0.00000000E+00
  0.00000000E+00  0.00000000E+00  0.00000000E+00
  0.00000000E+00  0.00000000E+00  0.00000000E+00
  0.00000000E+00  0.00000000E+00  0.00000000E+00
  0.00000000E+00  0.00000000E+00  0.00000000E+00
  0.00000000E+00  0.00000000E+00  0.00000000E+00
