CONTCAR\(2)                             
   1.00000000000000     
    12.3312997818000003    0.0000000000000000    0.0000000000000000
     0.0001127485000000   12.8291997905000006    0.0000000000000000
     0.0005937186000000    0.0011528207000000   19.9943999824000009
   C    N    Fe   Ni   O    H 
    52     4     1     1     1     1
Direct
  0.0552995135398937  0.0546270045149213  0.0492272467422686
  0.1559338731192737  0.1103628002182742  0.0505794141161786
  0.1559494685767302  0.2210753779070853  0.0488746274914829
  0.0559675863176018  0.2763906127148893  0.0463744016773503
  0.2565601068459986  0.0562994600124661  0.0541881370244382
  0.3567622555907848  0.1127644147477119  0.0580136183823311
  0.3564974264866169  0.2246985432959005  0.0568394746641458
  0.2554140756280333  0.2772684858876037  0.0510533303089178
  0.4568210962418400  0.0574019954147726  0.0625245281904697
  0.5562659646773158  0.1156522647883255  0.0638027008408171
  0.5571918573195027  0.2300190234592902  0.0643258254482947
  0.4550192122753171  0.2853734442482631  0.0616426023208703
  0.6543257511675604  0.0548900924974128  0.0617059849913493
  0.7543399331082745  0.1111168319439920  0.0567696060174568
  0.7558050860499164  0.2236095580166484  0.0567226837555368
  0.6594920386683536  0.2855457185283823  0.0631249629661463
  0.8542312256646324  0.0543862270719394  0.0523507111262344
  0.9549208453756999  0.1097227561331120  0.0498747208203205
  0.9558513549173115  0.2211264566465937  0.0486892533671358
  0.8565601023400234  0.2774283218630723  0.0510546074522073
  0.0566383748997523  0.3873247443635607  0.0435764115210798
  0.1553917140376533  0.4440898405880810  0.0443330675106136
  0.1557296989342036  0.5551916293552528  0.0439469230445208
  0.0568837747738052  0.6109567115320701  0.0415847346942539
  0.2542781730117761  0.3881551713911566  0.0488479264639728
  0.3521294516901809  0.4434733202094217  0.0553172314403757
  0.3533246336323147  0.5556933563397863  0.0580030590378823
  0.2547823360581707  0.6110198513311265  0.0498668724997382
  0.7604274227207740  0.4464351933490492  0.0541939072095613
  0.8584033786542058  0.3884313528837010  0.0480716494568462
  0.9577156574900414  0.4429825881140377  0.0430413877054803
  0.9580429425444045  0.5538628293231107  0.0414132518381551
  0.8584006374837716  0.6068513793688306  0.0433770824873763
  0.0566263379978960  0.7219807094808685  0.0431554214638285
  0.1558180551404429  0.7780377107148394  0.0473942157583683
  0.1556666762252984  0.8890142531524330  0.0494462133739084
  0.0550665304638011  0.9437435150713972  0.0480419306955250
  0.2551490532226383  0.7221328244167208  0.0515843205541063
  0.3541392104617784  0.7773609150102651  0.0590252040569878
  0.3551384944170592  0.8891161921711330  0.0593256748391948
  0.2558232191807421  0.9447657781755302  0.0541677733259046
  0.4523652902912195  0.7202362834090420  0.0692111187689631
  0.5532672855726151  0.8849716337743596  0.0680499492741170
  0.4554302361204141  0.9447595532509141  0.0641574300698469
  0.7539828596981281  0.8840747639634919  0.0547726205169745
  0.6538022309488466  0.9412838394447511  0.0625491052954387
  0.8571758087722442  0.7196887602284548  0.0437316024600204
  0.9564194600311309  0.7764670418913336  0.0435471311077291
  0.9547363249218225  0.8877625750601402  0.0467658398033356
  0.8538564305200718  0.9423852223071587  0.0507370144679475
  0.4522413253015304  0.6075406216432934  0.0716424298516665
  0.7573776958141720  0.7730282923297896  0.0505962356795694
  0.4491754117541585  0.3930986183631642  0.0625674708224775
  0.6654518823622332  0.3941346923717848  0.0664839769603741
  0.7614859086502916  0.5541934105640335  0.0489671176698117
  0.5491922086806866  0.7767809119964848  0.0741351106760108
  0.6543346561904793  0.6695602072985785  0.0730785990496061
  0.5535297096561854  0.4950099730132212  0.0870075570864111
  0.6273186427503009  0.5813647093038431  0.1511437901152820
  0.5694219380120700  0.6109896625331563  0.1784832256427779
 
  0.00000000E+00  0.00000000E+00  0.00000000E+00
  0.00000000E+00  0.00000000E+00  0.00000000E+00
  0.00000000E+00  0.00000000E+00  0.00000000E+00
  0.00000000E+00  0.00000000E+00  0.00000000E+00
  0.00000000E+00  0.00000000E+00  0.00000000E+00
  0.00000000E+00  0.00000000E+00  0.00000000E+00
  0.00000000E+00  0.00000000E+00  0.00000000E+00
  0.00000000E+00  0.00000000E+00  0.00000000E+00
  0.00000000E+00  0.00000000E+00  0.00000000E+00
  0.00000000E+00  0.00000000E+00  0.00000000E+00
  0.00000000E+00  0.00000000E+00  0.00000000E+00
  0.00000000E+00  0.00000000E+00  0.00000000E+00
  0.00000000E+00  0.00000000E+00  0.00000000E+00
  0.00000000E+00  0.00000000E+00  0.00000000E+00
  0.00000000E+00  0.00000000E+00  0.00000000E+00
  0.00000000E+00  0.00000000E+00  0.00000000E+00
  0.00000000E+00  0.00000000E+00  0.00000000E+00
  0.00000000E+00  0.00000000E+00  0.00000000E+00
  0.00000000E+00  0.00000000E+00  0.00000000E+00
  0.00000000E+00  0.00000000E+00  0.00000000E+00
  0.00000000E+00  0.00000000E+00  0.00000000E+00
  0.00000000E+00  0.00000000E+00  0.00000000E+00
  0.00000000E+00  0.00000000E+00  0.00000000E+00
  0.00000000E+00  0.00000000E+00  0.00000000E+00
  0.00000000E+00  0.00000000E+00  0.00000000E+00
  0.00000000E+00  0.00000000E+00  0.00000000E+00
  0.00000000E+00  0.00000000E+00  0.00000000E+00
  0.00000000E+00  0.00000000E+00  0.00000000E+00
  0.00000000E+00  0.00000000E+00  0.00000000E+00
  0.00000000E+00  0.00000000E+00  0.00000000E+00
  0.00000000E+00  0.00000000E+00  0.00000000E+00
  0.00000000E+00  0.00000000E+00  0.00000000E+00
  0.00000000E+00  0.00000000E+00  0.00000000E+00
  0.00000000E+00  0.00000000E+00  0.00000000E+00
  0.00000000E+00  0.00000000E+00  0.00000000E+00
  0.00000000E+00  0.00000000E+00  0.00000000E+00
  0.00000000E+00  0.00000000E+00  0.00000000E+00
  0.00000000E+00  0.00000000E+00  0.00000000E+00
  0.00000000E+00  0.00000000E+00  0.00000000E+00
  0.00000000E+00  0.00000000E+00  0.00000000E+00
  0.00000000E+00  0.00000000E+00  0.00000000E+00
  0.00000000E+00  0.00000000E+00  0.00000000E+00
  0.00000000E+00  0.00000000E+00  0.00000000E+00
  0.00000000E+00  0.00000000E+00  0.00000000E+00
  0.00000000E+00  0.00000000E+00  0.00000000E+00
  0.00000000E+00  0.00000000E+00  0.00000000E+00
  0.00000000E+00  0.00000000E+00  0.00000000E+00
  0.00000000E+00  0.00000000E+00  0.00000000E+00
  0.00000000E+00  0.00000000E+00  0.00000000E+00
  0.00000000E+00  0.00000000E+00  0.00000000E+00
  0.00000000E+00  0.00000000E+00  0.00000000E+00
  0.00000000E+00  0.00000000E+00  0.00000000E+00
  0.00000000E+00  0.00000000E+00  0.00000000E+00
  0.00000000E+00  0.00000000E+00  0.00000000E+00
  0.00000000E+00  0.00000000E+00  0.00000000E+00
  0.00000000E+00  0.00000000E+00  0.00000000E+00
  0.00000000E+00  0.00000000E+00  0.00000000E+00
  0.00000000E+00  0.00000000E+00  0.00000000E+00
  0.00000000E+00  0.00000000E+00  0.00000000E+00
  0.00000000E+00  0.00000000E+00  0.00000000E+00
