CONTCAR\(6)                             
   1.00000000000000     
    12.3312997818000003    0.0000000000000000    0.0000000000000000
     0.0001127485000000   12.8291997905000006    0.0000000000000000
     0.0005937186000000    0.0011528207000000   19.9943999824000009
   C    N    Fe   Ni   O    H 
    54     2     1     1     2     2
Direct
  0.0535629297980782  0.0515735731854250  0.0479387548647721
  0.1539360381730716  0.1059644252268461  0.0476095765380718
  0.1529320334073490  0.2169277267623544  0.0466758134011528
  0.0528304526347191  0.2728761989297315  0.0475101703579226
  0.2543750304465153  0.0502623710788918  0.0487401337061293
  0.3546112954752911  0.1055723103410928  0.0519306315090136
  0.3533861374235667  0.2176599008966690  0.0502106626254089
  0.2527784567278724  0.2720005505554486  0.0459594659598662
  0.4543759090796148  0.0493031142239265  0.0565821688195579
  0.5527942086203049  0.1079867646677440  0.0610631473668887
  0.5523544902456883  0.2204568922359782  0.0619374743612062
  0.4518077248811470  0.2764975765335712  0.0540444413886967
  0.6528058099312963  0.0496517982746307  0.0628442216401243
  0.7527852663731545  0.1069473383595577  0.0601025276514892
  0.7527510048051733  0.2190112065961800  0.0620608835563002
  0.6531405408622227  0.2772200684086041  0.0678030970731868
  0.8529670146369720  0.0515608619432732  0.0546270990122171
  0.9530206413235959  0.1071830251530313  0.0511602193473835
  0.9524088962847946  0.2184617349343328  0.0518382965646796
  0.8524224743136032  0.2748496487856105  0.0573534944881082
  0.0528226538395926  0.3839386714160376  0.0449464371503884
  0.1522422650728100  0.4391365812661003  0.0410724567311987
  0.1525609477559693  0.5502871799160078  0.0390101725953813
  0.0537138320085784  0.6065607031589192  0.0402009081236753
  0.2519095156291833  0.3830315696950158  0.0426997339259153
  0.3517196710900134  0.4371594844687443  0.0439076540284735
  0.3519972434832678  0.5510976711361579  0.0441231288036989
  0.2520799084005865  0.6056551188136167  0.0401681718834007
  0.7542331889066679  0.4453748341123044  0.0682446643313207
  0.8532236470241935  0.3867048829844531  0.0573070639952182
  0.9531243371363621  0.4401912917047706  0.0485232073172201
  0.9541555162547030  0.5510010310415124  0.0456075444877944
  0.8559063504989125  0.6077520219199595  0.0529256300157561
  0.0546990091866643  0.7182043357294762  0.0403425533575565
  0.1541230229034048  0.7734029651231815  0.0410269786564695
  0.1544374647594439  0.8846011797506269  0.0439994317510747
  0.0543021949697615  0.9406532651760109  0.0457595822871197
  0.2535222387646860  0.7167201443170187  0.0422876836035137
  0.3538567018389104  0.7699401163333144  0.0487193319258709
  0.3549208025357891  0.8818218520103821  0.0508600619660186
  0.2548898233378130  0.9388239876674335  0.0473922635814090
  0.4520619293540625  0.7093643422459820  0.0553051636321908
  0.5540485081466436  0.8764818821331929  0.0634884606224561
  0.4551180502212060  0.9363656075005200  0.0569378992391420
  0.7549253329793953  0.8829686728624915  0.0615976881291341
  0.6534775243397335  0.9374953792232331  0.0645684445578387
  0.8573029928928334  0.7199051408806886  0.0517136336354505
  0.9555889718643481  0.7748209920028212  0.0444863709211990
  0.9544438590845257  0.8856878606925088  0.0472299902775264
  0.8538255779496799  0.9401544330146143  0.0535164698929448
  0.6568420976894920  0.3867711171261109  0.0763521253494782
  0.7574550690390783  0.5580461593513109  0.0679344061781521
  0.5524037941649327  0.7636385761459068  0.0667445401887278
  0.7595369279664355  0.7726145562890161  0.0658946477164365
  0.4483100399400830  0.3845982098906780  0.0501243082857779
  0.4473418631623258  0.6013385909563636  0.0524566943300319
  0.6661937973585824  0.6764948710765207  0.1090761668804052
  0.5458047833640229  0.4807613684154729  0.0817554551099299
  0.5801039984875612  0.5636019456694354  0.1552957517495583
  0.7343499580114268  0.6951951979007450  0.1896607976430170
  0.7965006623572772  0.7421893904510426  0.1891938081109982
  0.6292975537850295  0.5339996483373993  0.1884802307989571
 
  0.00000000E+00  0.00000000E+00  0.00000000E+00
  0.00000000E+00  0.00000000E+00  0.00000000E+00
  0.00000000E+00  0.00000000E+00  0.00000000E+00
  0.00000000E+00  0.00000000E+00  0.00000000E+00
  0.00000000E+00  0.00000000E+00  0.00000000E+00
  0.00000000E+00  0.00000000E+00  0.00000000E+00
  0.00000000E+00  0.00000000E+00  0.00000000E+00
  0.00000000E+00  0.00000000E+00  0.00000000E+00
  0.00000000E+00  0.00000000E+00  0.00000000E+00
  0.00000000E+00  0.00000000E+00  0.00000000E+00
  0.00000000E+00  0.00000000E+00  0.00000000E+00
  0.00000000E+00  0.00000000E+00  0.00000000E+00
  0.00000000E+00  0.00000000E+00  0.00000000E+00
  0.00000000E+00  0.00000000E+00  0.00000000E+00
  0.00000000E+00  0.00000000E+00  0.00000000E+00
  0.00000000E+00  0.00000000E+00  0.00000000E+00
  0.00000000E+00  0.00000000E+00  0.00000000E+00
  0.00000000E+00  0.00000000E+00  0.00000000E+00
  0.00000000E+00  0.00000000E+00  0.00000000E+00
  0.00000000E+00  0.00000000E+00  0.00000000E+00
  0.00000000E+00  0.00000000E+00  0.00000000E+00
  0.00000000E+00  0.00000000E+00  0.00000000E+00
  0.00000000E+00  0.00000000E+00  0.00000000E+00
  0.00000000E+00  0.00000000E+00  0.00000000E+00
  0.00000000E+00  0.00000000E+00  0.00000000E+00
  0.00000000E+00  0.00000000E+00  0.00000000E+00
  0.00000000E+00  0.00000000E+00  0.00000000E+00
  0.00000000E+00  0.00000000E+00  0.00000000E+00
  0.00000000E+00  0.00000000E+00  0.00000000E+00
  0.00000000E+00  0.00000000E+00  0.00000000E+00
  0.00000000E+00  0.00000000E+00  0.00000000E+00
  0.00000000E+00  0.00000000E+00  0.00000000E+00
  0.00000000E+00  0.00000000E+00  0.00000000E+00
  0.00000000E+00  0.00000000E+00  0.00000000E+00
  0.00000000E+00  0.00000000E+00  0.00000000E+00
  0.00000000E+00  0.00000000E+00  0.00000000E+00
  0.00000000E+00  0.00000000E+00  0.00000000E+00
  0.00000000E+00  0.00000000E+00  0.00000000E+00
  0.00000000E+00  0.00000000E+00  0.00000000E+00
  0.00000000E+00  0.00000000E+00  0.00000000E+00
  0.00000000E+00  0.00000000E+00  0.00000000E+00
  0.00000000E+00  0.00000000E+00  0.00000000E+00
  0.00000000E+00  0.00000000E+00  0.00000000E+00
  0.00000000E+00  0.00000000E+00  0.00000000E+00
  0.00000000E+00  0.00000000E+00  0.00000000E+00
  0.00000000E+00  0.00000000E+00  0.00000000E+00
  0.00000000E+00  0.00000000E+00  0.00000000E+00
  0.00000000E+00  0.00000000E+00  0.00000000E+00
  0.00000000E+00  0.00000000E+00  0.00000000E+00
  0.00000000E+00  0.00000000E+00  0.00000000E+00
  0.00000000E+00  0.00000000E+00  0.00000000E+00
  0.00000000E+00  0.00000000E+00  0.00000000E+00
  0.00000000E+00  0.00000000E+00  0.00000000E+00
  0.00000000E+00  0.00000000E+00  0.00000000E+00
  0.00000000E+00  0.00000000E+00  0.00000000E+00
  0.00000000E+00  0.00000000E+00  0.00000000E+00
  0.00000000E+00  0.00000000E+00  0.00000000E+00
  0.00000000E+00  0.00000000E+00  0.00000000E+00
  0.00000000E+00  0.00000000E+00  0.00000000E+00
  0.00000000E+00  0.00000000E+00  0.00000000E+00
  0.00000000E+00  0.00000000E+00  0.00000000E+00
  0.00000000E+00  0.00000000E+00  0.00000000E+00
