CONTCAR\(2)                             
   1.00000000000000     
    12.3312997818000003    0.0000000000000000    0.0000000000000000
     0.0001127485000000   12.8291997905000006    0.0000000000000000
     0.0005937186000000    0.0011528207000000   19.9943999824000009
   C    N    Fe   Ni   H 
    52     4     1     1     2
Direct
  0.0548607676326750  0.0530716482155821  0.0505697867873700
  0.1552061661585198  0.1084773223923144  0.0498534230327395
  0.1552984184672707  0.2191246358589288  0.0487269158460130
  0.0552950556264046  0.2744357904033015  0.0487936890954219
  0.2558355536047145  0.0538505957831531  0.0510581233202885
  0.3563959173270982  0.1092294055930094  0.0541638734873949
  0.3562121999445621  0.2212500856546567  0.0533125199956115
  0.2553072947796685  0.2746500487049753  0.0489017651410968
  0.4561337942054914  0.0531706901657936  0.0582518116899597
  0.5556706653170634  0.1107772527305302  0.0622571353211688
  0.5559038935566976  0.2242004621861958  0.0631705920240301
  0.4547545881266224  0.2806672759962480  0.0574463387760204
  0.6548369304202230  0.0500887994189438  0.0631918743761960
  0.7543095505781087  0.1079905974516959  0.0608462758290929
  0.7551729919362071  0.2209362784382036  0.0615968695744998
  0.6572586151523768  0.2817122701335015  0.0665090919239239
  0.8539212990996164  0.0515620633315622  0.0567838208254112
  0.9543373583704937  0.1077838906796510  0.0532278739691431
  0.9550087795641650  0.2193882478118784  0.0526023827559604
  0.8555079224289790  0.2760358553357907  0.0565071177383073
  0.0567123956935937  0.3856748565538393  0.0466204958964239
  0.1556004292582259  0.4416697327673941  0.0442420380799567
  0.1557361151413619  0.5527579883025193  0.0429190731474219
  0.0568111980146604  0.6087681429814890  0.0440386625442707
  0.2550351157719565  0.3855092918202907  0.0462583638251045
  0.3539325429930059  0.4402141584373905  0.0487078790512341
  0.3552019794396268  0.5536552337245991  0.0481233373743000
  0.2550348362694204  0.6085299711310930  0.0441724456639534
  0.7614739057410047  0.4472897696726382  0.0630918300108058
  0.8583391359752802  0.3878621151707455  0.0551216374690767
  0.9579149022546616  0.4418359448172002  0.0490762759538029
  0.9582614005072485  0.5527799856147863  0.0479220253267037
  0.8592346728135831  0.6077566716460349  0.0539230129298818
  0.0561237271889086  0.7198070411046498  0.0449216889037439
  0.1549023110544004  0.7757919871787193  0.0450062813291390
  0.1550730623812303  0.8869261209214242  0.0473875598280158
  0.0549278526793479  0.9420792812574212  0.0492421058147418
  0.2543005047986954  0.7196406909542350  0.0454037885783896
  0.3527944568145187  0.7757377412356899  0.0505763372533170
  0.3543445660836794  0.8868922517324380  0.0526639649767260
  0.2549718933246494  0.9427985669444666  0.0498875067995559
  0.4505609539640409  0.7190448662640178  0.0572185579908707
  0.5526577218497447  0.8799674102727911  0.0635523619034598
  0.4548708930386656  0.9409178742765471  0.0581176294213383
  0.7557451213874224  0.8790449002666619  0.0602773705804800
  0.6548042540887207  0.9358260568695037  0.0637100709192017
  0.8580017701149235  0.7201708367145415  0.0531790224840398
  0.9565478731079592  0.7752712292621849  0.0488521894597655
  0.9553958651928266  0.8862184556798408  0.0509794200584618
  0.8541977538949586  0.9392481658104250  0.0560074214288279
  0.4541042493685800  0.6077495526091392  0.0559514100359661
  0.6621974029134670  0.3929114730138494  0.0717347275444418
  0.4507959001320458  0.3890595590975032  0.0551169315161350
  0.7635102799616885  0.5569699264986963  0.0624388754669008
  0.5473437932778097  0.7728688990696473  0.0661685970293144
  0.7599031687284535  0.7697138186253756  0.0593797121099852
  0.6489121118225434  0.6617233178576699  0.0737505953514899
  0.5565340733747259  0.4948335200458958  0.0723631207075601
  0.6068760086945971  0.5731891824399783  0.1267174043710584
  0.6602959005907945  0.6727803100707722  0.1468469773544566
 
  0.00000000E+00  0.00000000E+00  0.00000000E+00
  0.00000000E+00  0.00000000E+00  0.00000000E+00
  0.00000000E+00  0.00000000E+00  0.00000000E+00
  0.00000000E+00  0.00000000E+00  0.00000000E+00
  0.00000000E+00  0.00000000E+00  0.00000000E+00
  0.00000000E+00  0.00000000E+00  0.00000000E+00
  0.00000000E+00  0.00000000E+00  0.00000000E+00
  0.00000000E+00  0.00000000E+00  0.00000000E+00
  0.00000000E+00  0.00000000E+00  0.00000000E+00
  0.00000000E+00  0.00000000E+00  0.00000000E+00
  0.00000000E+00  0.00000000E+00  0.00000000E+00
  0.00000000E+00  0.00000000E+00  0.00000000E+00
  0.00000000E+00  0.00000000E+00  0.00000000E+00
  0.00000000E+00  0.00000000E+00  0.00000000E+00
  0.00000000E+00  0.00000000E+00  0.00000000E+00
  0.00000000E+00  0.00000000E+00  0.00000000E+00
  0.00000000E+00  0.00000000E+00  0.00000000E+00
  0.00000000E+00  0.00000000E+00  0.00000000E+00
  0.00000000E+00  0.00000000E+00  0.00000000E+00
  0.00000000E+00  0.00000000E+00  0.00000000E+00
  0.00000000E+00  0.00000000E+00  0.00000000E+00
  0.00000000E+00  0.00000000E+00  0.00000000E+00
  0.00000000E+00  0.00000000E+00  0.00000000E+00
  0.00000000E+00  0.00000000E+00  0.00000000E+00
  0.00000000E+00  0.00000000E+00  0.00000000E+00
  0.00000000E+00  0.00000000E+00  0.00000000E+00
  0.00000000E+00  0.00000000E+00  0.00000000E+00
  0.00000000E+00  0.00000000E+00  0.00000000E+00
  0.00000000E+00  0.00000000E+00  0.00000000E+00
  0.00000000E+00  0.00000000E+00  0.00000000E+00
  0.00000000E+00  0.00000000E+00  0.00000000E+00
  0.00000000E+00  0.00000000E+00  0.00000000E+00
  0.00000000E+00  0.00000000E+00  0.00000000E+00
  0.00000000E+00  0.00000000E+00  0.00000000E+00
  0.00000000E+00  0.00000000E+00  0.00000000E+00
  0.00000000E+00  0.00000000E+00  0.00000000E+00
  0.00000000E+00  0.00000000E+00  0.00000000E+00
  0.00000000E+00  0.00000000E+00  0.00000000E+00
  0.00000000E+00  0.00000000E+00  0.00000000E+00
  0.00000000E+00  0.00000000E+00  0.00000000E+00
  0.00000000E+00  0.00000000E+00  0.00000000E+00
  0.00000000E+00  0.00000000E+00  0.00000000E+00
  0.00000000E+00  0.00000000E+00  0.00000000E+00
  0.00000000E+00  0.00000000E+00  0.00000000E+00
  0.00000000E+00  0.00000000E+00  0.00000000E+00
  0.00000000E+00  0.00000000E+00  0.00000000E+00
  0.00000000E+00  0.00000000E+00  0.00000000E+00
  0.00000000E+00  0.00000000E+00  0.00000000E+00
  0.00000000E+00  0.00000000E+00  0.00000000E+00
  0.00000000E+00  0.00000000E+00  0.00000000E+00
  0.00000000E+00  0.00000000E+00  0.00000000E+00
  0.00000000E+00  0.00000000E+00  0.00000000E+00
  0.00000000E+00  0.00000000E+00  0.00000000E+00
  0.00000000E+00  0.00000000E+00  0.00000000E+00
  0.00000000E+00  0.00000000E+00  0.00000000E+00
  0.00000000E+00  0.00000000E+00  0.00000000E+00
  0.00000000E+00  0.00000000E+00  0.00000000E+00
  0.00000000E+00  0.00000000E+00  0.00000000E+00
  0.00000000E+00  0.00000000E+00  0.00000000E+00
  0.00000000E+00  0.00000000E+00  0.00000000E+00
