235                                     
   1.00000000000000     
    12.3312997818000003    0.0000000000000000    0.0000000000000000
     0.0001127485000000   12.8291997905000006    0.0000000000000000
     0.0005937186000000    0.0011528207000000   19.9943999824000009
   C    N    Fe   Ni   H 
    53     3     1     1     1
Direct
  0.0554924024555666  0.0551163261860778  0.0518020766363475
  0.1560890608891419  0.1106690975599188  0.0516274262672713
  0.1568549154639636  0.2216172463722409  0.0504773585423251
  0.0566320868806519  0.2759284013216811  0.0498403291509588
  0.2562847777696917  0.0559665762648033  0.0533116178197097
  0.3569739062249767  0.1113962656978359  0.0557475716335214
  0.3576873874811692  0.2233659483931389  0.0548506651664888
  0.2572137528780427  0.2778391638610312  0.0510678184929770
  0.4564867168858651  0.0551077502390846  0.0591388432077750
  0.5565082195292508  0.1115958703850778  0.0620482296157903
  0.5573015744861628  0.2240632100128674  0.0631760167889066
  0.4574486252514702  0.2812454972195196  0.0586028674738467
  0.6549034664439329  0.0514349340836236  0.0620054851090251
  0.7548192965045852  0.1092015862996009  0.0594071561633414
  0.7558297739946007  0.2221222065501171  0.0599467481206449
  0.6579465476135128  0.2823149133156088  0.0652909149272616
  0.8544345864135211  0.0531436703468396  0.0559457022064127
  0.9549631544417302  0.1095109753234134  0.0532361517059803
  0.9558454790988253  0.2208266771025609  0.0523715338068015
  0.8561913544022851  0.2769143587700052  0.0550746853795739
  0.0578149067353994  0.3868435131799455  0.0483088412351062
  0.1567862217695866  0.4433668353396487  0.0476419042784487
  0.1564106708455534  0.5545823459413448  0.0472470375516578
  0.0579397058298702  0.6101620829300028  0.0471287315281760
  0.2568670815253666  0.3891402249222617  0.0494086061006110
  0.3563152328962118  0.4460430118102769  0.0516663242763425
  0.3545729946105672  0.5592699593770170  0.0523528865737050
  0.2547804400808667  0.6120250170047692  0.0493230547225967
  0.7613591420282700  0.4481750657207917  0.0598977226567392
  0.8583758971334261  0.3886604940762856  0.0533943608990067
  0.9588429564809956  0.4422913508123375  0.0492813493637931
  0.9598138515638521  0.5528043993179519  0.0485548648141824
  0.8612698944728128  0.6072634833512486  0.0522619747970112
  0.0568494349546951  0.7215982090256468  0.0481712038235426
  0.1548664746462556  0.7783424530025486  0.0492223062356028
  0.1550389784138803  0.8893734216690583  0.0507171301646115
  0.0550411099848604  0.9441042196283427  0.0511736455247491
  0.2536270357958311  0.7226996301151294  0.0503387270625580
  0.3521562211222672  0.7780721386740920  0.0542656877160926
  0.3542323168975626  0.8891046534646719  0.0555287588418471
  0.2551696002239514  0.9449386777235088  0.0529306107683690
  0.4492014148789725  0.7206151141024770  0.0596373495216242
  0.5520351421473095  0.8818750067780539  0.0634731837656185
  0.4550824614367840  0.9426568048636742  0.0594860691590251
  0.7545832426007637  0.8815213070648470  0.0587410650212252
  0.6540058808263366  0.9381814374575191  0.0623366821695494
  0.8594370484209127  0.7194944710961875  0.0523306977106865
  0.9574590820762824  0.7764749849625857  0.0501687077448170
  0.9553160751374878  0.8875010249160341  0.0519079217750959
  0.8539566762586063  0.9408573419659403  0.0554053196621437
  0.4560601588825643  0.3929207921261021  0.0570325566314051
  0.6612116235048572  0.3940040170662233  0.0697355784787321
  0.7587086688508139  0.7694421777440366  0.0574743308772759
  0.7650739712821404  0.5573645761123186  0.0589578064790566
  0.5463605893611885  0.7730673480424604  0.0664857943245038
  0.4501209687345508  0.6130398937484622  0.0584677725399166
  0.6509477510733852  0.6642808141077217  0.0729881460293881
  0.5572349285754566  0.4946874493521141  0.0784290104515553
  0.6149069428305356  0.5718236361012862  0.1318670975086648
 
  0.00000000E+00  0.00000000E+00  0.00000000E+00
  0.00000000E+00  0.00000000E+00  0.00000000E+00
  0.00000000E+00  0.00000000E+00  0.00000000E+00
  0.00000000E+00  0.00000000E+00  0.00000000E+00
  0.00000000E+00  0.00000000E+00  0.00000000E+00
  0.00000000E+00  0.00000000E+00  0.00000000E+00
  0.00000000E+00  0.00000000E+00  0.00000000E+00
  0.00000000E+00  0.00000000E+00  0.00000000E+00
  0.00000000E+00  0.00000000E+00  0.00000000E+00
  0.00000000E+00  0.00000000E+00  0.00000000E+00
  0.00000000E+00  0.00000000E+00  0.00000000E+00
  0.00000000E+00  0.00000000E+00  0.00000000E+00
  0.00000000E+00  0.00000000E+00  0.00000000E+00
  0.00000000E+00  0.00000000E+00  0.00000000E+00
  0.00000000E+00  0.00000000E+00  0.00000000E+00
  0.00000000E+00  0.00000000E+00  0.00000000E+00
  0.00000000E+00  0.00000000E+00  0.00000000E+00
  0.00000000E+00  0.00000000E+00  0.00000000E+00
  0.00000000E+00  0.00000000E+00  0.00000000E+00
  0.00000000E+00  0.00000000E+00  0.00000000E+00
  0.00000000E+00  0.00000000E+00  0.00000000E+00
  0.00000000E+00  0.00000000E+00  0.00000000E+00
  0.00000000E+00  0.00000000E+00  0.00000000E+00
  0.00000000E+00  0.00000000E+00  0.00000000E+00
  0.00000000E+00  0.00000000E+00  0.00000000E+00
  0.00000000E+00  0.00000000E+00  0.00000000E+00
  0.00000000E+00  0.00000000E+00  0.00000000E+00
  0.00000000E+00  0.00000000E+00  0.00000000E+00
  0.00000000E+00  0.00000000E+00  0.00000000E+00
  0.00000000E+00  0.00000000E+00  0.00000000E+00
  0.00000000E+00  0.00000000E+00  0.00000000E+00
  0.00000000E+00  0.00000000E+00  0.00000000E+00
  0.00000000E+00  0.00000000E+00  0.00000000E+00
  0.00000000E+00  0.00000000E+00  0.00000000E+00
  0.00000000E+00  0.00000000E+00  0.00000000E+00
  0.00000000E+00  0.00000000E+00  0.00000000E+00
  0.00000000E+00  0.00000000E+00  0.00000000E+00
  0.00000000E+00  0.00000000E+00  0.00000000E+00
  0.00000000E+00  0.00000000E+00  0.00000000E+00
  0.00000000E+00  0.00000000E+00  0.00000000E+00
  0.00000000E+00  0.00000000E+00  0.00000000E+00
  0.00000000E+00  0.00000000E+00  0.00000000E+00
  0.00000000E+00  0.00000000E+00  0.00000000E+00
  0.00000000E+00  0.00000000E+00  0.00000000E+00
  0.00000000E+00  0.00000000E+00  0.00000000E+00
  0.00000000E+00  0.00000000E+00  0.00000000E+00
  0.00000000E+00  0.00000000E+00  0.00000000E+00
  0.00000000E+00  0.00000000E+00  0.00000000E+00
  0.00000000E+00  0.00000000E+00  0.00000000E+00
  0.00000000E+00  0.00000000E+00  0.00000000E+00
  0.00000000E+00  0.00000000E+00  0.00000000E+00
  0.00000000E+00  0.00000000E+00  0.00000000E+00
  0.00000000E+00  0.00000000E+00  0.00000000E+00
  0.00000000E+00  0.00000000E+00  0.00000000E+00
  0.00000000E+00  0.00000000E+00  0.00000000E+00
  0.00000000E+00  0.00000000E+00  0.00000000E+00
  0.00000000E+00  0.00000000E+00  0.00000000E+00
  0.00000000E+00  0.00000000E+00  0.00000000E+00
  0.00000000E+00  0.00000000E+00  0.00000000E+00
