CONTCAR\(5)                             
   1.00000000000000     
    12.3312997818000003    0.0000000000000000    0.0000000000000000
     0.0001127485000000   12.8291997905000006    0.0000000000000000
     0.0005937186000000    0.0011528207000000   19.9943999824000009
   C    N    Fe   Ni   O    H 
    54     2     1     1     2     2
Direct
  0.0568161571836421  0.0541374622864619  0.0499463824527251
  0.1571097749164446  0.1095911015094342  0.0500284745152628
  0.1576369414461119  0.2205947956516771  0.0497416671056885
  0.0575811270302638  0.2755701387201109  0.0495207022045705
  0.2573454359639313  0.0545507256494460  0.0514683451271651
  0.3577306389792119  0.1100593347829936  0.0538277702979966
  0.3581653835365311  0.2215293874354977  0.0537661133650625
  0.2579265384426803  0.2763766392614204  0.0510044827451422
  0.4574868468377093  0.0543768018116495  0.0568629396332856
  0.5576186216986044  0.1105168952270614  0.0594055247187187
  0.5582248630331980  0.2220175449079221  0.0608563601680987
  0.4581912286012624  0.2783388175464263  0.0581830646647463
  0.6567570904283905  0.0518474737629605  0.0592752951916605
  0.7564182028519957  0.1091605900682879  0.0566231343061851
  0.7570238017762371  0.2216607639918897  0.0569709369891400
  0.6582170892216840  0.2806799402400534  0.0617931182412689
  0.8561091460543877  0.0530578197589497  0.0534624378585031
  0.9563826391512072  0.1092513608395016  0.0511985049694118
  0.9569188746473858  0.2206629503418965  0.0510486077305003
  0.8568647362103425  0.2768888509124620  0.0535473408357282
  0.0586656335952327  0.3867027408780376  0.0491337029209080
  0.1580557551000195  0.4426556210994870  0.0493492912786066
  0.1589087482235928  0.5541446491376931  0.0493458696284438
  0.0592435467335151  0.6092918742995368  0.0487546601379841
  0.2581350654513457  0.3875071356005095  0.0509186140736850
  0.3577784700590257  0.4434583512935008  0.0546302515791277
  0.3600481417983858  0.5565428056579454  0.0563212564284315
  0.2586543199792253  0.6103961422607580  0.0518252145047895
  0.7593667947704698  0.4481006645645522  0.0587173441836644
  0.8579562682737415  0.3887057566261285  0.0532299435357084
  0.9588889092151848  0.4421643156732096  0.0503739029312472
  0.9600331403981258  0.5526218507147758  0.0502667453628248
  0.8599411784025128  0.6063797420291900  0.0534971854595706
  0.0586230333980432  0.7206020594733901  0.0486764612938771
  0.1572677607441864  0.7766169466146913  0.0494175980949065
  0.1567710870216836  0.8878711375178208  0.0497010640343489
  0.0565999196009563  0.9429298182749342  0.0495635050913627
  0.2570339535804089  0.7210601882871247  0.0516002489494175
  0.3558101601992860  0.7768626946259870  0.0546667245641437
  0.3563027164529458  0.8878863905742370  0.0542378803542809
  0.2565868616948927  0.9436155750346639  0.0514458385035000
  0.4551766854858092  0.7210570824603717  0.0607427807589554
  0.5546259243111957  0.8837691602281440  0.0609414211925824
  0.4562541893402165  0.9427201614302311  0.0572441171721379
  0.7562503928672243  0.8827533307610741  0.0572881791531247
  0.6562267124964933  0.9396730694577852  0.0601741704487056
  0.8598568811010158  0.7189817637477826  0.0526774123964071
  0.9585822821852776  0.7754912817828775  0.0496505316269900
  0.9567829388213696  0.8866912543920317  0.0503500194782711
  0.8559441059672181  0.9409815607691167  0.0531679096469972
  0.4560964815779996  0.3888239080915162  0.0602083145584788
  0.4599265677061007  0.6096072287515640  0.0640883098794640
  0.6600578288251447  0.3916280531858301  0.0667053869008384
  0.7605058944272625  0.7715099859473202  0.0583490976934618
  0.7628720749860306  0.5568490121791340  0.0589099190666288
  0.5508496661450374  0.7772110526914815  0.0639890907935440
  0.6555285263583756  0.6735789759894034  0.0861500837421272
  0.5531856352268802  0.4801130212496877  0.1002365387832508
  0.5680298139691335  0.5136493087866966  0.1860541037079734
  0.6835398437100403  0.6847156630634775  0.1768731064936784
  0.7006007324773661  0.7533755384221390  0.1946154096536376
  0.6063201273108269  0.5787937546680713  0.1985395878210529
 
  0.00000000E+00  0.00000000E+00  0.00000000E+00
  0.00000000E+00  0.00000000E+00  0.00000000E+00
  0.00000000E+00  0.00000000E+00  0.00000000E+00
  0.00000000E+00  0.00000000E+00  0.00000000E+00
  0.00000000E+00  0.00000000E+00  0.00000000E+00
  0.00000000E+00  0.00000000E+00  0.00000000E+00
  0.00000000E+00  0.00000000E+00  0.00000000E+00
  0.00000000E+00  0.00000000E+00  0.00000000E+00
  0.00000000E+00  0.00000000E+00  0.00000000E+00
  0.00000000E+00  0.00000000E+00  0.00000000E+00
  0.00000000E+00  0.00000000E+00  0.00000000E+00
  0.00000000E+00  0.00000000E+00  0.00000000E+00
  0.00000000E+00  0.00000000E+00  0.00000000E+00
  0.00000000E+00  0.00000000E+00  0.00000000E+00
  0.00000000E+00  0.00000000E+00  0.00000000E+00
  0.00000000E+00  0.00000000E+00  0.00000000E+00
  0.00000000E+00  0.00000000E+00  0.00000000E+00
  0.00000000E+00  0.00000000E+00  0.00000000E+00
  0.00000000E+00  0.00000000E+00  0.00000000E+00
  0.00000000E+00  0.00000000E+00  0.00000000E+00
  0.00000000E+00  0.00000000E+00  0.00000000E+00
  0.00000000E+00  0.00000000E+00  0.00000000E+00
  0.00000000E+00  0.00000000E+00  0.00000000E+00
  0.00000000E+00  0.00000000E+00  0.00000000E+00
  0.00000000E+00  0.00000000E+00  0.00000000E+00
  0.00000000E+00  0.00000000E+00  0.00000000E+00
  0.00000000E+00  0.00000000E+00  0.00000000E+00
  0.00000000E+00  0.00000000E+00  0.00000000E+00
  0.00000000E+00  0.00000000E+00  0.00000000E+00
  0.00000000E+00  0.00000000E+00  0.00000000E+00
  0.00000000E+00  0.00000000E+00  0.00000000E+00
  0.00000000E+00  0.00000000E+00  0.00000000E+00
  0.00000000E+00  0.00000000E+00  0.00000000E+00
  0.00000000E+00  0.00000000E+00  0.00000000E+00
  0.00000000E+00  0.00000000E+00  0.00000000E+00
  0.00000000E+00  0.00000000E+00  0.00000000E+00
  0.00000000E+00  0.00000000E+00  0.00000000E+00
  0.00000000E+00  0.00000000E+00  0.00000000E+00
  0.00000000E+00  0.00000000E+00  0.00000000E+00
  0.00000000E+00  0.00000000E+00  0.00000000E+00
  0.00000000E+00  0.00000000E+00  0.00000000E+00
  0.00000000E+00  0.00000000E+00  0.00000000E+00
  0.00000000E+00  0.00000000E+00  0.00000000E+00
  0.00000000E+00  0.00000000E+00  0.00000000E+00
  0.00000000E+00  0.00000000E+00  0.00000000E+00
  0.00000000E+00  0.00000000E+00  0.00000000E+00
  0.00000000E+00  0.00000000E+00  0.00000000E+00
  0.00000000E+00  0.00000000E+00  0.00000000E+00
  0.00000000E+00  0.00000000E+00  0.00000000E+00
  0.00000000E+00  0.00000000E+00  0.00000000E+00
  0.00000000E+00  0.00000000E+00  0.00000000E+00
  0.00000000E+00  0.00000000E+00  0.00000000E+00
  0.00000000E+00  0.00000000E+00  0.00000000E+00
  0.00000000E+00  0.00000000E+00  0.00000000E+00
  0.00000000E+00  0.00000000E+00  0.00000000E+00
  0.00000000E+00  0.00000000E+00  0.00000000E+00
  0.00000000E+00  0.00000000E+00  0.00000000E+00
  0.00000000E+00  0.00000000E+00  0.00000000E+00
  0.00000000E+00  0.00000000E+00  0.00000000E+00
  0.00000000E+00  0.00000000E+00  0.00000000E+00
  0.00000000E+00  0.00000000E+00  0.00000000E+00
  0.00000000E+00  0.00000000E+00  0.00000000E+00
