CONTCAR\(2)                             
   1.00000000000000     
    12.3312997818000003    0.0000000000000000    0.0000000000000000
     0.0001127485000000   12.8291997905000006    0.0000000000000000
     0.0005937186000000    0.0011528207000000   19.9943999824000009
   C    N    Fe   Ni   H 
    53     3     1     1     1
Direct
  0.0557205277841678  0.0546133713134955  0.0555281355654836
  0.1558691065217762  0.1109086411363670  0.0552715062517899
  0.1567652188481149  0.2218431771205973  0.0546726093949661
  0.0566941951572561  0.2763026518929317  0.0541052909680313
  0.2562547374895814  0.0564473624501010  0.0556761238606816
  0.3568771531921480  0.1122698852914685  0.0566532587104659
  0.3578633561718175  0.2241816116890063  0.0568232742370275
  0.2570574500196522  0.2780341591350644  0.0550135864964770
  0.4565135296340918  0.0560472157198413  0.0575619485754454
  0.5574029538091357  0.1115535024186290  0.0587907698951456
  0.5582491146887744  0.2239482673523851  0.0595913841905201
  0.4584097552130580  0.2821528808125593  0.0586817208187315
  0.6559950594234228  0.0511694345262011  0.0585198836083416
  0.7554638893212805  0.1080887587572753  0.0574793028520129
  0.7574222263370577  0.2204309512191351  0.0571965767741660
  0.6594506694242546  0.2798350090552945  0.0593031410131110
  0.8548113635248324  0.0519500155150217  0.0567130202667026
  0.9552743396861907  0.1085186532109075  0.0558012304039963
  0.9568271268474753  0.2199323331572972  0.0549595615053350
  0.8573906741142919  0.2755157778061793  0.0553044555039252
  0.0571039602718756  0.3878391211478288  0.0533598646098224
  0.1561344967527250  0.4438597717390753  0.0531456772748679
  0.1561988515830595  0.5551518523860879  0.0530757450665075
  0.0563066243016744  0.6099275510260880  0.0534011328093961
  0.2562362882246486  0.3889877932668763  0.0538818403933187
  0.3551999020406786  0.4453860894874985  0.0549880839914452
  0.3569224651298690  0.5583191002981645  0.0540568713696087
  0.2556512146717168  0.6119146963042731  0.0532097456447106
  0.7595406000887988  0.4427915642225477  0.0555313983930627
  0.8585008887974296  0.3870088267237085  0.0540029473365840
  0.9575079167613234  0.4432745363400132  0.0531598797047663
  0.9566874784235471  0.5540867224992642  0.0533281426096543
  0.8557463486704682  0.6084954415565785  0.0538730416681772
  0.0555689579595646  0.7211106488192363  0.0541267712429252
  0.1540393846278789  0.7777413585770991  0.0540266904183866
  0.1548465718643924  0.8888661040115344  0.0547928472637131
  0.0549346704850267  0.9435764534439189  0.0554739890041998
  0.2535898543425364  0.7225096510121750  0.0534519593759392
  0.3518485159469516  0.7788258380311083  0.0543783015531619
  0.3539610411839022  0.8898374590971423  0.0553848195630642
  0.2546524389607462  0.9452926267704664  0.0551645992086702
  0.4505588374251290  0.7233465995901186  0.0564136689896361
  0.5523154038959925  0.8846034916946522  0.0586888732564684
  0.4544623199606559  0.9445183522025941  0.0570366578595327
  0.7550410792882013  0.8796341415621566  0.0580437546418649
  0.6551526779927027  0.9377261515711952  0.0588114625933353
  0.8568793638482454  0.7207465093818749  0.0555206966976719
  0.9556983255571296  0.7762891183572268  0.0552476658090571
  0.9554593643516470  0.8871779112598193  0.0559624360987199
  0.8540691495504195  0.9396714656086461  0.0569550663818242
  0.4547188338577908  0.3933065091562802  0.0583668898535870
  0.4572862658457764  0.6120605363109537  0.0563142610846825
  0.7547228653228171  0.5556509572146727  0.0540843906420692
  0.6638814871653479  0.3865990525624321  0.0602426529324240
  0.5465224879024541  0.7787457319289554  0.0598092096821483
  0.7581076897331940  0.7697456519561513  0.0575181263444622
  0.6390920641146105  0.6640430232307958  0.0608291324594579
  0.5661530309188493  0.4932670296952937  0.0651562878253453
  0.6299278789718800  0.5910008503757626  0.1216276424533700
 
  0.00000000E+00  0.00000000E+00  0.00000000E+00
  0.00000000E+00  0.00000000E+00  0.00000000E+00
  0.00000000E+00  0.00000000E+00  0.00000000E+00
  0.00000000E+00  0.00000000E+00  0.00000000E+00
  0.00000000E+00  0.00000000E+00  0.00000000E+00
  0.00000000E+00  0.00000000E+00  0.00000000E+00
  0.00000000E+00  0.00000000E+00  0.00000000E+00
  0.00000000E+00  0.00000000E+00  0.00000000E+00
  0.00000000E+00  0.00000000E+00  0.00000000E+00
  0.00000000E+00  0.00000000E+00  0.00000000E+00
  0.00000000E+00  0.00000000E+00  0.00000000E+00
  0.00000000E+00  0.00000000E+00  0.00000000E+00
  0.00000000E+00  0.00000000E+00  0.00000000E+00
  0.00000000E+00  0.00000000E+00  0.00000000E+00
  0.00000000E+00  0.00000000E+00  0.00000000E+00
  0.00000000E+00  0.00000000E+00  0.00000000E+00
  0.00000000E+00  0.00000000E+00  0.00000000E+00
  0.00000000E+00  0.00000000E+00  0.00000000E+00
  0.00000000E+00  0.00000000E+00  0.00000000E+00
  0.00000000E+00  0.00000000E+00  0.00000000E+00
  0.00000000E+00  0.00000000E+00  0.00000000E+00
  0.00000000E+00  0.00000000E+00  0.00000000E+00
  0.00000000E+00  0.00000000E+00  0.00000000E+00
  0.00000000E+00  0.00000000E+00  0.00000000E+00
  0.00000000E+00  0.00000000E+00  0.00000000E+00
  0.00000000E+00  0.00000000E+00  0.00000000E+00
  0.00000000E+00  0.00000000E+00  0.00000000E+00
  0.00000000E+00  0.00000000E+00  0.00000000E+00
  0.00000000E+00  0.00000000E+00  0.00000000E+00
  0.00000000E+00  0.00000000E+00  0.00000000E+00
  0.00000000E+00  0.00000000E+00  0.00000000E+00
  0.00000000E+00  0.00000000E+00  0.00000000E+00
  0.00000000E+00  0.00000000E+00  0.00000000E+00
  0.00000000E+00  0.00000000E+00  0.00000000E+00
  0.00000000E+00  0.00000000E+00  0.00000000E+00
  0.00000000E+00  0.00000000E+00  0.00000000E+00
  0.00000000E+00  0.00000000E+00  0.00000000E+00
  0.00000000E+00  0.00000000E+00  0.00000000E+00
  0.00000000E+00  0.00000000E+00  0.00000000E+00
  0.00000000E+00  0.00000000E+00  0.00000000E+00
  0.00000000E+00  0.00000000E+00  0.00000000E+00
  0.00000000E+00  0.00000000E+00  0.00000000E+00
  0.00000000E+00  0.00000000E+00  0.00000000E+00
  0.00000000E+00  0.00000000E+00  0.00000000E+00
  0.00000000E+00  0.00000000E+00  0.00000000E+00
  0.00000000E+00  0.00000000E+00  0.00000000E+00
  0.00000000E+00  0.00000000E+00  0.00000000E+00
  0.00000000E+00  0.00000000E+00  0.00000000E+00
  0.00000000E+00  0.00000000E+00  0.00000000E+00
  0.00000000E+00  0.00000000E+00  0.00000000E+00
  0.00000000E+00  0.00000000E+00  0.00000000E+00
  0.00000000E+00  0.00000000E+00  0.00000000E+00
  0.00000000E+00  0.00000000E+00  0.00000000E+00
  0.00000000E+00  0.00000000E+00  0.00000000E+00
  0.00000000E+00  0.00000000E+00  0.00000000E+00
  0.00000000E+00  0.00000000E+00  0.00000000E+00
  0.00000000E+00  0.00000000E+00  0.00000000E+00
  0.00000000E+00  0.00000000E+00  0.00000000E+00
  0.00000000E+00  0.00000000E+00  0.00000000E+00
