CONTCAR\(6)                             
   1.00000000000000     
    12.3312997818000003    0.0000000000000000    0.0000000000000000
     0.0001127485000000   12.8291997905000006    0.0000000000000000
     0.0005937186000000    0.0011528207000000   19.9943999824000009
   C    N    Fe   Ni   H 
    54     2     1     1     1
Direct
  0.0564143309745043  0.0551473757036408  0.0513289763560423
  0.1567243428892690  0.1105104713879354  0.0516374590030494
  0.1570207223726907  0.2215309090905299  0.0503391185764258
  0.0569609266663714  0.2762121887158950  0.0487892880153374
  0.2571019746684822  0.0556922956001328  0.0539697853397054
  0.3573847541199126  0.1119028719188960  0.0567930218766991
  0.3576828642833412  0.2240317750312049  0.0560281813912993
  0.2568017088251854  0.2777822075596925  0.0517390035950087
  0.4569401031201210  0.0559682910530045  0.0605061422405416
  0.5569759340841578  0.1132914281092239  0.0629042199094736
  0.5574237101014795  0.2257458049524477  0.0632205284138270
  0.4573172860618641  0.2825673166724091  0.0596267113614265
  0.6558199116414989  0.0536802801476069  0.0625053158671904
  0.7557020892291211  0.1104331284556879  0.0585033372556769
  0.7569951294725964  0.2225466743300059  0.0580881515148923
  0.6589676583842761  0.2827331603522738  0.0633938533081117
  0.8554276578361002  0.0544954517061062  0.0549581715772544
  0.9560018312066945  0.1098412615466835  0.0521399214016513
  0.9569756857071393  0.2206003886947409  0.0507821363449982
  0.8574325654295735  0.2762837192405208  0.0528728842197718
  0.0568410090843119  0.3873614001619163  0.0471474122601512
  0.1554085817799903  0.4435164647098071  0.0476247021322038
  0.1551159993805069  0.5550574547242915  0.0475174643437272
  0.0561953289319157  0.6103757981131805  0.0468140100512821
  0.2550853016281723  0.3887122804146430  0.0503069737898698
  0.3536289438891568  0.4453148825196038  0.0536957899716600
  0.3526366224294996  0.5578301028862181  0.0552842089459207
  0.2533311644101738  0.6121486225949447  0.0507105481693572
  0.7596104507489033  0.4434384810805919  0.0559215241357166
  0.8582762520186985  0.3871114994035540  0.0505589215479017
  0.9573379822717667  0.4429296952783331  0.0470772380534520
  0.9574668003654088  0.5536374756887117  0.0467741445482428
  0.8573555118719288  0.6078496481655300  0.0486672719698327
  0.0561717274919581  0.7220928888645183  0.0480197427175186
  0.1548018281317806  0.7782925917702963  0.0498304482218848
  0.1558536038638108  0.8894195844032270  0.0511417355492626
  0.0559204595559265  0.9442916557826136  0.0509117864716089
  0.2538310782355611  0.7225967876493375  0.0518135183167995
  0.3537776443294339  0.7762597938501029  0.0564181315222926
  0.3559885464678714  0.8881553843180737  0.0572409930030215
  0.2563772822114859  0.9443999038625661  0.0538521584965994
  0.4511302177524621  0.7171123473947727  0.0636145305532746
  0.5541957093293208  0.8837313386921852  0.0668490907335388
  0.4560612690598942  0.9433603639480512  0.0615313609179017
  0.7554057952068214  0.8849734199127742  0.0589535058641280
  0.6552227710043321  0.9416667147120183  0.0640203075366644
  0.8576574506188493  0.7214041432079085  0.0505667091065561
  0.9565462357682669  0.7775163883271745  0.0493317561003768
  0.9557865378262311  0.8885183915662720  0.0512374749849364
  0.8550106631503379  0.9427406122128835  0.0546660555954970
  0.4536645580707337  0.3941883410638992  0.0585259448810026
  0.7581631217208935  0.5543794144581901  0.0538101204743856
  0.5501942884367387  0.7727817065779504  0.0725804605490111
  0.7579049330790290  0.7735099174172895  0.0572989820960365
  0.4483874166490037  0.6074449705806938  0.0633775764445512
  0.6633420704468171  0.3897275535310574  0.0661417150351191
  0.6569319101963016  0.6668796400702698  0.0843204736517432
  0.5591358571001794  0.4947476767206697  0.0763210300530507
  0.6137260014111506  0.5701775850952343  0.1354579816355410
 
  0.00000000E+00  0.00000000E+00  0.00000000E+00
  0.00000000E+00  0.00000000E+00  0.00000000E+00
  0.00000000E+00  0.00000000E+00  0.00000000E+00
  0.00000000E+00  0.00000000E+00  0.00000000E+00
  0.00000000E+00  0.00000000E+00  0.00000000E+00
  0.00000000E+00  0.00000000E+00  0.00000000E+00
  0.00000000E+00  0.00000000E+00  0.00000000E+00
  0.00000000E+00  0.00000000E+00  0.00000000E+00
  0.00000000E+00  0.00000000E+00  0.00000000E+00
  0.00000000E+00  0.00000000E+00  0.00000000E+00
  0.00000000E+00  0.00000000E+00  0.00000000E+00
  0.00000000E+00  0.00000000E+00  0.00000000E+00
  0.00000000E+00  0.00000000E+00  0.00000000E+00
  0.00000000E+00  0.00000000E+00  0.00000000E+00
  0.00000000E+00  0.00000000E+00  0.00000000E+00
  0.00000000E+00  0.00000000E+00  0.00000000E+00
  0.00000000E+00  0.00000000E+00  0.00000000E+00
  0.00000000E+00  0.00000000E+00  0.00000000E+00
  0.00000000E+00  0.00000000E+00  0.00000000E+00
  0.00000000E+00  0.00000000E+00  0.00000000E+00
  0.00000000E+00  0.00000000E+00  0.00000000E+00
  0.00000000E+00  0.00000000E+00  0.00000000E+00
  0.00000000E+00  0.00000000E+00  0.00000000E+00
  0.00000000E+00  0.00000000E+00  0.00000000E+00
  0.00000000E+00  0.00000000E+00  0.00000000E+00
  0.00000000E+00  0.00000000E+00  0.00000000E+00
  0.00000000E+00  0.00000000E+00  0.00000000E+00
  0.00000000E+00  0.00000000E+00  0.00000000E+00
  0.00000000E+00  0.00000000E+00  0.00000000E+00
  0.00000000E+00  0.00000000E+00  0.00000000E+00
  0.00000000E+00  0.00000000E+00  0.00000000E+00
  0.00000000E+00  0.00000000E+00  0.00000000E+00
  0.00000000E+00  0.00000000E+00  0.00000000E+00
  0.00000000E+00  0.00000000E+00  0.00000000E+00
  0.00000000E+00  0.00000000E+00  0.00000000E+00
  0.00000000E+00  0.00000000E+00  0.00000000E+00
  0.00000000E+00  0.00000000E+00  0.00000000E+00
  0.00000000E+00  0.00000000E+00  0.00000000E+00
  0.00000000E+00  0.00000000E+00  0.00000000E+00
  0.00000000E+00  0.00000000E+00  0.00000000E+00
  0.00000000E+00  0.00000000E+00  0.00000000E+00
  0.00000000E+00  0.00000000E+00  0.00000000E+00
  0.00000000E+00  0.00000000E+00  0.00000000E+00
  0.00000000E+00  0.00000000E+00  0.00000000E+00
  0.00000000E+00  0.00000000E+00  0.00000000E+00
  0.00000000E+00  0.00000000E+00  0.00000000E+00
  0.00000000E+00  0.00000000E+00  0.00000000E+00
  0.00000000E+00  0.00000000E+00  0.00000000E+00
  0.00000000E+00  0.00000000E+00  0.00000000E+00
  0.00000000E+00  0.00000000E+00  0.00000000E+00
  0.00000000E+00  0.00000000E+00  0.00000000E+00
  0.00000000E+00  0.00000000E+00  0.00000000E+00
  0.00000000E+00  0.00000000E+00  0.00000000E+00
  0.00000000E+00  0.00000000E+00  0.00000000E+00
  0.00000000E+00  0.00000000E+00  0.00000000E+00
  0.00000000E+00  0.00000000E+00  0.00000000E+00
  0.00000000E+00  0.00000000E+00  0.00000000E+00
  0.00000000E+00  0.00000000E+00  0.00000000E+00
  0.00000000E+00  0.00000000E+00  0.00000000E+00
