CONTCAR                                 
   1.00000000000000     
    12.3312997818000003    0.0000000000000000    0.0000000000000000
     0.0001127485000000   12.8291997905000006    0.0000000000000000
     0.0005937186000000    0.0011528207000000   19.9943999824000009
   C    N    Fe   Ni   O 
    54     2     1     1     1
Direct
  0.0566919247145153  0.0559414543208268  0.0514665427053516
  0.1569906410895341  0.1104795718715838  0.0506848435410251
  0.1562474833612995  0.2214803187942274  0.0496978941112307
  0.0557362967892556  0.2769618072063690  0.0496861248304272
  0.2574429733214922  0.0545267317786319  0.0514743640242921
  0.3578659492604276  0.1095381196269049  0.0541448163056820
  0.3573133320715247  0.2217628269370781  0.0536385856305801
  0.2564362786981977  0.2765904781836898  0.0497491831380738
  0.4576446608891825  0.0524388621481466  0.0576887349433359
  0.5570650427360155  0.1095816461023701  0.0616844182444063
  0.5564935887794471  0.2217727769667078  0.0628812486662661
  0.4567030051487670  0.2794484813636912  0.0579511924735941
  0.6569717728962071  0.0512453048261862  0.0629478387986847
  0.7559065942787678  0.1097640963487243  0.0608760629852383
  0.7556346165125084  0.2222647784953141  0.0612242942398393
  0.6561924812004356  0.2799813929340518  0.0655978204948026
  0.8561010599115413  0.0549471383833826  0.0571514762807962
  0.9560685979710241  0.1108772850833886  0.0537145504054650
  0.9555141257239024  0.2221228201693624  0.0530197225904474
  0.8553203569670382  0.2781677864569108  0.0565140895562929
  0.0553074324442882  0.3882033336678685  0.0476647898609890
  0.1547080459283941  0.4431311170867888  0.0456092785340842
  0.1541334756557093  0.5543818389056541  0.0444970226046745
  0.0554113575847290  0.6107281435604430  0.0455858763669817
  0.2549298286854178  0.3876303596166133  0.0472834928984484
  0.3541606507097473  0.4433821894634807  0.0490020228485049
  0.3521893438150257  0.5561322697422684  0.0475561375964482
  0.2529029913167858  0.6107329742323183  0.0449573564947155
  0.7559034144573505  0.4479877033850279  0.0618263218639305
  0.8556244980395500  0.3900631140436755  0.0552334934714459
  0.9553476007741022  0.4446512840872375  0.0496662716927029
  0.9556833901766445  0.5558362145141293  0.0485566125269299
  0.8563950697842087  0.6128958270658407  0.0533496244372419
  0.0568273675770711  0.7220838401250645  0.0462114189345275
  0.1557743449528886  0.7778081155436377  0.0461130004149067
  0.1570045949932952  0.8889326012174847  0.0484071252329690
  0.0573643303775879  0.9450797478474833  0.0504546107447801
  0.2546956704709754  0.7213068668620758  0.0460360989213830
  0.3551615264374791  0.7743882616449229  0.0497726908969180
  0.3574417213250709  0.8859415241433387  0.0521022507596266
  0.2575921652591313  0.9431355250447908  0.0502264371355430
  0.4526042804447525  0.7136856720537846  0.0540794979689946
  0.5572012258958177  0.8791208659828628  0.0621937184938462
  0.4579832800391013  0.9397212659759735  0.0571005109351181
  0.7593568570637559  0.8845656081203844  0.0630141827837984
  0.6574898025548491  0.9383740885253532  0.0641597988641879
  0.8594047390994213  0.7254456451721446  0.0555870782879501
  0.9582310749683904  0.7791027843262737  0.0501924383981671
  0.9579342673982038  0.8898157775244300  0.0525617058380486
  0.8573215788637042  0.9434501537589201  0.0573013413082162
  0.4544884065926547  0.3910406223396816  0.0559829598176123
  0.6576776928924853  0.3908436254080302  0.0694275685843667
  0.7571411915895857  0.5606140121092180  0.0613243986821570
  0.5525613714113152  0.7671758499697675  0.0638733034453027
  0.4478615676883687  0.6062702382549464  0.0519441081125469
  0.7639857201303701  0.7769976589833589  0.0659861284085946
  0.6613361850953048  0.6717183921825630  0.0983717981696343
  0.5549035730107712  0.4932180802066883  0.0764474300394792
  0.6033274401746169  0.5824631203079207  0.1472363076583713
 
  0.00000000E+00  0.00000000E+00  0.00000000E+00
  0.00000000E+00  0.00000000E+00  0.00000000E+00
  0.00000000E+00  0.00000000E+00  0.00000000E+00
  0.00000000E+00  0.00000000E+00  0.00000000E+00
  0.00000000E+00  0.00000000E+00  0.00000000E+00
  0.00000000E+00  0.00000000E+00  0.00000000E+00
  0.00000000E+00  0.00000000E+00  0.00000000E+00
  0.00000000E+00  0.00000000E+00  0.00000000E+00
  0.00000000E+00  0.00000000E+00  0.00000000E+00
  0.00000000E+00  0.00000000E+00  0.00000000E+00
  0.00000000E+00  0.00000000E+00  0.00000000E+00
  0.00000000E+00  0.00000000E+00  0.00000000E+00
  0.00000000E+00  0.00000000E+00  0.00000000E+00
  0.00000000E+00  0.00000000E+00  0.00000000E+00
  0.00000000E+00  0.00000000E+00  0.00000000E+00
  0.00000000E+00  0.00000000E+00  0.00000000E+00
  0.00000000E+00  0.00000000E+00  0.00000000E+00
  0.00000000E+00  0.00000000E+00  0.00000000E+00
  0.00000000E+00  0.00000000E+00  0.00000000E+00
  0.00000000E+00  0.00000000E+00  0.00000000E+00
  0.00000000E+00  0.00000000E+00  0.00000000E+00
  0.00000000E+00  0.00000000E+00  0.00000000E+00
  0.00000000E+00  0.00000000E+00  0.00000000E+00
  0.00000000E+00  0.00000000E+00  0.00000000E+00
  0.00000000E+00  0.00000000E+00  0.00000000E+00
  0.00000000E+00  0.00000000E+00  0.00000000E+00
  0.00000000E+00  0.00000000E+00  0.00000000E+00
  0.00000000E+00  0.00000000E+00  0.00000000E+00
  0.00000000E+00  0.00000000E+00  0.00000000E+00
  0.00000000E+00  0.00000000E+00  0.00000000E+00
  0.00000000E+00  0.00000000E+00  0.00000000E+00
  0.00000000E+00  0.00000000E+00  0.00000000E+00
  0.00000000E+00  0.00000000E+00  0.00000000E+00
  0.00000000E+00  0.00000000E+00  0.00000000E+00
  0.00000000E+00  0.00000000E+00  0.00000000E+00
  0.00000000E+00  0.00000000E+00  0.00000000E+00
  0.00000000E+00  0.00000000E+00  0.00000000E+00
  0.00000000E+00  0.00000000E+00  0.00000000E+00
  0.00000000E+00  0.00000000E+00  0.00000000E+00
  0.00000000E+00  0.00000000E+00  0.00000000E+00
  0.00000000E+00  0.00000000E+00  0.00000000E+00
  0.00000000E+00  0.00000000E+00  0.00000000E+00
  0.00000000E+00  0.00000000E+00  0.00000000E+00
  0.00000000E+00  0.00000000E+00  0.00000000E+00
  0.00000000E+00  0.00000000E+00  0.00000000E+00
  0.00000000E+00  0.00000000E+00  0.00000000E+00
  0.00000000E+00  0.00000000E+00  0.00000000E+00
  0.00000000E+00  0.00000000E+00  0.00000000E+00
  0.00000000E+00  0.00000000E+00  0.00000000E+00
  0.00000000E+00  0.00000000E+00  0.00000000E+00
  0.00000000E+00  0.00000000E+00  0.00000000E+00
  0.00000000E+00  0.00000000E+00  0.00000000E+00
  0.00000000E+00  0.00000000E+00  0.00000000E+00
  0.00000000E+00  0.00000000E+00  0.00000000E+00
  0.00000000E+00  0.00000000E+00  0.00000000E+00
  0.00000000E+00  0.00000000E+00  0.00000000E+00
  0.00000000E+00  0.00000000E+00  0.00000000E+00
  0.00000000E+00  0.00000000E+00  0.00000000E+00
  0.00000000E+00  0.00000000E+00  0.00000000E+00
