CONTCAR\(4)                             
   1.00000000000000     
    12.3312997818000003    0.0000000000000000    0.0000000000000000
     0.0001127485000000   12.8291997905000006    0.0000000000000000
     0.0005937186000000    0.0011528207000000   19.9943999824000009
   C    N    Fe   Ni   O 
    53     3     1     1     2
Direct
  0.0557308886235913  0.0559866942282308  0.0487856891454535
  0.1560144614778761  0.1107238864639002  0.0483433878693513
  0.1552443611078334  0.2216738390122458  0.0476000951216634
  0.0549110368516547  0.2773437406314406  0.0476782496782559
  0.2565096347750017  0.0550901773028208  0.0497688887959214
  0.3568183394536965  0.1104154333383691  0.0528585641011198
  0.3558176370756750  0.2224651844649345  0.0524325126485696
  0.2551706456412242  0.2768179525182103  0.0485064969102926
  0.4565328227026945  0.0537764071582984  0.0566087087956137
  0.5556358958812671  0.1114417097280064  0.0604924329386106
  0.5550259819565329  0.2241232468909812  0.0620470332731860
  0.4543782434678457  0.2810738258366810  0.0568333816695170
  0.6557663947317178  0.0524365653425834  0.0612996617394185
  0.7549873583620240  0.1104251107000372  0.0586491393795038
  0.7551848893588634  0.2227378278816834  0.0596393581930167
  0.6557613096080629  0.2809809668014946  0.0656501014347337
  0.8549794544683493  0.0549423216389338  0.0545586539532207
  0.9549711896308121  0.1110421549819858  0.0511217748557063
  0.9546274007844590  0.2225028035971920  0.0508183884997151
  0.8546285809218893  0.2789668599640787  0.0549426716327553
  0.0551488981492601  0.3885636995045017  0.0462203248242474
  0.1547976575131432  0.4437482914440792  0.0449293904575114
  0.1551208380921171  0.5546293554798685  0.0440170631340030
  0.0561436154653771  0.6110878521005851  0.0445506193554450
  0.2546925389017537  0.3879333064166631  0.0471947071952812
  0.3543013159545220  0.4421892832112544  0.0504487680756522
  0.3545162342104260  0.5555828736752139  0.0516654682014856
  0.2543903686645405  0.6100475535410076  0.0461810346043005
  0.7568792362464686  0.4498599623780508  0.0648838123150998
  0.8554992591454813  0.3909720785312977  0.0547636981481419
  0.9555115750902330  0.4451124528894377  0.0486139011579353
  0.9564676330725260  0.5562529391476079  0.0476938895402430
  0.8574875917750673  0.6130001692881292  0.0536958744357710
  0.0567463479374393  0.7222115402393330  0.0451544523352366
  0.1556805064632795  0.7777672182634582  0.0453470493520093
  0.1564146295378491  0.8890027933947929  0.0468239521347115
  0.0565343154325312  0.9451192924414900  0.0479825356941579
  0.2547074939735163  0.7210892248249791  0.0469271381628090
  0.3544179379026424  0.7749333036388814  0.0513336880999339
  0.3565138423297202  0.8867235035937483  0.0519485903851187
  0.2567242499752325  0.9436441839077271  0.0490275593650290
  0.4517701675046240  0.7151981534926853  0.0586727605102543
  0.5555940492935640  0.8810123346306648  0.0618975259463132
  0.4567892722453161  0.9413211492062953  0.0565462379597113
  0.7577956454411005  0.8839697820422470  0.0603307482723503
  0.6562418796626740  0.9393292674560116  0.0624680415908749
  0.8593579791220270  0.7250400777949566  0.0537469838927118
  0.9578138783202400  0.7791797856146048  0.0484875769944517
  0.9570240497263529  0.8898397182161231  0.0500406857817538
  0.8559681153304238  0.9431481430484140  0.0546236036157351
  0.6608458802274935  0.3903313132407291  0.0730031742274446
  0.7580836066456628  0.5630690251501067  0.0656535688565551
  0.5518487991980595  0.7696001290225420  0.0659155953211737
  0.4512443377671514  0.3894188864534185  0.0554783109058122
  0.4494770032891368  0.6069947513401094  0.0607627808655256
  0.7622854688314527  0.7755223255672686  0.0622689819324750
  0.6599015261347547  0.6758895708989628  0.0974669154113357
  0.5534048891837793  0.4856398082426282  0.0864907894639331
  0.5948819064349787  0.5183650350831520  0.1732767052328704
  0.6359686689270021  0.6207631311048938  0.1750702956089516
 
  0.00000000E+00  0.00000000E+00  0.00000000E+00
  0.00000000E+00  0.00000000E+00  0.00000000E+00
  0.00000000E+00  0.00000000E+00  0.00000000E+00
  0.00000000E+00  0.00000000E+00  0.00000000E+00
  0.00000000E+00  0.00000000E+00  0.00000000E+00
  0.00000000E+00  0.00000000E+00  0.00000000E+00
  0.00000000E+00  0.00000000E+00  0.00000000E+00
  0.00000000E+00  0.00000000E+00  0.00000000E+00
  0.00000000E+00  0.00000000E+00  0.00000000E+00
  0.00000000E+00  0.00000000E+00  0.00000000E+00
  0.00000000E+00  0.00000000E+00  0.00000000E+00
  0.00000000E+00  0.00000000E+00  0.00000000E+00
  0.00000000E+00  0.00000000E+00  0.00000000E+00
  0.00000000E+00  0.00000000E+00  0.00000000E+00
  0.00000000E+00  0.00000000E+00  0.00000000E+00
  0.00000000E+00  0.00000000E+00  0.00000000E+00
  0.00000000E+00  0.00000000E+00  0.00000000E+00
  0.00000000E+00  0.00000000E+00  0.00000000E+00
  0.00000000E+00  0.00000000E+00  0.00000000E+00
  0.00000000E+00  0.00000000E+00  0.00000000E+00
  0.00000000E+00  0.00000000E+00  0.00000000E+00
  0.00000000E+00  0.00000000E+00  0.00000000E+00
  0.00000000E+00  0.00000000E+00  0.00000000E+00
  0.00000000E+00  0.00000000E+00  0.00000000E+00
  0.00000000E+00  0.00000000E+00  0.00000000E+00
  0.00000000E+00  0.00000000E+00  0.00000000E+00
  0.00000000E+00  0.00000000E+00  0.00000000E+00
  0.00000000E+00  0.00000000E+00  0.00000000E+00
  0.00000000E+00  0.00000000E+00  0.00000000E+00
  0.00000000E+00  0.00000000E+00  0.00000000E+00
  0.00000000E+00  0.00000000E+00  0.00000000E+00
  0.00000000E+00  0.00000000E+00  0.00000000E+00
  0.00000000E+00  0.00000000E+00  0.00000000E+00
  0.00000000E+00  0.00000000E+00  0.00000000E+00
  0.00000000E+00  0.00000000E+00  0.00000000E+00
  0.00000000E+00  0.00000000E+00  0.00000000E+00
  0.00000000E+00  0.00000000E+00  0.00000000E+00
  0.00000000E+00  0.00000000E+00  0.00000000E+00
  0.00000000E+00  0.00000000E+00  0.00000000E+00
  0.00000000E+00  0.00000000E+00  0.00000000E+00
  0.00000000E+00  0.00000000E+00  0.00000000E+00
  0.00000000E+00  0.00000000E+00  0.00000000E+00
  0.00000000E+00  0.00000000E+00  0.00000000E+00
  0.00000000E+00  0.00000000E+00  0.00000000E+00
  0.00000000E+00  0.00000000E+00  0.00000000E+00
  0.00000000E+00  0.00000000E+00  0.00000000E+00
  0.00000000E+00  0.00000000E+00  0.00000000E+00
  0.00000000E+00  0.00000000E+00  0.00000000E+00
  0.00000000E+00  0.00000000E+00  0.00000000E+00
  0.00000000E+00  0.00000000E+00  0.00000000E+00
  0.00000000E+00  0.00000000E+00  0.00000000E+00
  0.00000000E+00  0.00000000E+00  0.00000000E+00
  0.00000000E+00  0.00000000E+00  0.00000000E+00
  0.00000000E+00  0.00000000E+00  0.00000000E+00
  0.00000000E+00  0.00000000E+00  0.00000000E+00
  0.00000000E+00  0.00000000E+00  0.00000000E+00
  0.00000000E+00  0.00000000E+00  0.00000000E+00
  0.00000000E+00  0.00000000E+00  0.00000000E+00
  0.00000000E+00  0.00000000E+00  0.00000000E+00
  0.00000000E+00  0.00000000E+00  0.00000000E+00
