CONTCAR\(2)\(3)                         
   1.00000000000000     
    12.3312997818000003    0.0000000000000000    0.0000000000000000
     0.0001127485000000   12.8291997905000006    0.0000000000000000
     0.0005937186000000    0.0011528207000000   19.9943999824000009
   C    N    Fe   Ni   H 
    54     2     1     1     1
Direct
  0.0557543564207333  0.0547591447479766  0.0519348228048371
  0.1560614735794487  0.1101608733471443  0.0517614554485899
  0.1564640978565769  0.2210034128154822  0.0508647994271601
  0.0564653622354040  0.2760219816815304  0.0499800928953927
  0.2564126999241826  0.0555351549704683  0.0529640362418410
  0.3569512999755418  0.1111343385238671  0.0558180419740226
  0.3573883588222233  0.2226898165551049  0.0558413312913114
  0.2566091147976678  0.2765439706192703  0.0517451688595023
  0.4566351936012419  0.0550756967532928  0.0589850168166967
  0.5571952325246928  0.1111424213975643  0.0620819493507616
  0.5575467305208320  0.2233537234664683  0.0635750281788601
  0.4573173573506842  0.2804168748297664  0.0603339466123099
  0.6569160495776493  0.0521077832004173  0.0620070577446930
  0.7560775431067918  0.1098554572468290  0.0593540090685024
  0.7565579097586285  0.2222337254931978  0.0593316749922408
  0.6581313369110698  0.2816372060860992  0.0645448770073563
  0.8552575197914637  0.0533908124108010  0.0563624766737064
  0.9554844914762758  0.1093807519680808  0.0534285761421579
  0.9561050161836143  0.2208415052343443  0.0522626219926746
  0.8566071698046581  0.2771145955592729  0.0545052394796258
  0.0572713630367719  0.3872566934593706  0.0483459288269425
  0.1562635074381173  0.4430768713317734  0.0475946721048197
  0.1561062201947829  0.5546956395233908  0.0468640124647265
  0.0569988655632317  0.6103717267428238  0.0466845172402456
  0.2558431639728123  0.3874346856321402  0.0496376738718402
  0.3547137773860981  0.4431317767324718  0.0526386951853827
  0.3546273909705793  0.5557974184477995  0.0515843005425024
  0.2548093415851990  0.6110801190403581  0.0482863534230963
  0.7609487626099170  0.4477574282256774  0.0587292566825057
  0.8584605185367782  0.3889299145899071  0.0527213873040538
  0.9581714141372791  0.4431903546087478  0.0490591643655593
  0.9583812891785103  0.5542105115513838  0.0483289941340269
  0.8586852633756061  0.6083269673585813  0.0523295012966614
  0.0560728938743045  0.7214181284747881  0.0475325413873248
  0.1545966501099726  0.7777126949467368  0.0478280456396010
  0.1554891523332025  0.8888622174953879  0.0496567883031598
  0.0555330966892896  0.9438678595942357  0.0510098104397717
  0.2537477406451496  0.7221231335243099  0.0482320895250603
  0.3522805075756227  0.7777144470681577  0.0517677793528197
  0.3550653081830666  0.8886339527226391  0.0537592326787891
  0.2556107128516318  0.9444769496541012  0.0517403279774663
  0.4499829365393645  0.7204607674926534  0.0588743769173365
  0.5546536400359183  0.8847722666916872  0.0640213821709923
  0.4558046665702962  0.9433372974355837  0.0587862492816575
  0.7566363148316932  0.8816455858089963  0.0600892018356190
  0.6565379321375200  0.9395262737501542  0.0630438560833987
  0.8576390753624873  0.7216270222623891  0.0533299449046855
  0.9564592811295317  0.7767266538487105  0.0504047721850132
  0.9560604580296436  0.8878335721104995  0.0523128083636053
  0.8551883393490091  0.9409468812183841  0.0562981491068477
  0.4548829525088034  0.3916851919935876  0.0597209019721476
  0.6610366880809165  0.3927011881540157  0.0686957742817787
  0.5488609888883458  0.7749562082811191  0.0681177491937739
  0.4530595774155451  0.6092734023138576  0.0589442226819475
  0.7631652785433599  0.5566472200665126  0.0586352814249736
  0.7595706038336176  0.7717952553189035  0.0593598627894273
  0.6476395818972285  0.6663042421226197  0.0735968892295838
  0.5582964201387239  0.4952508243446541  0.0794398313101124
  0.6086099152406627  0.5780514471539242  0.1330354575184683
 
  0.00000000E+00  0.00000000E+00  0.00000000E+00
  0.00000000E+00  0.00000000E+00  0.00000000E+00
  0.00000000E+00  0.00000000E+00  0.00000000E+00
  0.00000000E+00  0.00000000E+00  0.00000000E+00
  0.00000000E+00  0.00000000E+00  0.00000000E+00
  0.00000000E+00  0.00000000E+00  0.00000000E+00
  0.00000000E+00  0.00000000E+00  0.00000000E+00
  0.00000000E+00  0.00000000E+00  0.00000000E+00
  0.00000000E+00  0.00000000E+00  0.00000000E+00
  0.00000000E+00  0.00000000E+00  0.00000000E+00
  0.00000000E+00  0.00000000E+00  0.00000000E+00
  0.00000000E+00  0.00000000E+00  0.00000000E+00
  0.00000000E+00  0.00000000E+00  0.00000000E+00
  0.00000000E+00  0.00000000E+00  0.00000000E+00
  0.00000000E+00  0.00000000E+00  0.00000000E+00
  0.00000000E+00  0.00000000E+00  0.00000000E+00
  0.00000000E+00  0.00000000E+00  0.00000000E+00
  0.00000000E+00  0.00000000E+00  0.00000000E+00
  0.00000000E+00  0.00000000E+00  0.00000000E+00
  0.00000000E+00  0.00000000E+00  0.00000000E+00
  0.00000000E+00  0.00000000E+00  0.00000000E+00
  0.00000000E+00  0.00000000E+00  0.00000000E+00
  0.00000000E+00  0.00000000E+00  0.00000000E+00
  0.00000000E+00  0.00000000E+00  0.00000000E+00
  0.00000000E+00  0.00000000E+00  0.00000000E+00
  0.00000000E+00  0.00000000E+00  0.00000000E+00
  0.00000000E+00  0.00000000E+00  0.00000000E+00
  0.00000000E+00  0.00000000E+00  0.00000000E+00
  0.00000000E+00  0.00000000E+00  0.00000000E+00
  0.00000000E+00  0.00000000E+00  0.00000000E+00
  0.00000000E+00  0.00000000E+00  0.00000000E+00
  0.00000000E+00  0.00000000E+00  0.00000000E+00
  0.00000000E+00  0.00000000E+00  0.00000000E+00
  0.00000000E+00  0.00000000E+00  0.00000000E+00
  0.00000000E+00  0.00000000E+00  0.00000000E+00
  0.00000000E+00  0.00000000E+00  0.00000000E+00
  0.00000000E+00  0.00000000E+00  0.00000000E+00
  0.00000000E+00  0.00000000E+00  0.00000000E+00
  0.00000000E+00  0.00000000E+00  0.00000000E+00
  0.00000000E+00  0.00000000E+00  0.00000000E+00
  0.00000000E+00  0.00000000E+00  0.00000000E+00
  0.00000000E+00  0.00000000E+00  0.00000000E+00
  0.00000000E+00  0.00000000E+00  0.00000000E+00
  0.00000000E+00  0.00000000E+00  0.00000000E+00
  0.00000000E+00  0.00000000E+00  0.00000000E+00
  0.00000000E+00  0.00000000E+00  0.00000000E+00
  0.00000000E+00  0.00000000E+00  0.00000000E+00
  0.00000000E+00  0.00000000E+00  0.00000000E+00
  0.00000000E+00  0.00000000E+00  0.00000000E+00
  0.00000000E+00  0.00000000E+00  0.00000000E+00
  0.00000000E+00  0.00000000E+00  0.00000000E+00
  0.00000000E+00  0.00000000E+00  0.00000000E+00
  0.00000000E+00  0.00000000E+00  0.00000000E+00
  0.00000000E+00  0.00000000E+00  0.00000000E+00
  0.00000000E+00  0.00000000E+00  0.00000000E+00
  0.00000000E+00  0.00000000E+00  0.00000000E+00
  0.00000000E+00  0.00000000E+00  0.00000000E+00
  0.00000000E+00  0.00000000E+00  0.00000000E+00
  0.00000000E+00  0.00000000E+00  0.00000000E+00
