12356                                   
   1.00000000000000     
    12.3312997818000003    0.0000000000000000    0.0000000000000000
     0.0001127485000000   12.8291997905000006    0.0000000000000000
     0.0005937186000000    0.0011528207000000   19.9943999824000009
   C    N    Fe   Ni   O 
    51     5     1     1     1
Direct
  0.0555914582540480  0.0542456327553605  0.0525299482337081
  0.1562129724818348  0.1099455701987565  0.0524952730592184
  0.1563291505706723  0.2207701205553249  0.0510698751286399
  0.0561839097283976  0.2758289298582302  0.0497872995895779
  0.2567782774676713  0.0556253127594370  0.0542261143222809
  0.3571407958422062  0.1116318263039498  0.0570843947768300
  0.3567056778054275  0.2235449005628792  0.0562458387875443
  0.2559355834801182  0.2770078810710339  0.0518811504792718
  0.4573693097562386  0.0559078594490402  0.0606919820745986
  0.5565255897946184  0.1143206685865627  0.0632699266981980
  0.5573284824574035  0.2293339647222227  0.0638372846146151
  0.4550506809198888  0.2842407786134631  0.0603905474487410
  0.6542577952655017  0.0533843457411084  0.0633865124480345
  0.7543132910515488  0.1103532885169133  0.0605368259213881
  0.7557582022408229  0.2231884385770563  0.0601106401218783
  0.6589951439814405  0.2856009562389858  0.0641116020345426
  0.8544984076409751  0.0537618731698054  0.0570711546455924
  0.9550870296133176  0.1091821678055066  0.0540844338246071
  0.9559997760057373  0.2205497436418962  0.0528582896273361
  0.8567627156888517  0.2768549484205681  0.0552869473386633
  0.0570988874728082  0.3864908726291472  0.0468557144335940
  0.1559246756055410  0.4433196317338027  0.0459415181787039
  0.1560363782389677  0.5541867853015829  0.0450761093562439
  0.0574846812516357  0.6102980563002920  0.0446658929876337
  0.2549989362158400  0.3883011296791659  0.0492697802528172
  0.3537588826368406  0.4438016992947579  0.0530908553302285
  0.3539082166230268  0.5565805510859433  0.0528538746399997
  0.2547542816190523  0.6104942621253961  0.0480162930826907
  0.7615223932876368  0.4466729049646059  0.0571884104882592
  0.8591368440286087  0.3879486629028444  0.0524676792155216
  0.9584808721079466  0.4422236836237326  0.0473243256919503
  0.9591595850179725  0.5530873695550551  0.0459538798776706
  0.8603323133811518  0.6065129718193348  0.0490635268364803
  0.0569148178150614  0.7212148921455996  0.0459550832442349
  0.1557424797163187  0.7776013433363829  0.0479129671925296
  0.1559073466475515  0.8885814371598906  0.0504381295023506
  0.0554108919446038  0.9434308540826406  0.0513865823018401
  0.2545478185257037  0.7217198941753109  0.0495693983232850
  0.3534904499604676  0.7767778691106836  0.0546936663474874
  0.3554329785553945  0.8882715700240396  0.0560659395360408
  0.2560710669908497  0.9441202449941053  0.0533439688067118
  0.4509111483980118  0.7182288078729337  0.0598492068521752
  0.5531259638422232  0.8819687827286463  0.0639817974614594
  0.4561598200071139  0.9428850781093747  0.0605438186883462
  0.7550505922235455  0.8826569934973842  0.0616793192153264
  0.6536452816256851  0.9389427993646215  0.0642720573107149
  0.8589317314979265  0.7190077206831719  0.0517756124428171
  0.9572274889369254  0.7759348838197778  0.0488250655928499
  0.9553345390624486  0.8873129632097804  0.0521131852584342
  0.8544568339335779  0.9416323931674025  0.0566650070213308
  0.7595784054266177  0.7715709729263567  0.0614365819122674
  0.4499345168732571  0.3915552138359558  0.0603561840850764
  0.4500619063997650  0.6100847715694777  0.0597935733897977
  0.6652209006038384  0.3950320932402547  0.0660949907789683
  0.7637531191644366  0.5542615912182045  0.0528628679089986
  0.5483409778946522  0.7713598322550048  0.0647988457411083
  0.6546611856577050  0.6665144229858045  0.0788538246425719
  0.5532262827285757  0.4958249212655351  0.0818721157029199
  0.6189302500339873  0.5849599346578979  0.1422063031932807
 
  0.00000000E+00  0.00000000E+00  0.00000000E+00
  0.00000000E+00  0.00000000E+00  0.00000000E+00
  0.00000000E+00  0.00000000E+00  0.00000000E+00
  0.00000000E+00  0.00000000E+00  0.00000000E+00
  0.00000000E+00  0.00000000E+00  0.00000000E+00
  0.00000000E+00  0.00000000E+00  0.00000000E+00
  0.00000000E+00  0.00000000E+00  0.00000000E+00
  0.00000000E+00  0.00000000E+00  0.00000000E+00
  0.00000000E+00  0.00000000E+00  0.00000000E+00
  0.00000000E+00  0.00000000E+00  0.00000000E+00
  0.00000000E+00  0.00000000E+00  0.00000000E+00
  0.00000000E+00  0.00000000E+00  0.00000000E+00
  0.00000000E+00  0.00000000E+00  0.00000000E+00
  0.00000000E+00  0.00000000E+00  0.00000000E+00
  0.00000000E+00  0.00000000E+00  0.00000000E+00
  0.00000000E+00  0.00000000E+00  0.00000000E+00
  0.00000000E+00  0.00000000E+00  0.00000000E+00
  0.00000000E+00  0.00000000E+00  0.00000000E+00
  0.00000000E+00  0.00000000E+00  0.00000000E+00
  0.00000000E+00  0.00000000E+00  0.00000000E+00
  0.00000000E+00  0.00000000E+00  0.00000000E+00
  0.00000000E+00  0.00000000E+00  0.00000000E+00
  0.00000000E+00  0.00000000E+00  0.00000000E+00
  0.00000000E+00  0.00000000E+00  0.00000000E+00
  0.00000000E+00  0.00000000E+00  0.00000000E+00
  0.00000000E+00  0.00000000E+00  0.00000000E+00
  0.00000000E+00  0.00000000E+00  0.00000000E+00
  0.00000000E+00  0.00000000E+00  0.00000000E+00
  0.00000000E+00  0.00000000E+00  0.00000000E+00
  0.00000000E+00  0.00000000E+00  0.00000000E+00
  0.00000000E+00  0.00000000E+00  0.00000000E+00
  0.00000000E+00  0.00000000E+00  0.00000000E+00
  0.00000000E+00  0.00000000E+00  0.00000000E+00
  0.00000000E+00  0.00000000E+00  0.00000000E+00
  0.00000000E+00  0.00000000E+00  0.00000000E+00
  0.00000000E+00  0.00000000E+00  0.00000000E+00
  0.00000000E+00  0.00000000E+00  0.00000000E+00
  0.00000000E+00  0.00000000E+00  0.00000000E+00
  0.00000000E+00  0.00000000E+00  0.00000000E+00
  0.00000000E+00  0.00000000E+00  0.00000000E+00
  0.00000000E+00  0.00000000E+00  0.00000000E+00
  0.00000000E+00  0.00000000E+00  0.00000000E+00
  0.00000000E+00  0.00000000E+00  0.00000000E+00
  0.00000000E+00  0.00000000E+00  0.00000000E+00
  0.00000000E+00  0.00000000E+00  0.00000000E+00
  0.00000000E+00  0.00000000E+00  0.00000000E+00
  0.00000000E+00  0.00000000E+00  0.00000000E+00
  0.00000000E+00  0.00000000E+00  0.00000000E+00
  0.00000000E+00  0.00000000E+00  0.00000000E+00
  0.00000000E+00  0.00000000E+00  0.00000000E+00
  0.00000000E+00  0.00000000E+00  0.00000000E+00
  0.00000000E+00  0.00000000E+00  0.00000000E+00
  0.00000000E+00  0.00000000E+00  0.00000000E+00
  0.00000000E+00  0.00000000E+00  0.00000000E+00
  0.00000000E+00  0.00000000E+00  0.00000000E+00
  0.00000000E+00  0.00000000E+00  0.00000000E+00
  0.00000000E+00  0.00000000E+00  0.00000000E+00
  0.00000000E+00  0.00000000E+00  0.00000000E+00
  0.00000000E+00  0.00000000E+00  0.00000000E+00
