12456                                   
   1.00000000000000     
    12.3312997818000003    0.0000000000000000    0.0000000000000000
     0.0001127485000000   12.8291997905000006    0.0000000000000000
     0.0005937186000000    0.0011528207000000   19.9943999824000009
   C    N    Fe   Ni   O 
    51     5     1     1     2
Direct
  0.0560778045116705  0.0544759457726457  0.0494934379821145
  0.1565382589200143  0.1100141383871718  0.0493800604234019
  0.1562684475636860  0.2208576205488388  0.0482626216898133
  0.0562526196138848  0.2762749866834060  0.0473520657679029
  0.2571886885230242  0.0553029647975137  0.0510342718363484
  0.3574473736149393  0.1114092238808450  0.0535642501678475
  0.3567177399563488  0.2233020616386677  0.0531538174795552
  0.2559115917816157  0.2768311965139771  0.0493598658409135
  0.4577565987149241  0.0558619167408707  0.0567006987743198
  0.5574183665839346  0.1140604305215625  0.0588652454316730
  0.5577427739170651  0.2287509787445061  0.0593311518724428
  0.4550889114878899  0.2837053731048280  0.0569929831213545
  0.6560053416963464  0.0537113314594835  0.0590439875654994
  0.7553676517809292  0.1107693733509996  0.0563689438022205
  0.7564080795316446  0.2233549445137713  0.0560056132724108
  0.6594093026656899  0.2850809060709555  0.0594383819122485
  0.8551178548721823  0.0539382945788641  0.0534983064756030
  0.9556889922888223  0.1093432391760402  0.0507904049258148
  0.9563723380002512  0.2208165323737315  0.0498051942229808
  0.8572047658866235  0.2772324029137972  0.0520863842515061
  0.0567347167241628  0.3873366785887575  0.0454358478270608
  0.1556053551956566  0.4435150325833924  0.0448896642778958
  0.1556154377246445  0.5543263176107055  0.0446365258430231
  0.0566954637490229  0.6106764107377154  0.0441585297047852
  0.2546570217921085  0.3879371705400291  0.0476674173331593
  0.3534930830250988  0.4427039689938543  0.0520603467847699
  0.3538570234937528  0.5556205319610672  0.0532239670235280
  0.2545339627986066  0.6101727758798883  0.0480048957906617
  0.7617513398398005  0.4464146487806233  0.0556426747213630
  0.8593395539332159  0.3883523929342156  0.0505551858967387
  0.9581310945590761  0.4434798757014579  0.0464346244145406
  0.9577005249350856  0.5547188821408445  0.0457308230027917
  0.8576798980232275  0.6081381551603431  0.0498135606562269
  0.0563038084831123  0.7213814113882029  0.0451653207750648
  0.1554244858732834  0.7775355820813583  0.0466189222135587
  0.1564517640847028  0.8884648112740138  0.0482736338283428
  0.0560780635182435  0.9435330138087856  0.0488139986792512
  0.2542068671234222  0.7215325264826908  0.0486600989522927
  0.3535809947411380  0.7758119577876594  0.0532293810985350
  0.3564688733539498  0.8877207477094443  0.0535612588869122
  0.2567718831048205  0.9437403025582559  0.0506555586170588
  0.4507066253010725  0.7163460390365022  0.0598089725257666
  0.5551520261607411  0.8829713402820835  0.0615630154376239
  0.4570037263127935  0.9432689825432879  0.0571566169497147
  0.7567048874247359  0.8827237587887568  0.0578375787161880
  0.6559438213571005  0.9395974833837650  0.0604988315425012
  0.8577407070603953  0.7210501042800537  0.0510024504417149
  0.9565962251396949  0.7763592454266717  0.0476686284085156
  0.9562492498461762  0.8878443242765072  0.0497596830669033
  0.8555274548677546  0.9417782131246708  0.0534557137707290
  0.5499316542914336  0.7715441856456342  0.0661805720978034
  0.4495991952199728  0.3908832380691123  0.0579636493167221
  0.6655976845055914  0.3939461235786819  0.0615778041805727
  0.7615351244488140  0.5542313914234573  0.0551938290149257
  0.7604720078022533  0.7736906631757852  0.0588824498240130
  0.4499333601771565  0.6073994856456709  0.0602940747047503
  0.6558821464140937  0.6735628023361649  0.0842575461297032
  0.5569849765326821  0.4965793224175148  0.0794413578951461
  0.5985832043999938  0.5360977298337201  0.1679182937278832
  0.6372711727499425  0.6371383882561914  0.1697890021052692
 
  0.00000000E+00  0.00000000E+00  0.00000000E+00
  0.00000000E+00  0.00000000E+00  0.00000000E+00
  0.00000000E+00  0.00000000E+00  0.00000000E+00
  0.00000000E+00  0.00000000E+00  0.00000000E+00
  0.00000000E+00  0.00000000E+00  0.00000000E+00
  0.00000000E+00  0.00000000E+00  0.00000000E+00
  0.00000000E+00  0.00000000E+00  0.00000000E+00
  0.00000000E+00  0.00000000E+00  0.00000000E+00
  0.00000000E+00  0.00000000E+00  0.00000000E+00
  0.00000000E+00  0.00000000E+00  0.00000000E+00
  0.00000000E+00  0.00000000E+00  0.00000000E+00
  0.00000000E+00  0.00000000E+00  0.00000000E+00
  0.00000000E+00  0.00000000E+00  0.00000000E+00
  0.00000000E+00  0.00000000E+00  0.00000000E+00
  0.00000000E+00  0.00000000E+00  0.00000000E+00
  0.00000000E+00  0.00000000E+00  0.00000000E+00
  0.00000000E+00  0.00000000E+00  0.00000000E+00
  0.00000000E+00  0.00000000E+00  0.00000000E+00
  0.00000000E+00  0.00000000E+00  0.00000000E+00
  0.00000000E+00  0.00000000E+00  0.00000000E+00
  0.00000000E+00  0.00000000E+00  0.00000000E+00
  0.00000000E+00  0.00000000E+00  0.00000000E+00
  0.00000000E+00  0.00000000E+00  0.00000000E+00
  0.00000000E+00  0.00000000E+00  0.00000000E+00
  0.00000000E+00  0.00000000E+00  0.00000000E+00
  0.00000000E+00  0.00000000E+00  0.00000000E+00
  0.00000000E+00  0.00000000E+00  0.00000000E+00
  0.00000000E+00  0.00000000E+00  0.00000000E+00
  0.00000000E+00  0.00000000E+00  0.00000000E+00
  0.00000000E+00  0.00000000E+00  0.00000000E+00
  0.00000000E+00  0.00000000E+00  0.00000000E+00
  0.00000000E+00  0.00000000E+00  0.00000000E+00
  0.00000000E+00  0.00000000E+00  0.00000000E+00
  0.00000000E+00  0.00000000E+00  0.00000000E+00
  0.00000000E+00  0.00000000E+00  0.00000000E+00
  0.00000000E+00  0.00000000E+00  0.00000000E+00
  0.00000000E+00  0.00000000E+00  0.00000000E+00
  0.00000000E+00  0.00000000E+00  0.00000000E+00
  0.00000000E+00  0.00000000E+00  0.00000000E+00
  0.00000000E+00  0.00000000E+00  0.00000000E+00
  0.00000000E+00  0.00000000E+00  0.00000000E+00
  0.00000000E+00  0.00000000E+00  0.00000000E+00
  0.00000000E+00  0.00000000E+00  0.00000000E+00
  0.00000000E+00  0.00000000E+00  0.00000000E+00
  0.00000000E+00  0.00000000E+00  0.00000000E+00
  0.00000000E+00  0.00000000E+00  0.00000000E+00
  0.00000000E+00  0.00000000E+00  0.00000000E+00
  0.00000000E+00  0.00000000E+00  0.00000000E+00
  0.00000000E+00  0.00000000E+00  0.00000000E+00
  0.00000000E+00  0.00000000E+00  0.00000000E+00
  0.00000000E+00  0.00000000E+00  0.00000000E+00
  0.00000000E+00  0.00000000E+00  0.00000000E+00
  0.00000000E+00  0.00000000E+00  0.00000000E+00
  0.00000000E+00  0.00000000E+00  0.00000000E+00
  0.00000000E+00  0.00000000E+00  0.00000000E+00
  0.00000000E+00  0.00000000E+00  0.00000000E+00
  0.00000000E+00  0.00000000E+00  0.00000000E+00
  0.00000000E+00  0.00000000E+00  0.00000000E+00
  0.00000000E+00  0.00000000E+00  0.00000000E+00
  0.00000000E+00  0.00000000E+00  0.00000000E+00
