1h\(2)                                  
   1.00000000000000     
    12.3312997818000003    0.0000000000000000    0.0000000000000000
     0.0001127485000000   12.8291997905000006    0.0000000000000000
     0.0005937186000000    0.0011528207000000   19.9943999824000009
   C    N    Fe   Ni
    52     4     1     1
Direct
  0.0562971940803398  0.0547490414483634  0.0526185524406957
  0.1565416338100416  0.1102415168022299  0.0517313005929636
  0.1562156332474762  0.2211105579903440  0.0513087439960914
  0.0562070161759882  0.2764195950576385  0.0517737103681191
  0.2570839990555447  0.0554318289531431  0.0521723107546318
  0.3573083779076670  0.1115469565492661  0.0541560029192954
  0.3565614516702154  0.2233118558543988  0.0539014317490945
  0.2557314412394230  0.2769004259029356  0.0515694759790128
  0.4574608896927756  0.0557985156333633  0.0568106515913395
  0.5569686454665743  0.1136498956368576  0.0597584207096941
  0.5569034524235934  0.2278386879095287  0.0599754281273759
  0.4549969377878971  0.2835132795432179  0.0563893706288844
  0.6559737532109038  0.0531698504666668  0.0614963036755513
  0.7553378192947416  0.1107103849972535  0.0604003811662024
  0.7563224809090583  0.2230872546128327  0.0604891428127781
  0.6582701735472806  0.2844786794325236  0.0624226120877810
  0.8552435292717424  0.0542332880678627  0.0579547263285176
  0.9557891727773820  0.1094210338763272  0.0548233499327019
  0.9565579389613879  0.2205501557460668  0.0544061015503401
  0.8573615087774140  0.2766068955382089  0.0575303471599298
  0.0566207206504354  0.3875904347442353  0.0508044784755403
  0.1553796557881001  0.4435760859903271  0.0492750075667523
  0.1556418617977076  0.5544298369326286  0.0484193381059364
  0.0568328643937945  0.6106493227932825  0.0495765116831923
  0.2545750608750745  0.3879629382018800  0.0505297941215381
  0.3536449361918028  0.4423839201450087  0.0519388363457413
  0.3541118772726853  0.5551950901296966  0.0514991700883874
  0.2546434658614969  0.6101783449005590  0.0488952933128513
  0.7616827772617552  0.4442662727660525  0.0636081713608178
  0.8594697321668806  0.3875447523908582  0.0577547428042878
  0.9578255458347145  0.4437977314766671  0.0534167400716786
  0.9577650628454195  0.5550936169800480  0.0531572546198587
  0.8584026247919962  0.6101890985788109  0.0591340003927925
  0.0565647652077858  0.7215589459801981  0.0497920910716964
  0.1552776796363051  0.7775597466071577  0.0490083112480699
  0.1565086944186729  0.8886874727437709  0.0502559188972092
  0.0564467497366128  0.9441159197090533  0.0520738140736183
  0.2540250862096985  0.7214278143925150  0.0490375325819727
  0.3532177110061945  0.7759135188408506  0.0512936892797895
  0.3563962633230935  0.8877168594327124  0.0526118625263042
  0.2566238952410628  0.9439197971097431  0.0512660510759065
  0.4508340329543182  0.7170035417771251  0.0549954362161162
  0.5547134240367495  0.8829560130310271  0.0603970890002961
  0.4567255683655633  0.9433434396586642  0.0563672296279114
  0.7573575003270758  0.8825742926567036  0.0631529521861420
  0.6560029506973086  0.9395475603230438  0.0627279340103237
  0.8591806903602944  0.7231300146504447  0.0594061660871060
  0.9573901450260920  0.7777175158112360  0.0535429528528526
  0.9567667059268297  0.8887097577056592  0.0546156992524143
  0.8558064962137061  0.9421820011590106  0.0585788475178890
  0.7596901641927037  0.5553348746854962  0.0667392105940978
  0.5494519006113869  0.7719678780343410  0.0615935253491591
  0.4503387965540017  0.3908907723724954  0.0548309996895585
  0.4508365799504491  0.6071514939440312  0.0551928268867502
  0.6637993362921198  0.3923097189512790  0.0654971528649776
  0.7620832348693787  0.7741347850409658  0.0665001899744938
  0.6479049197554509  0.6610516889500858  0.0787344255936776
  0.5595375180478426  0.5007776683832789  0.0611903830213005
 
  0.00000000E+00  0.00000000E+00  0.00000000E+00
  0.00000000E+00  0.00000000E+00  0.00000000E+00
  0.00000000E+00  0.00000000E+00  0.00000000E+00
  0.00000000E+00  0.00000000E+00  0.00000000E+00
  0.00000000E+00  0.00000000E+00  0.00000000E+00
  0.00000000E+00  0.00000000E+00  0.00000000E+00
  0.00000000E+00  0.00000000E+00  0.00000000E+00
  0.00000000E+00  0.00000000E+00  0.00000000E+00
  0.00000000E+00  0.00000000E+00  0.00000000E+00
  0.00000000E+00  0.00000000E+00  0.00000000E+00
  0.00000000E+00  0.00000000E+00  0.00000000E+00
  0.00000000E+00  0.00000000E+00  0.00000000E+00
  0.00000000E+00  0.00000000E+00  0.00000000E+00
  0.00000000E+00  0.00000000E+00  0.00000000E+00
  0.00000000E+00  0.00000000E+00  0.00000000E+00
  0.00000000E+00  0.00000000E+00  0.00000000E+00
  0.00000000E+00  0.00000000E+00  0.00000000E+00
  0.00000000E+00  0.00000000E+00  0.00000000E+00
  0.00000000E+00  0.00000000E+00  0.00000000E+00
  0.00000000E+00  0.00000000E+00  0.00000000E+00
  0.00000000E+00  0.00000000E+00  0.00000000E+00
  0.00000000E+00  0.00000000E+00  0.00000000E+00
  0.00000000E+00  0.00000000E+00  0.00000000E+00
  0.00000000E+00  0.00000000E+00  0.00000000E+00
  0.00000000E+00  0.00000000E+00  0.00000000E+00
  0.00000000E+00  0.00000000E+00  0.00000000E+00
  0.00000000E+00  0.00000000E+00  0.00000000E+00
  0.00000000E+00  0.00000000E+00  0.00000000E+00
  0.00000000E+00  0.00000000E+00  0.00000000E+00
  0.00000000E+00  0.00000000E+00  0.00000000E+00
  0.00000000E+00  0.00000000E+00  0.00000000E+00
  0.00000000E+00  0.00000000E+00  0.00000000E+00
  0.00000000E+00  0.00000000E+00  0.00000000E+00
  0.00000000E+00  0.00000000E+00  0.00000000E+00
  0.00000000E+00  0.00000000E+00  0.00000000E+00
  0.00000000E+00  0.00000000E+00  0.00000000E+00
  0.00000000E+00  0.00000000E+00  0.00000000E+00
  0.00000000E+00  0.00000000E+00  0.00000000E+00
  0.00000000E+00  0.00000000E+00  0.00000000E+00
  0.00000000E+00  0.00000000E+00  0.00000000E+00
  0.00000000E+00  0.00000000E+00  0.00000000E+00
  0.00000000E+00  0.00000000E+00  0.00000000E+00
  0.00000000E+00  0.00000000E+00  0.00000000E+00
  0.00000000E+00  0.00000000E+00  0.00000000E+00
  0.00000000E+00  0.00000000E+00  0.00000000E+00
  0.00000000E+00  0.00000000E+00  0.00000000E+00
  0.00000000E+00  0.00000000E+00  0.00000000E+00
  0.00000000E+00  0.00000000E+00  0.00000000E+00
  0.00000000E+00  0.00000000E+00  0.00000000E+00
  0.00000000E+00  0.00000000E+00  0.00000000E+00
  0.00000000E+00  0.00000000E+00  0.00000000E+00
  0.00000000E+00  0.00000000E+00  0.00000000E+00
  0.00000000E+00  0.00000000E+00  0.00000000E+00
  0.00000000E+00  0.00000000E+00  0.00000000E+00
  0.00000000E+00  0.00000000E+00  0.00000000E+00
  0.00000000E+00  0.00000000E+00  0.00000000E+00
  0.00000000E+00  0.00000000E+00  0.00000000E+00
  0.00000000E+00  0.00000000E+00  0.00000000E+00
