CONTCAR\(2)                             
   1.00000000000000     
    12.3312997818000003    0.0000000000000000    0.0000000000000000
     0.0001127485000000   12.8291997905000006    0.0000000000000000
     0.0005937186000000    0.0011528207000000   19.9943999824000009
   C    N    Fe   Ni   O 
    53     3     1     1     2
Direct
  0.0555334162351018  0.0546877849110652  0.0488591618013917
  0.1557780263228504  0.1101486819470300  0.0491711533986077
  0.1559392712213485  0.2209977407209513  0.0483456080825651
  0.0561175660854501  0.2763705795251257  0.0472288047509331
  0.2561896497068015  0.0555802467359362  0.0511129617582127
  0.3565742699803667  0.1114216234598394  0.0539125089983542
  0.3564951412464366  0.2231375569743279  0.0538612897866568
  0.2557900874880737  0.2766319016601418  0.0500284055322612
  0.4562644528135003  0.0557526896770555  0.0571640581939603
  0.5561212347728859  0.1127201338338403  0.0595956041523572
  0.5562973042256610  0.2254242532575290  0.0613181715229604
  0.4554207715966271  0.2817441695318768  0.0584317588046706
  0.6560161131003718  0.0536046331978696  0.0585976842774620
  0.7554390501122900  0.1105684618174562  0.0551747471290566
  0.7561598907726819  0.2227077417230186  0.0554689568907031
  0.6576715260583976  0.2822696845308303  0.0619806358104386
  0.8547946387090281  0.0538563217659687  0.0521601464150969
  0.9552438841652052  0.1096489988720730  0.0497473664401330
  0.9558793697156414  0.2211143780851092  0.0489950396560192
  0.8563291447363822  0.2775008368996675  0.0513151430913157
  0.0573283642718657  0.3876428503360487  0.0459745313378616
  0.1564177525713755  0.4435806238687185  0.0463944207068545
  0.1566382539395803  0.5547741362824739  0.0462790616487054
  0.0571225444354533  0.6105289474121781  0.0455588367092529
  0.2558620534139040  0.3874377752437746  0.0489776248244529
  0.3551645857463644  0.4418563303299279  0.0529386668425820
  0.3569942888854970  0.5547566558358346  0.0540563773356249
  0.2562734959289146  0.6100729035716325  0.0489996399170949
  0.7609455255412226  0.4480269300917499  0.0566560170076735
  0.8585158262120062  0.3890086300415782  0.0501081886011002
  0.9580367673745074  0.4436280457641133  0.0464862457367040
  0.9580674501194213  0.5547031062155773  0.0461750371585845
  0.8574401536706742  0.6084744590134632  0.0490381328038144
  0.0558567408772714  0.7214651589065325  0.0464494206200438
  0.1548320623895831  0.7772743301944767  0.0476061935480215
  0.1555991740804789  0.8885520584790471  0.0485777356193817
  0.0554427499334676  0.9436385503835665  0.0485419920115038
  0.2543988882091701  0.7213725831238107  0.0494850236102300
  0.3527626311573231  0.7773146615700216  0.0539367012150115
  0.3551853653895908  0.8886295991360417  0.0539492917738025
  0.2556257326060979  0.9443740105255468  0.0508408651685917
  0.4506374527089090  0.7202986736349704  0.0627929756013154
  0.5547186001757748  0.8857593843969949  0.0622879060936232
  0.4554789663624821  0.9439069037943110  0.0578106966956323
  0.7559419330171038  0.8828468095217720  0.0558813515284785
  0.6559643611867004  0.9408728518876830  0.0595922908374148
  0.8562105323465657  0.7219304789310628  0.0496947564460478
  0.9557228166649389  0.7766596831529018  0.0480886321777454
  0.9556370915797068  0.8878770450133053  0.0493683738727022
  0.8548820415154820  0.9416390160725158  0.0522811781255610
  0.4555162860810031  0.6086129743112602  0.0646771670894822
  0.6629807508947498  0.3920574497114420  0.0682644046863481
  0.5488111747497978  0.7765192014352890  0.0682032276952699
  0.4518834062234047  0.3901291287738797  0.0588757219904811
  0.7623237297304156  0.5560103135083377  0.0542345735080121
  0.7581605328610684  0.7735450469175973  0.0545527871708873
  0.6488889675208060  0.6692263937737895  0.0749432410261310
  0.5559695989420254  0.4870108179616935  0.0895497439107521
  0.6140146672914801  0.5401781221637494  0.1667086553172994
  0.6440218773287160  0.6458289545846195  0.1640531045367543
 
  0.00000000E+00  0.00000000E+00  0.00000000E+00
  0.00000000E+00  0.00000000E+00  0.00000000E+00
  0.00000000E+00  0.00000000E+00  0.00000000E+00
  0.00000000E+00  0.00000000E+00  0.00000000E+00
  0.00000000E+00  0.00000000E+00  0.00000000E+00
  0.00000000E+00  0.00000000E+00  0.00000000E+00
  0.00000000E+00  0.00000000E+00  0.00000000E+00
  0.00000000E+00  0.00000000E+00  0.00000000E+00
  0.00000000E+00  0.00000000E+00  0.00000000E+00
  0.00000000E+00  0.00000000E+00  0.00000000E+00
  0.00000000E+00  0.00000000E+00  0.00000000E+00
  0.00000000E+00  0.00000000E+00  0.00000000E+00
  0.00000000E+00  0.00000000E+00  0.00000000E+00
  0.00000000E+00  0.00000000E+00  0.00000000E+00
  0.00000000E+00  0.00000000E+00  0.00000000E+00
  0.00000000E+00  0.00000000E+00  0.00000000E+00
  0.00000000E+00  0.00000000E+00  0.00000000E+00
  0.00000000E+00  0.00000000E+00  0.00000000E+00
  0.00000000E+00  0.00000000E+00  0.00000000E+00
  0.00000000E+00  0.00000000E+00  0.00000000E+00
  0.00000000E+00  0.00000000E+00  0.00000000E+00
  0.00000000E+00  0.00000000E+00  0.00000000E+00
  0.00000000E+00  0.00000000E+00  0.00000000E+00
  0.00000000E+00  0.00000000E+00  0.00000000E+00
  0.00000000E+00  0.00000000E+00  0.00000000E+00
  0.00000000E+00  0.00000000E+00  0.00000000E+00
  0.00000000E+00  0.00000000E+00  0.00000000E+00
  0.00000000E+00  0.00000000E+00  0.00000000E+00
  0.00000000E+00  0.00000000E+00  0.00000000E+00
  0.00000000E+00  0.00000000E+00  0.00000000E+00
  0.00000000E+00  0.00000000E+00  0.00000000E+00
  0.00000000E+00  0.00000000E+00  0.00000000E+00
  0.00000000E+00  0.00000000E+00  0.00000000E+00
  0.00000000E+00  0.00000000E+00  0.00000000E+00
  0.00000000E+00  0.00000000E+00  0.00000000E+00
  0.00000000E+00  0.00000000E+00  0.00000000E+00
  0.00000000E+00  0.00000000E+00  0.00000000E+00
  0.00000000E+00  0.00000000E+00  0.00000000E+00
  0.00000000E+00  0.00000000E+00  0.00000000E+00
  0.00000000E+00  0.00000000E+00  0.00000000E+00
  0.00000000E+00  0.00000000E+00  0.00000000E+00
  0.00000000E+00  0.00000000E+00  0.00000000E+00
  0.00000000E+00  0.00000000E+00  0.00000000E+00
  0.00000000E+00  0.00000000E+00  0.00000000E+00
  0.00000000E+00  0.00000000E+00  0.00000000E+00
  0.00000000E+00  0.00000000E+00  0.00000000E+00
  0.00000000E+00  0.00000000E+00  0.00000000E+00
  0.00000000E+00  0.00000000E+00  0.00000000E+00
  0.00000000E+00  0.00000000E+00  0.00000000E+00
  0.00000000E+00  0.00000000E+00  0.00000000E+00
  0.00000000E+00  0.00000000E+00  0.00000000E+00
  0.00000000E+00  0.00000000E+00  0.00000000E+00
  0.00000000E+00  0.00000000E+00  0.00000000E+00
  0.00000000E+00  0.00000000E+00  0.00000000E+00
  0.00000000E+00  0.00000000E+00  0.00000000E+00
  0.00000000E+00  0.00000000E+00  0.00000000E+00
  0.00000000E+00  0.00000000E+00  0.00000000E+00
  0.00000000E+00  0.00000000E+00  0.00000000E+00
  0.00000000E+00  0.00000000E+00  0.00000000E+00
  0.00000000E+00  0.00000000E+00  0.00000000E+00
