POSCAR                                  
   1.00000000000000     
    12.3312997818000003    0.0000000000000000    0.0000000000000000
     0.0001127485000000   12.8291997905000006    0.0000000000000000
     0.0005937186000000    0.0011528207000000   19.9943999824000009
   C    Fe   Ni   O 
    56     1     1     2
Direct
  0.0558985242357433  0.0551036725918717  0.0483699456236244
  0.1563805884358382  0.1097947242525264  0.0480864087994158
  0.1556564668673573  0.2205534910224156  0.0474175497982918
  0.0553564466971852  0.2766166575823868  0.0485256273198831
  0.2569607885393246  0.0543453491930954  0.0495257420184473
  0.3570309777857102  0.1099492966391204  0.0531279916211900
  0.3565619710263181  0.2216608461009283  0.0516816894833664
  0.2555924070565187  0.2756947337663895  0.0470552192714647
  0.4568457969046451  0.0534737386828628  0.0587093232673561
  0.5561508559934034  0.1110894033707115  0.0633882040089563
  0.5558741112454565  0.2228143326936139  0.0638610747722985
  0.4560257610281706  0.2799880483833107  0.0570036964960672
  0.6560148469458384  0.0532131383668045  0.0650566238256966
  0.7558240668751676  0.1106804122112553  0.0616945257028253
  0.7555147609880728  0.2224417173489308  0.0634673655676313
  0.6558644269140473  0.2805585713844018  0.0682465898652367
  0.8556816807954729  0.0548781381280814  0.0557465052863084
  0.9554941726110543  0.1106764191661243  0.0519584678040104
  0.9550102590844216  0.2220067072401272  0.0527134628277886
  0.8553160369307271  0.2784964688209822  0.0585288671400663
  0.0549297578008920  0.3875884303693168  0.0467097010602138
  0.1543447887265289  0.4429739543781260  0.0427121030675548
  0.1545046888874807  0.5544590950191910  0.0408005312835206
  0.0555556747035946  0.6106443896680358  0.0424270828771044
  0.2537910859803660  0.3864492649439251  0.0439804996863236
  0.3525174252299038  0.4419654732504996  0.0459865928593207
  0.3523367500167432  0.5539606780771621  0.0444243935740584
  0.2539595068644869  0.6103899968962978  0.0410147479709556
  0.7565747302761654  0.4486469987323644  0.0700954885398974
  0.8558456990777447  0.3902693629672906  0.0592484529633442
  0.9555097725481310  0.4439242847599890  0.0510659233996560
  0.9562368520314212  0.5548179809332723  0.0485176418525861
  0.8582625014197350  0.6113668611162125  0.0571266437399670
  0.0569616205646626  0.7220671267798234  0.0422749329433628
  0.1569367642853425  0.7775557761403645  0.0421816510825360
  0.1568470942906497  0.8885593009937479  0.0447584897024079
  0.0564964545126805  0.9444241281984372  0.0462325263349701
  0.2565390511925186  0.7212897992711480  0.0429292302545808
  0.3571422853377754  0.7748169408381221  0.0497612236880926
  0.3572573364511904  0.8861847703399273  0.0525558882467375
  0.2573636876430905  0.9430522142346979  0.0483965020390575
  0.4566521752534928  0.7152551014362956  0.0584663963952518
  0.5565758742582365  0.8828261797459822  0.0685870480636314
  0.4572239868262151  0.9413424116295763  0.0597709766601079
  0.7570609421444474  0.8856828089374134  0.0613526749861993
  0.6564814324826761  0.9416645856427726  0.0672517184654668
  0.8590867114583109  0.7232472330771268  0.0536763429657819
  0.9578335306888491  0.7784082879425546  0.0461640072211566
  0.9565469907777043  0.8891224961599489  0.0477972677209878
  0.8561298617009574  0.9434316326334268  0.0538766517793547
  0.4531176681162211  0.3908156470536104  0.0548432556067538
  0.4515300424127209  0.6042647989274994  0.0549029194118469
  0.6580414256426332  0.3908050418733257  0.0753307837479277
  0.7609898142445625  0.5607958119959146  0.0738781865670897
  0.5532496703506520  0.7718163818941137  0.0743901466327191
  0.7609779428322444  0.7757594578166526  0.0632044250194756
  0.6621823818590044  0.6760458763232808  0.1138388316062437
  0.5507761327511097  0.4929968892043877  0.0847396454152463
  0.5886472671240170  0.5766447653553541  0.1517213544398084
  0.7106677792743584  0.7477417744968790  0.1740722406287546
 
  0.00000000E+00  0.00000000E+00  0.00000000E+00
  0.00000000E+00  0.00000000E+00  0.00000000E+00
  0.00000000E+00  0.00000000E+00  0.00000000E+00
  0.00000000E+00  0.00000000E+00  0.00000000E+00
  0.00000000E+00  0.00000000E+00  0.00000000E+00
  0.00000000E+00  0.00000000E+00  0.00000000E+00
  0.00000000E+00  0.00000000E+00  0.00000000E+00
  0.00000000E+00  0.00000000E+00  0.00000000E+00
  0.00000000E+00  0.00000000E+00  0.00000000E+00
  0.00000000E+00  0.00000000E+00  0.00000000E+00
  0.00000000E+00  0.00000000E+00  0.00000000E+00
  0.00000000E+00  0.00000000E+00  0.00000000E+00
  0.00000000E+00  0.00000000E+00  0.00000000E+00
  0.00000000E+00  0.00000000E+00  0.00000000E+00
  0.00000000E+00  0.00000000E+00  0.00000000E+00
  0.00000000E+00  0.00000000E+00  0.00000000E+00
  0.00000000E+00  0.00000000E+00  0.00000000E+00
  0.00000000E+00  0.00000000E+00  0.00000000E+00
  0.00000000E+00  0.00000000E+00  0.00000000E+00
  0.00000000E+00  0.00000000E+00  0.00000000E+00
  0.00000000E+00  0.00000000E+00  0.00000000E+00
  0.00000000E+00  0.00000000E+00  0.00000000E+00
  0.00000000E+00  0.00000000E+00  0.00000000E+00
  0.00000000E+00  0.00000000E+00  0.00000000E+00
  0.00000000E+00  0.00000000E+00  0.00000000E+00
  0.00000000E+00  0.00000000E+00  0.00000000E+00
  0.00000000E+00  0.00000000E+00  0.00000000E+00
  0.00000000E+00  0.00000000E+00  0.00000000E+00
  0.00000000E+00  0.00000000E+00  0.00000000E+00
  0.00000000E+00  0.00000000E+00  0.00000000E+00
  0.00000000E+00  0.00000000E+00  0.00000000E+00
  0.00000000E+00  0.00000000E+00  0.00000000E+00
  0.00000000E+00  0.00000000E+00  0.00000000E+00
  0.00000000E+00  0.00000000E+00  0.00000000E+00
  0.00000000E+00  0.00000000E+00  0.00000000E+00
  0.00000000E+00  0.00000000E+00  0.00000000E+00
  0.00000000E+00  0.00000000E+00  0.00000000E+00
  0.00000000E+00  0.00000000E+00  0.00000000E+00
  0.00000000E+00  0.00000000E+00  0.00000000E+00
  0.00000000E+00  0.00000000E+00  0.00000000E+00
  0.00000000E+00  0.00000000E+00  0.00000000E+00
  0.00000000E+00  0.00000000E+00  0.00000000E+00
  0.00000000E+00  0.00000000E+00  0.00000000E+00
  0.00000000E+00  0.00000000E+00  0.00000000E+00
  0.00000000E+00  0.00000000E+00  0.00000000E+00
  0.00000000E+00  0.00000000E+00  0.00000000E+00
  0.00000000E+00  0.00000000E+00  0.00000000E+00
  0.00000000E+00  0.00000000E+00  0.00000000E+00
  0.00000000E+00  0.00000000E+00  0.00000000E+00
  0.00000000E+00  0.00000000E+00  0.00000000E+00
  0.00000000E+00  0.00000000E+00  0.00000000E+00
  0.00000000E+00  0.00000000E+00  0.00000000E+00
  0.00000000E+00  0.00000000E+00  0.00000000E+00
  0.00000000E+00  0.00000000E+00  0.00000000E+00
  0.00000000E+00  0.00000000E+00  0.00000000E+00
  0.00000000E+00  0.00000000E+00  0.00000000E+00
  0.00000000E+00  0.00000000E+00  0.00000000E+00
  0.00000000E+00  0.00000000E+00  0.00000000E+00
  0.00000000E+00  0.00000000E+00  0.00000000E+00
  0.00000000E+00  0.00000000E+00  0.00000000E+00
