CONTCAR\(5)                             
   1.00000000000000     
    12.3312997818000003    0.0000000000000000    0.0000000000000000
     0.0001127485000000   12.8291997905000006    0.0000000000000000
     0.0005937186000000    0.0011528207000000   19.9943999824000009
   C    N    Fe   Ni   O    H 
    54     2     1     1     1     1
Direct
  0.0558607786474617  0.0558602820538779  0.0489106513465645
  0.1562709779346757  0.1115997131330172  0.0490933525233905
  0.1570435152025660  0.2226373617343962  0.0484608318188395
  0.0567044933519377  0.2768099559994247  0.0477280992295770
  0.2561940598527576  0.0566876571229252  0.0508410569866697
  0.3567373724402956  0.1119951347181216  0.0542067020151063
  0.3575891182777550  0.2239015917408851  0.0541021703892119
  0.2573866953234392  0.2787536415309479  0.0498422793664886
  0.4559221312237451  0.0554406183044843  0.0579372235170921
  0.5560337470912686  0.1109964436815840  0.0613520673199812
  0.5566977533271352  0.2227877560804380  0.0628582284159768
  0.4575218257430619  0.2809545177791620  0.0589550760058698
  0.6548762922311637  0.0516038896716139  0.0613744515762532
  0.7551300516624985  0.1088798710542139  0.0583145272767615
  0.7562580072265818  0.2211173737901972  0.0589757817992133
  0.6574013814569961  0.2793194396148186  0.0645973595886351
  0.8549342754640339  0.0535137629362019  0.0540153002057426
  0.9552718561348106  0.1100244823416526  0.0508827124996622
  0.9560812171016007  0.2212008902991587  0.0504498898484034
  0.8563847147590895  0.2767284747984292  0.0539323151244328
  0.0575481848820252  0.3877348329638398  0.0459499943887870
  0.1569824042620618  0.4439612877575753  0.0453905226219325
  0.1566448640568832  0.5552583689278632  0.0443591679734631
  0.0576688347364737  0.6103754315634530  0.0433747639147529
  0.2574114002028089  0.3900675088168809  0.0482804892231413
  0.3574130665145678  0.4468872651241981  0.0518598179754003
  0.3558396389516136  0.5602558654596537  0.0518065345013417
  0.2553376668593501  0.6125257362095977  0.0469402444837224
  0.7589745343358800  0.4463195917149484  0.0594656140139992
  0.8577626757584077  0.3882196301642070  0.0524518896927072
  0.9577279528469651  0.4429207145068826  0.0469342732791920
  0.9586543976965789  0.5536541766750812  0.0451704449170016
  0.8598662801829496  0.6089026258035946  0.0490928678153940
  0.0568322667772949  0.7220868827935988  0.0439470665644596
  0.1550496165438651  0.7787261002774318  0.0452442319422320
  0.1551507911979209  0.8899705129970861  0.0469933952970954
  0.0554413580159527  0.9449543108860408  0.0476561932513740
  0.2539016303970185  0.7231939817006229  0.0471891782084992
  0.3523408514463079  0.7787520901465766  0.0518530771766995
  0.3540592811298628  0.8897317672412222  0.0531716880505712
  0.2550618727721692  0.9456278975911577  0.0499171791449725
  0.4496821052976452  0.7219286085909816  0.0587815089160941
  0.5516758011783277  0.8832462612267894  0.0631891473285352
  0.4545163204853284  0.9434236149006018  0.0580916689104780
  0.7549123591708854  0.8827326040693696  0.0582313656827184
  0.6539046694458232  0.9389256198113846  0.0622995829533764
  0.8595816471085611  0.7214485070247963  0.0494002194859244
  0.9576526608305520  0.7778330448276471  0.0461642278769157
  0.9555998225877621  0.8886035795005973  0.0485394784771289
  0.8544814813900412  0.9417488221294060  0.0532211986867927
  0.4567721530124556  0.3927460967641790  0.0588642474272428
  0.6602820745662836  0.3894172770430629  0.0689202393081590
  0.7605421471070901  0.5579846087979291  0.0582895769095385
  0.7596556641548126  0.7717368447908780  0.0575471812900186
  0.4510946253644978  0.6143389135355432  0.0584858628514127
  0.5457910129552722  0.7752157601637818  0.0672224950705663
  0.6544638094423008  0.6685974894399986  0.0838153950123253
  0.5591760644063951  0.4899291418458486  0.0815255950563780
  0.6125454962355383  0.5825005933624722  0.1574607447455023
  0.5493202212405844  0.6082334074676465  0.1817415587202742
 
  0.00000000E+00  0.00000000E+00  0.00000000E+00
  0.00000000E+00  0.00000000E+00  0.00000000E+00
  0.00000000E+00  0.00000000E+00  0.00000000E+00
  0.00000000E+00  0.00000000E+00  0.00000000E+00
  0.00000000E+00  0.00000000E+00  0.00000000E+00
  0.00000000E+00  0.00000000E+00  0.00000000E+00
  0.00000000E+00  0.00000000E+00  0.00000000E+00
  0.00000000E+00  0.00000000E+00  0.00000000E+00
  0.00000000E+00  0.00000000E+00  0.00000000E+00
  0.00000000E+00  0.00000000E+00  0.00000000E+00
  0.00000000E+00  0.00000000E+00  0.00000000E+00
  0.00000000E+00  0.00000000E+00  0.00000000E+00
  0.00000000E+00  0.00000000E+00  0.00000000E+00
  0.00000000E+00  0.00000000E+00  0.00000000E+00
  0.00000000E+00  0.00000000E+00  0.00000000E+00
  0.00000000E+00  0.00000000E+00  0.00000000E+00
  0.00000000E+00  0.00000000E+00  0.00000000E+00
  0.00000000E+00  0.00000000E+00  0.00000000E+00
  0.00000000E+00  0.00000000E+00  0.00000000E+00
  0.00000000E+00  0.00000000E+00  0.00000000E+00
  0.00000000E+00  0.00000000E+00  0.00000000E+00
  0.00000000E+00  0.00000000E+00  0.00000000E+00
  0.00000000E+00  0.00000000E+00  0.00000000E+00
  0.00000000E+00  0.00000000E+00  0.00000000E+00
  0.00000000E+00  0.00000000E+00  0.00000000E+00
  0.00000000E+00  0.00000000E+00  0.00000000E+00
  0.00000000E+00  0.00000000E+00  0.00000000E+00
  0.00000000E+00  0.00000000E+00  0.00000000E+00
  0.00000000E+00  0.00000000E+00  0.00000000E+00
  0.00000000E+00  0.00000000E+00  0.00000000E+00
  0.00000000E+00  0.00000000E+00  0.00000000E+00
  0.00000000E+00  0.00000000E+00  0.00000000E+00
  0.00000000E+00  0.00000000E+00  0.00000000E+00
  0.00000000E+00  0.00000000E+00  0.00000000E+00
  0.00000000E+00  0.00000000E+00  0.00000000E+00
  0.00000000E+00  0.00000000E+00  0.00000000E+00
  0.00000000E+00  0.00000000E+00  0.00000000E+00
  0.00000000E+00  0.00000000E+00  0.00000000E+00
  0.00000000E+00  0.00000000E+00  0.00000000E+00
  0.00000000E+00  0.00000000E+00  0.00000000E+00
  0.00000000E+00  0.00000000E+00  0.00000000E+00
  0.00000000E+00  0.00000000E+00  0.00000000E+00
  0.00000000E+00  0.00000000E+00  0.00000000E+00
  0.00000000E+00  0.00000000E+00  0.00000000E+00
  0.00000000E+00  0.00000000E+00  0.00000000E+00
  0.00000000E+00  0.00000000E+00  0.00000000E+00
  0.00000000E+00  0.00000000E+00  0.00000000E+00
  0.00000000E+00  0.00000000E+00  0.00000000E+00
  0.00000000E+00  0.00000000E+00  0.00000000E+00
  0.00000000E+00  0.00000000E+00  0.00000000E+00
  0.00000000E+00  0.00000000E+00  0.00000000E+00
  0.00000000E+00  0.00000000E+00  0.00000000E+00
  0.00000000E+00  0.00000000E+00  0.00000000E+00
  0.00000000E+00  0.00000000E+00  0.00000000E+00
  0.00000000E+00  0.00000000E+00  0.00000000E+00
  0.00000000E+00  0.00000000E+00  0.00000000E+00
  0.00000000E+00  0.00000000E+00  0.00000000E+00
  0.00000000E+00  0.00000000E+00  0.00000000E+00
  0.00000000E+00  0.00000000E+00  0.00000000E+00
  0.00000000E+00  0.00000000E+00  0.00000000E+00
