CONTCAR                                 
   1.00000000000000     
    12.3312997818000003    0.0000000000000000    0.0000000000000000
     0.0001127485000000   12.8291997905000006    0.0000000000000000
     0.0005937186000000    0.0011528207000000   19.9943999824000009
   C    N    Fe   Ni   O    H 
    52     4     1     1     1     1
Direct
  0.0551936142238968  0.0555756921365109  0.0493749226321563
  0.1557410533266337  0.1112381540351842  0.0499800070898878
  0.1561058858089611  0.2221463007282583  0.0487820295932913
  0.0557357602758258  0.2770089464917410  0.0473823001769652
  0.2560724389304970  0.0566505905819838  0.0525639626240221
  0.3564814249966591  0.1123452987821263  0.0561219538126914
  0.3564460904317449  0.2242557461104595  0.0552610064129595
  0.2559159396705760  0.2781386847153436  0.0503313182394253
  0.4561513321949713  0.0560381094876773  0.0603815679747121
  0.5553706384160669  0.1135487523204325  0.0630610016311179
  0.5559783908234435  0.2267800826492540  0.0643508906854012
  0.4553771025296955  0.2834252023772553  0.0601176549733601
  0.6539318710620723  0.0534963705956409  0.0621002079642815
  0.7540433719017112  0.1106947065042636  0.0583042457464229
  0.7551110021330093  0.2232184817613401  0.0588865952067350
  0.6570531308971764  0.2836933331357048  0.0655130589736924
  0.8541437646408300  0.0544735292978803  0.0538163018667919
  0.9545071547937467  0.1104744104388179  0.0509055003401287
  0.9552136843391007  0.2219719259218761  0.0501527882043984
  0.8554563107885766  0.2782551091511903  0.0532907374715009
  0.0570324964197414  0.3877299437674982  0.0449742125696437
  0.1563548698870794  0.4444150607861913  0.0446440397443312
  0.1564390918147376  0.5552111902727597  0.0436796316300454
  0.0575783118626771  0.6112249638829552  0.0424376574816985
  0.2561139867975905  0.3895962402774008  0.0483634423540237
  0.3553779906680985  0.4450928200289305  0.0531018720793492
  0.3549937317729296  0.5579417031252767  0.0543536482159277
  0.2553685749865950  0.6113080181272983  0.0477345497403667
  0.7603242038840287  0.4498321943206352  0.0581061423928020
  0.8577720867150528  0.3897958753900329  0.0510234534161359
  0.9579512559568288  0.4433645776447491  0.0454381983217574
  0.9590810564528314  0.5542637047695107  0.0436898895275332
  0.8603349952537970  0.6086171979231262  0.0467659412336784
  0.0569112558591389  0.7222420176721775  0.0435607063055223
  0.1555839659588164  0.7785108033140429  0.0462033598553960
  0.1554591122883267  0.8896468418427484  0.0482603125845117
  0.0550970207421690  0.9447065955679134  0.0481475004332336
  0.2545006782770015  0.7225668472425814  0.0490717553319756
  0.3530188132417463  0.7780078413699036  0.0551770157198045
  0.3546290676428077  0.8892176339191331  0.0561446374748495
  0.2554081563469432  0.9452350921863586  0.0520182882745668
  0.4503290703081533  0.7200162471352920  0.0631594444560127
  0.5523877021061971  0.8832481351739817  0.0652996165515248
  0.4550992310752140  0.9436527753304516  0.0611556669652200
  0.7542528434167426  0.8834121424836667  0.0567676966923594
  0.6531689517331807  0.9398327952023824  0.0625896872164390
  0.8588169073878814  0.7207750287897361  0.0467247102992155
  0.9572439365314844  0.7773697378344939  0.0451711188599996
  0.9550633432640068  0.8884598515676752  0.0480891104710814
  0.8538923212001169  0.9423730392805323  0.0525533225470209
  0.6624517855819062  0.3946483106228481  0.0705381001164680
  0.7586123750122246  0.7724769501678977  0.0539554675061374
  0.4522230194597666  0.3915132560195578  0.0599918053459587
  0.4502430376819673  0.6123672028520784  0.0649366347712485
  0.7638122105045285  0.5584323183894946  0.0537633017036177
  0.5474238175393902  0.7735420030652361  0.0694997913767992
  0.6565267524003394  0.6680117086245567  0.0774944264422976
  0.5534710959741030  0.4892841270250569  0.0859762819365732
  0.6237505445458017  0.5776908406599053  0.1521347521359432
  0.5642304182628760  0.6035770441209947  0.1796847602989936
 
  0.00000000E+00  0.00000000E+00  0.00000000E+00
  0.00000000E+00  0.00000000E+00  0.00000000E+00
  0.00000000E+00  0.00000000E+00  0.00000000E+00
  0.00000000E+00  0.00000000E+00  0.00000000E+00
  0.00000000E+00  0.00000000E+00  0.00000000E+00
  0.00000000E+00  0.00000000E+00  0.00000000E+00
  0.00000000E+00  0.00000000E+00  0.00000000E+00
  0.00000000E+00  0.00000000E+00  0.00000000E+00
  0.00000000E+00  0.00000000E+00  0.00000000E+00
  0.00000000E+00  0.00000000E+00  0.00000000E+00
  0.00000000E+00  0.00000000E+00  0.00000000E+00
  0.00000000E+00  0.00000000E+00  0.00000000E+00
  0.00000000E+00  0.00000000E+00  0.00000000E+00
  0.00000000E+00  0.00000000E+00  0.00000000E+00
  0.00000000E+00  0.00000000E+00  0.00000000E+00
  0.00000000E+00  0.00000000E+00  0.00000000E+00
  0.00000000E+00  0.00000000E+00  0.00000000E+00
  0.00000000E+00  0.00000000E+00  0.00000000E+00
  0.00000000E+00  0.00000000E+00  0.00000000E+00
  0.00000000E+00  0.00000000E+00  0.00000000E+00
  0.00000000E+00  0.00000000E+00  0.00000000E+00
  0.00000000E+00  0.00000000E+00  0.00000000E+00
  0.00000000E+00  0.00000000E+00  0.00000000E+00
  0.00000000E+00  0.00000000E+00  0.00000000E+00
  0.00000000E+00  0.00000000E+00  0.00000000E+00
  0.00000000E+00  0.00000000E+00  0.00000000E+00
  0.00000000E+00  0.00000000E+00  0.00000000E+00
  0.00000000E+00  0.00000000E+00  0.00000000E+00
  0.00000000E+00  0.00000000E+00  0.00000000E+00
  0.00000000E+00  0.00000000E+00  0.00000000E+00
  0.00000000E+00  0.00000000E+00  0.00000000E+00
  0.00000000E+00  0.00000000E+00  0.00000000E+00
  0.00000000E+00  0.00000000E+00  0.00000000E+00
  0.00000000E+00  0.00000000E+00  0.00000000E+00
  0.00000000E+00  0.00000000E+00  0.00000000E+00
  0.00000000E+00  0.00000000E+00  0.00000000E+00
  0.00000000E+00  0.00000000E+00  0.00000000E+00
  0.00000000E+00  0.00000000E+00  0.00000000E+00
  0.00000000E+00  0.00000000E+00  0.00000000E+00
  0.00000000E+00  0.00000000E+00  0.00000000E+00
  0.00000000E+00  0.00000000E+00  0.00000000E+00
  0.00000000E+00  0.00000000E+00  0.00000000E+00
  0.00000000E+00  0.00000000E+00  0.00000000E+00
  0.00000000E+00  0.00000000E+00  0.00000000E+00
  0.00000000E+00  0.00000000E+00  0.00000000E+00
  0.00000000E+00  0.00000000E+00  0.00000000E+00
  0.00000000E+00  0.00000000E+00  0.00000000E+00
  0.00000000E+00  0.00000000E+00  0.00000000E+00
  0.00000000E+00  0.00000000E+00  0.00000000E+00
  0.00000000E+00  0.00000000E+00  0.00000000E+00
  0.00000000E+00  0.00000000E+00  0.00000000E+00
  0.00000000E+00  0.00000000E+00  0.00000000E+00
  0.00000000E+00  0.00000000E+00  0.00000000E+00
  0.00000000E+00  0.00000000E+00  0.00000000E+00
  0.00000000E+00  0.00000000E+00  0.00000000E+00
  0.00000000E+00  0.00000000E+00  0.00000000E+00
  0.00000000E+00  0.00000000E+00  0.00000000E+00
  0.00000000E+00  0.00000000E+00  0.00000000E+00
  0.00000000E+00  0.00000000E+00  0.00000000E+00
  0.00000000E+00  0.00000000E+00  0.00000000E+00
