235                                     
   1.00000000000000     
    12.3312997818000003    0.0000000000000000    0.0000000000000000
     0.0001127485000000   12.8291997905000006    0.0000000000000000
     0.0005937186000000    0.0011528207000000   19.9943999824000009
   C    N    Fe   Ni   O    H 
    53     3     1     1     2     2
Direct
  0.0559632636141399  0.0554171244471272  0.0461205104810871
  0.1563966455305734  0.1114461499558292  0.0465103211146397
  0.1577893977405350  0.2226667312050067  0.0465214038476268
  0.0575065123231727  0.2768583290705662  0.0458242334857073
  0.2561419682443768  0.0563520816138748  0.0474508043496495
  0.3568343617704436  0.1113077384642238  0.0497158157375173
  0.3578746712461041  0.2227729129432253  0.0510406681242890
  0.2582798382788430  0.2788692708743032  0.0483767529909104
  0.4564908878913667  0.0553575221997190  0.0513796161122612
  0.5568782386454955  0.1106950557491126  0.0536492183354205
  0.5579333792903656  0.2221972528251021  0.0572255600000993
  0.4577094465475439  0.2786638660412867  0.0569747629971035
  0.6555117042712776  0.0516810152206153  0.0527343999314528
  0.7556565229413119  0.1086660293168939  0.0507960494010483
  0.7568738072411730  0.2209623149755790  0.0517964684078113
  0.6587875730945898  0.2790745943100040  0.0579956176328018
  0.8553086176132105  0.0530682284436775  0.0483524921868515
  0.9555665527591050  0.1098503553790073  0.0468095455715654
  0.9566430306090499  0.2213922259010666  0.0467496713063392
  0.8568333088325993  0.2769990210309449  0.0490300273408592
  0.0590855000927119  0.3877510240854741  0.0455132063528552
  0.1587748483097327  0.4442077045638270  0.0458261237703030
  0.1585853883421981  0.5553204388027658  0.0458732590784304
  0.0586260167511542  0.6100812206279225  0.0456652960760247
  0.2597272040262955  0.3906637989469279  0.0479851849254873
  0.3604078114848851  0.4473651473777586  0.0525397791208079
  0.3608358416644685  0.5612106572701813  0.0514390431184983
  0.2580279188042025  0.6123161073036967  0.0474317801390597
  0.7599719099576213  0.4477483873104667  0.0560362299873045
  0.8582706750504858  0.3888176693218550  0.0495036206294505
  0.9591303252033592  0.4426759526079219  0.0468253452983036
  0.9595674294146559  0.5530861864645045  0.0471932785537426
  0.8592233351412192  0.6064071159698564  0.0507457244534594
  0.0569373044806599  0.7213554788159225  0.0455934017245381
  0.1551204602916396  0.7781497425650605  0.0455820127758291
  0.1551189794935204  0.8893381806449400  0.0457890492326552
  0.0551776841344274  0.9441128665747818  0.0458948485311585
  0.2545995824440960  0.7230370208170354  0.0468057280192777
  0.3523343792427659  0.7798209405905294  0.0483655857726603
  0.3541031565372819  0.8902772760546241  0.0483218343886072
  0.2548195364480482  0.9455191214914431  0.0468983065147725
  0.4502976143167852  0.7237078892396239  0.0518803761113607
  0.5523721906829234  0.8838540937683474  0.0527476460858633
  0.4548699286170237  0.9437555739031325  0.0505927671208928
  0.7544589034192645  0.8825765288672560  0.0519942336285307
  0.6542220481026806  0.9392035712652762  0.0531618205901425
  0.8583008449469716  0.7189854930704890  0.0497382670870822
  0.9570788721472383  0.7759161177021668  0.0466301688014145
  0.9554497513935699  0.8871472115760901  0.0467304139890068
  0.8544765645414545  0.9409680434381047  0.0485556045657157
  0.4566666792708987  0.3894695425478842  0.0625496481895087
  0.6615655668689177  0.3896792482839702  0.0655690231881737
  0.7588724733870110  0.7713240128556217  0.0543765899183632
  0.7622469485010848  0.5563013103889468  0.0566684773905415
  0.5471030727807286  0.7765761588985650  0.0535534665105521
  0.4553821850059904  0.6176874221467229  0.0545834072433092
  0.6520961736315024  0.6732213769746828  0.0804720385678281
  0.5582122630568102  0.4597439267565377  0.1092925882031929
  0.5622091749330297  0.4961977263066405  0.1943831706455322
  0.6503474577349695  0.6902356416644312  0.1718650668644816
  0.7196400862563593  0.6956875470419355  0.1949825373203853
  0.5791661036040652  0.5715217921288868  0.1969301331598514
 
  0.00000000E+00  0.00000000E+00  0.00000000E+00
  0.00000000E+00  0.00000000E+00  0.00000000E+00
  0.00000000E+00  0.00000000E+00  0.00000000E+00
  0.00000000E+00  0.00000000E+00  0.00000000E+00
  0.00000000E+00  0.00000000E+00  0.00000000E+00
  0.00000000E+00  0.00000000E+00  0.00000000E+00
  0.00000000E+00  0.00000000E+00  0.00000000E+00
  0.00000000E+00  0.00000000E+00  0.00000000E+00
  0.00000000E+00  0.00000000E+00  0.00000000E+00
  0.00000000E+00  0.00000000E+00  0.00000000E+00
  0.00000000E+00  0.00000000E+00  0.00000000E+00
  0.00000000E+00  0.00000000E+00  0.00000000E+00
  0.00000000E+00  0.00000000E+00  0.00000000E+00
  0.00000000E+00  0.00000000E+00  0.00000000E+00
  0.00000000E+00  0.00000000E+00  0.00000000E+00
  0.00000000E+00  0.00000000E+00  0.00000000E+00
  0.00000000E+00  0.00000000E+00  0.00000000E+00
  0.00000000E+00  0.00000000E+00  0.00000000E+00
  0.00000000E+00  0.00000000E+00  0.00000000E+00
  0.00000000E+00  0.00000000E+00  0.00000000E+00
  0.00000000E+00  0.00000000E+00  0.00000000E+00
  0.00000000E+00  0.00000000E+00  0.00000000E+00
  0.00000000E+00  0.00000000E+00  0.00000000E+00
  0.00000000E+00  0.00000000E+00  0.00000000E+00
  0.00000000E+00  0.00000000E+00  0.00000000E+00
  0.00000000E+00  0.00000000E+00  0.00000000E+00
  0.00000000E+00  0.00000000E+00  0.00000000E+00
  0.00000000E+00  0.00000000E+00  0.00000000E+00
  0.00000000E+00  0.00000000E+00  0.00000000E+00
  0.00000000E+00  0.00000000E+00  0.00000000E+00
  0.00000000E+00  0.00000000E+00  0.00000000E+00
  0.00000000E+00  0.00000000E+00  0.00000000E+00
  0.00000000E+00  0.00000000E+00  0.00000000E+00
  0.00000000E+00  0.00000000E+00  0.00000000E+00
  0.00000000E+00  0.00000000E+00  0.00000000E+00
  0.00000000E+00  0.00000000E+00  0.00000000E+00
  0.00000000E+00  0.00000000E+00  0.00000000E+00
  0.00000000E+00  0.00000000E+00  0.00000000E+00
  0.00000000E+00  0.00000000E+00  0.00000000E+00
  0.00000000E+00  0.00000000E+00  0.00000000E+00
  0.00000000E+00  0.00000000E+00  0.00000000E+00
  0.00000000E+00  0.00000000E+00  0.00000000E+00
  0.00000000E+00  0.00000000E+00  0.00000000E+00
  0.00000000E+00  0.00000000E+00  0.00000000E+00
  0.00000000E+00  0.00000000E+00  0.00000000E+00
  0.00000000E+00  0.00000000E+00  0.00000000E+00
  0.00000000E+00  0.00000000E+00  0.00000000E+00
  0.00000000E+00  0.00000000E+00  0.00000000E+00
  0.00000000E+00  0.00000000E+00  0.00000000E+00
  0.00000000E+00  0.00000000E+00  0.00000000E+00
  0.00000000E+00  0.00000000E+00  0.00000000E+00
  0.00000000E+00  0.00000000E+00  0.00000000E+00
  0.00000000E+00  0.00000000E+00  0.00000000E+00
  0.00000000E+00  0.00000000E+00  0.00000000E+00
  0.00000000E+00  0.00000000E+00  0.00000000E+00
  0.00000000E+00  0.00000000E+00  0.00000000E+00
  0.00000000E+00  0.00000000E+00  0.00000000E+00
  0.00000000E+00  0.00000000E+00  0.00000000E+00
  0.00000000E+00  0.00000000E+00  0.00000000E+00
  0.00000000E+00  0.00000000E+00  0.00000000E+00
  0.00000000E+00  0.00000000E+00  0.00000000E+00
  0.00000000E+00  0.00000000E+00  0.00000000E+00
