CONTCAR\(5)                             
   1.00000000000000     
    12.3312997818000003    0.0000000000000000    0.0000000000000000
     0.0001127485000000   12.8291997905000006    0.0000000000000000
     0.0005937186000000    0.0011528207000000   19.9943999824000009
   C    N    Fe   Ni   H 
    54     2     1     1     2
Direct
  0.0555272002067301  0.0532815168872610  0.0539912078246126
  0.1556412071357001  0.1087765989788839  0.0533522622235546
  0.1557113522852038  0.2197184520248562  0.0524897551998090
  0.0561131890668995  0.2752431115879937  0.0521641693108812
  0.2562570748138449  0.0544472956969811  0.0538176352633818
  0.3562453177073609  0.1112557083869814  0.0547719545835258
  0.3560010762019487  0.2228781749863431  0.0544553462436958
  0.2549471674803494  0.2757178109795759  0.0525846762171826
  0.4562641309044809  0.0565062436610874  0.0560776000198607
  0.5559189548464234  0.1142375646140968  0.0579183413898044
  0.5560953180003630  0.2272630275591327  0.0587649988843281
  0.4546118451985753  0.2824504750439162  0.0561874061340508
  0.6553755220172610  0.0550342689558947  0.0584135772471786
  0.7556441970494741  0.1104801415767840  0.0576368183571053
  0.7568849723112109  0.2222140840338681  0.0576188740723315
  0.6588238025189259  0.2827423808551514  0.0602968350246043
  0.8546073056215266  0.0528376562845567  0.0563143101465758
  0.9551286277277306  0.1083463249834881  0.0546153766545455
  0.9562388380060222  0.2196266515247381  0.0536785036049691
  0.8571905109574041  0.2763637191314047  0.0550107522843284
  0.0566872955918078  0.3865481426652568  0.0511631771875799
  0.1551103037864331  0.4427680145100396  0.0507085238130020
  0.1555693937619101  0.5541260307906168  0.0507706972204183
  0.0560680520554389  0.6096336357780249  0.0514625702227431
  0.2540146085350033  0.3863863557548506  0.0515248435708338
  0.3526159376276894  0.4409358927145960  0.0526589326754297
  0.3549245315147287  0.5535006141689702  0.0526440985872064
  0.2550356439668081  0.6094813139450167  0.0515359310685626
  0.7603490794024558  0.4441138897626103  0.0579559511571884
  0.8588714771505097  0.3874068568909954  0.0540641517592819
  0.9577587149449277  0.4426147282479513  0.0517766306164429
  0.9571763855647535  0.5532174463811205  0.0520676198740018
  0.8568636482808848  0.6078210522294173  0.0544683691654911
  0.0557358244921921  0.7209322876775224  0.0524045645680472
  0.1552583134677164  0.7762471316484270  0.0526266940075198
  0.1556373368138846  0.8874844257504184  0.0533499536626217
  0.0551213317411092  0.9423748332092100  0.0541169074769671
  0.2554805832231560  0.7204381214011193  0.0525651410088609
  0.3553901445245556  0.7755149975715632  0.0540092738369927
  0.3560999552488099  0.8874178363079539  0.0542945116870423
  0.2558664011273104  0.9430565214404848  0.0536513015448708
  0.4561246915032006  0.7176727793239404  0.0548569874640122
  0.5548243495910045  0.8877605253917709  0.0570684320072274
  0.4554830364126699  0.9445500213216644  0.0555687944027961
  0.7534880264297001  0.8824167044366221  0.0588146333070572
  0.6554899187493960  0.9431941569533686  0.0585121254663470
  0.8558478549279398  0.7200859282431338  0.0557630831423257
  0.9551468830942951  0.7760045850490083  0.0540184281601804
  0.9548265510307528  0.8868492321595288  0.0550777418009903
  0.8536560521815826  0.9404646939733941  0.0568428247383967
  0.7570021759501925  0.5560068190775977  0.0574038642700451
  0.5535498118407927  0.7787059528779733  0.0575796037170613
  0.7532343134115421  0.7687922189158125  0.0594083948569337
  0.4558781207923874  0.6043892428958852  0.0551432842996700
  0.4496873385349240  0.3903953155630717  0.0551278790814899
  0.6644143649533246  0.3888461007628915  0.0631757948753685
  0.6336209921746588  0.6608238256372240  0.0687310553559543
  0.5595404062176177  0.4937023971232683  0.0655573631131992
  0.6631898349809324  0.6863400611545285  0.1379689079523091
  0.6168228213435606  0.5687880655401707  0.1210105505911846
 
  0.00000000E+00  0.00000000E+00  0.00000000E+00
  0.00000000E+00  0.00000000E+00  0.00000000E+00
  0.00000000E+00  0.00000000E+00  0.00000000E+00
  0.00000000E+00  0.00000000E+00  0.00000000E+00
  0.00000000E+00  0.00000000E+00  0.00000000E+00
  0.00000000E+00  0.00000000E+00  0.00000000E+00
  0.00000000E+00  0.00000000E+00  0.00000000E+00
  0.00000000E+00  0.00000000E+00  0.00000000E+00
  0.00000000E+00  0.00000000E+00  0.00000000E+00
  0.00000000E+00  0.00000000E+00  0.00000000E+00
  0.00000000E+00  0.00000000E+00  0.00000000E+00
  0.00000000E+00  0.00000000E+00  0.00000000E+00
  0.00000000E+00  0.00000000E+00  0.00000000E+00
  0.00000000E+00  0.00000000E+00  0.00000000E+00
  0.00000000E+00  0.00000000E+00  0.00000000E+00
  0.00000000E+00  0.00000000E+00  0.00000000E+00
  0.00000000E+00  0.00000000E+00  0.00000000E+00
  0.00000000E+00  0.00000000E+00  0.00000000E+00
  0.00000000E+00  0.00000000E+00  0.00000000E+00
  0.00000000E+00  0.00000000E+00  0.00000000E+00
  0.00000000E+00  0.00000000E+00  0.00000000E+00
  0.00000000E+00  0.00000000E+00  0.00000000E+00
  0.00000000E+00  0.00000000E+00  0.00000000E+00
  0.00000000E+00  0.00000000E+00  0.00000000E+00
  0.00000000E+00  0.00000000E+00  0.00000000E+00
  0.00000000E+00  0.00000000E+00  0.00000000E+00
  0.00000000E+00  0.00000000E+00  0.00000000E+00
  0.00000000E+00  0.00000000E+00  0.00000000E+00
  0.00000000E+00  0.00000000E+00  0.00000000E+00
  0.00000000E+00  0.00000000E+00  0.00000000E+00
  0.00000000E+00  0.00000000E+00  0.00000000E+00
  0.00000000E+00  0.00000000E+00  0.00000000E+00
  0.00000000E+00  0.00000000E+00  0.00000000E+00
  0.00000000E+00  0.00000000E+00  0.00000000E+00
  0.00000000E+00  0.00000000E+00  0.00000000E+00
  0.00000000E+00  0.00000000E+00  0.00000000E+00
  0.00000000E+00  0.00000000E+00  0.00000000E+00
  0.00000000E+00  0.00000000E+00  0.00000000E+00
  0.00000000E+00  0.00000000E+00  0.00000000E+00
  0.00000000E+00  0.00000000E+00  0.00000000E+00
  0.00000000E+00  0.00000000E+00  0.00000000E+00
  0.00000000E+00  0.00000000E+00  0.00000000E+00
  0.00000000E+00  0.00000000E+00  0.00000000E+00
  0.00000000E+00  0.00000000E+00  0.00000000E+00
  0.00000000E+00  0.00000000E+00  0.00000000E+00
  0.00000000E+00  0.00000000E+00  0.00000000E+00
  0.00000000E+00  0.00000000E+00  0.00000000E+00
  0.00000000E+00  0.00000000E+00  0.00000000E+00
  0.00000000E+00  0.00000000E+00  0.00000000E+00
  0.00000000E+00  0.00000000E+00  0.00000000E+00
  0.00000000E+00  0.00000000E+00  0.00000000E+00
  0.00000000E+00  0.00000000E+00  0.00000000E+00
  0.00000000E+00  0.00000000E+00  0.00000000E+00
  0.00000000E+00  0.00000000E+00  0.00000000E+00
  0.00000000E+00  0.00000000E+00  0.00000000E+00
  0.00000000E+00  0.00000000E+00  0.00000000E+00
  0.00000000E+00  0.00000000E+00  0.00000000E+00
  0.00000000E+00  0.00000000E+00  0.00000000E+00
  0.00000000E+00  0.00000000E+00  0.00000000E+00
  0.00000000E+00  0.00000000E+00  0.00000000E+00
