POSCAR                                  
   1.00000000000000     
    12.3312997818000003    0.0000000000000000    0.0000000000000000
     0.0001127485000000   12.8291997905000006    0.0000000000000000
     0.0005937186000000    0.0011528207000000   19.9943999824000009
   C    N    Fe   Ni   H 
    55     1     1     1     1
Direct
  0.0559614569952934  0.0550527117826037  0.0530472276003881
  0.1559861688900876  0.1105214860786687  0.0522483850534312
  0.1560926359381070  0.2213455828834727  0.0512042050671156
  0.0564634097595304  0.2767359892136315  0.0506001235616550
  0.2562265020181474  0.0560088304456765  0.0529828753831440
  0.3563448235827358  0.1120984727404990  0.0543941074788808
  0.3562695597524806  0.2236964258024096  0.0543418467484531
  0.2555898844362764  0.2771251239084518  0.0517896073308500
  0.4559659063325704  0.0566402249183033  0.0560457759908873
  0.5554566567489631  0.1137235743824183  0.0584125763021518
  0.5556596214921709  0.2257284369049085  0.0598404332635198
  0.4550408800531696  0.2822500552505304  0.0569086208180035
  0.6556100156906034  0.0552796353056321  0.0591434725251160
  0.7560932459547225  0.1109947127076548  0.0578228221957005
  0.7568289144013197  0.2224370131073246  0.0578225294969090
  0.6575147079037927  0.2809446007857971  0.0622132115441368
  0.8552640715100474  0.0539885723097587  0.0561561859628952
  0.9556049762559504  0.1098544438674242  0.0537764397959612
  0.9563967087603368  0.2210638724409925  0.0523884615551684
  0.8570860718407964  0.2772931815023230  0.0540051635797962
  0.0575505174741886  0.3880514959052282  0.0496984323623517
  0.1563112095404262  0.4441162010038763  0.0496278750578637
  0.1567454212768057  0.5555718543537961  0.0498714970021594
  0.0572704089327488  0.6111066789938292  0.0509672097488820
  0.2553977233317593  0.3879218247238459  0.0508581508456548
  0.3546897784802996  0.4423668424844354  0.0527678317044250
  0.3568195993137782  0.5556099381117861  0.0529033094712090
  0.2561594145211685  0.6109228881539265  0.0508507565284556
  0.7613931000135282  0.4457836823198252  0.0597031885713924
  0.8594926917837820  0.3885118000655327  0.0529292041150629
  0.9583705248617873  0.4438237825382583  0.0505242554094995
  0.9582653344557795  0.5548498490013727  0.0517458115236631
  0.8587916630174179  0.6103209135092588  0.0554778037439499
  0.0564082041345814  0.7224442507694753  0.0521839669002574
  0.1554832703307504  0.7778169784945421  0.0519811113711278
  0.1557889671065301  0.8891365111495615  0.0526247249200691
  0.0557129314088668  0.9442842235531155  0.0535483861883541
  0.2552584883636527  0.7220359293022987  0.0517753651622890
  0.3541167517079826  0.7779306108452634  0.0534445904051117
  0.3555367089572934  0.8892117807715514  0.0536878962891405
  0.2557050772841774  0.9448705245358663  0.0528212206794631
  0.4538267989030834  0.7210504346082783  0.0561952843768141
  0.5551121699656820  0.8879755161780049  0.0580882772988984
  0.4554566866565982  0.9450116948906504  0.0555952547497601
  0.7544293652737382  0.8839372875479916  0.0600869152144429
  0.6555730653574219  0.9439361509205153  0.0597154653388158
  0.8572175459356536  0.7224998856874758  0.0572060293510607
  0.9563490177244260  0.7779921110822997  0.0544387206996001
  0.9555859042607016  0.8886274343831562  0.0551694042591736
  0.8545837191835154  0.9420412266286670  0.0572393830556158
  0.4565347519994142  0.6086278485335719  0.0573902561997018
  0.6631955077771358  0.3899203751569725  0.0671540668419332
  0.7600529471749332  0.5575553396410856  0.0605344868577433
  0.5524437237138070  0.7787865009194159  0.0596679298568655
  0.7552111192031949  0.7718126440288495  0.0617106004609304
  0.4513865452061040  0.3905827855460356  0.0557752610571360
  0.6374325600782050  0.6595276417686328  0.0737151047699364
  0.5602006761662368  0.4917010120658803  0.0695635127760657
  0.6201839308057803  0.5556228234874032  0.1247073845809610
 
  0.00000000E+00  0.00000000E+00  0.00000000E+00
  0.00000000E+00  0.00000000E+00  0.00000000E+00
  0.00000000E+00  0.00000000E+00  0.00000000E+00
  0.00000000E+00  0.00000000E+00  0.00000000E+00
  0.00000000E+00  0.00000000E+00  0.00000000E+00
  0.00000000E+00  0.00000000E+00  0.00000000E+00
  0.00000000E+00  0.00000000E+00  0.00000000E+00
  0.00000000E+00  0.00000000E+00  0.00000000E+00
  0.00000000E+00  0.00000000E+00  0.00000000E+00
  0.00000000E+00  0.00000000E+00  0.00000000E+00
  0.00000000E+00  0.00000000E+00  0.00000000E+00
  0.00000000E+00  0.00000000E+00  0.00000000E+00
  0.00000000E+00  0.00000000E+00  0.00000000E+00
  0.00000000E+00  0.00000000E+00  0.00000000E+00
  0.00000000E+00  0.00000000E+00  0.00000000E+00
  0.00000000E+00  0.00000000E+00  0.00000000E+00
  0.00000000E+00  0.00000000E+00  0.00000000E+00
  0.00000000E+00  0.00000000E+00  0.00000000E+00
  0.00000000E+00  0.00000000E+00  0.00000000E+00
  0.00000000E+00  0.00000000E+00  0.00000000E+00
  0.00000000E+00  0.00000000E+00  0.00000000E+00
  0.00000000E+00  0.00000000E+00  0.00000000E+00
  0.00000000E+00  0.00000000E+00  0.00000000E+00
  0.00000000E+00  0.00000000E+00  0.00000000E+00
  0.00000000E+00  0.00000000E+00  0.00000000E+00
  0.00000000E+00  0.00000000E+00  0.00000000E+00
  0.00000000E+00  0.00000000E+00  0.00000000E+00
  0.00000000E+00  0.00000000E+00  0.00000000E+00
  0.00000000E+00  0.00000000E+00  0.00000000E+00
  0.00000000E+00  0.00000000E+00  0.00000000E+00
  0.00000000E+00  0.00000000E+00  0.00000000E+00
  0.00000000E+00  0.00000000E+00  0.00000000E+00
  0.00000000E+00  0.00000000E+00  0.00000000E+00
  0.00000000E+00  0.00000000E+00  0.00000000E+00
  0.00000000E+00  0.00000000E+00  0.00000000E+00
  0.00000000E+00  0.00000000E+00  0.00000000E+00
  0.00000000E+00  0.00000000E+00  0.00000000E+00
  0.00000000E+00  0.00000000E+00  0.00000000E+00
  0.00000000E+00  0.00000000E+00  0.00000000E+00
  0.00000000E+00  0.00000000E+00  0.00000000E+00
  0.00000000E+00  0.00000000E+00  0.00000000E+00
  0.00000000E+00  0.00000000E+00  0.00000000E+00
  0.00000000E+00  0.00000000E+00  0.00000000E+00
  0.00000000E+00  0.00000000E+00  0.00000000E+00
  0.00000000E+00  0.00000000E+00  0.00000000E+00
  0.00000000E+00  0.00000000E+00  0.00000000E+00
  0.00000000E+00  0.00000000E+00  0.00000000E+00
  0.00000000E+00  0.00000000E+00  0.00000000E+00
  0.00000000E+00  0.00000000E+00  0.00000000E+00
  0.00000000E+00  0.00000000E+00  0.00000000E+00
  0.00000000E+00  0.00000000E+00  0.00000000E+00
  0.00000000E+00  0.00000000E+00  0.00000000E+00
  0.00000000E+00  0.00000000E+00  0.00000000E+00
  0.00000000E+00  0.00000000E+00  0.00000000E+00
  0.00000000E+00  0.00000000E+00  0.00000000E+00
  0.00000000E+00  0.00000000E+00  0.00000000E+00
  0.00000000E+00  0.00000000E+00  0.00000000E+00
  0.00000000E+00  0.00000000E+00  0.00000000E+00
  0.00000000E+00  0.00000000E+00  0.00000000E+00
