CONTCAR\(2)                             
   1.00000000000000     
    12.3312997818000003    0.0000000000000000    0.0000000000000000
     0.0001127485000000   12.8291997905000006    0.0000000000000000
     0.0005937186000000    0.0011528207000000   19.9943999824000009
   C    N    Fe   Ni   O 
    53     3     1     1     1
Direct
  0.0559742113890907  0.0545178171149197  0.0519063479537285
  0.1565523366903560  0.1099848280521003  0.0519750041484779
  0.1569443037642788  0.2209397247822597  0.0507076887675835
  0.0568537418301280  0.2757661082413916  0.0494623060012554
  0.2571384748145111  0.0554247327463817  0.0539018830300548
  0.3574790850122133  0.1118049486935190  0.0567888966405770
  0.3577356552606509  0.2237939612398838  0.0560545710183892
  0.2567591591573278  0.2774168146223738  0.0517486950949998
  0.4573468376608673  0.0561482177621130  0.0606137580308238
  0.5574013744052319  0.1137237939347569  0.0630831669319914
  0.5583147377626138  0.2268892375002056  0.0634960965633826
  0.4573267959050333  0.2827235312643907  0.0601676121577401
  0.6558457665955070  0.0539159380668939  0.0628328503745604
  0.7554495489715360  0.1105802693323578  0.0593343413114854
  0.7565920254797195  0.2232227669924783  0.0588448659565020
  0.6595373643798039  0.2841135961161982  0.0633538428148765
  0.8550899543712260  0.0541469820145932  0.0559127405269942
  0.9557777060429244  0.1094199776189836  0.0531954716045081
  0.9567710476017758  0.2204659601175307  0.0520152145670733
  0.8573597867022642  0.2765638414792850  0.0540501298249244
  0.0570258880927706  0.3867471497494684  0.0471077545564319
  0.1554523199990520  0.4433725212343356  0.0469544312185977
  0.1549291217751206  0.5547322111680720  0.0463645045186039
  0.0564924379349499  0.6103534606456719  0.0455187407286560
  0.2549940681732149  0.3884523819598478  0.0499063045865188
  0.3532051009259791  0.4453545464537007  0.0537195572094971
  0.3518587729255040  0.5575986772240971  0.0547316493393767
  0.2532772447143057  0.6119536327469388  0.0495911727353416
  0.7607771342656291  0.4454132949390731  0.0548261670775408
  0.8587370447006342  0.3873437754874227  0.0509434977324833
  0.9579543155183202  0.4423307091402562  0.0467631891524120
  0.9580243848265796  0.5530593957811607  0.0456043063438376
  0.8583490809620403  0.6058435189259784  0.0467432117552398
  0.0558493106428060  0.7216435392143228  0.0466461997192369
  0.1546519177846626  0.7781152357195746  0.0488032407942543
  0.1556507213864782  0.8889707198965602  0.0506780669495797
  0.0553491930866978  0.9435246838024909  0.0510004716131940
  0.2537553303457142  0.7225327295726306  0.0510344480317645
  0.3536481124955728  0.7763089985771595  0.0564982943054774
  0.3560564954985941  0.8881042968315649  0.0570851141238849
  0.2564032053934392  0.9440949929409954  0.0535285405832629
  0.4508870647834713  0.7167143838357196  0.0635891285668801
  0.5544748505894481  0.8838073421006085  0.0660794640873034
  0.4563647582994987  0.9434190511095981  0.0614161167104488
  0.7549726129900659  0.8842496320950173  0.0593733070607747
  0.6550866274960869  0.9413022266764030  0.0639930525283612
  0.8563815837862802  0.7191107233871330  0.0495448835355848
  0.9557759301162808  0.7759958566387708  0.0483910148538043
  0.9551228386584425  0.8873533682637049  0.0512315076710379
  0.8545142966123356  0.9421623186248853  0.0551627556627759
  0.4528839734086293  0.3936882827574855  0.0601953908485154
  0.5508040153146601  0.7723632711357887  0.0705702300882935
  0.7567960549242209  0.7725138889647017  0.0572133697223379
  0.4474739486823489  0.6076564050628354  0.0633696566105031
  0.6641377435437568  0.3933993023250179  0.0653951310672858
  0.7625979817837728  0.5522966019457877  0.0491979272430429
  0.6546210680758167  0.6663291803125652  0.0798848153815575
  0.5552857535821369  0.4927591689592131  0.0832730820360574
  0.6186478251075925  0.5841754141007997  0.1447148149303019
 
  0.00000000E+00  0.00000000E+00  0.00000000E+00
  0.00000000E+00  0.00000000E+00  0.00000000E+00
  0.00000000E+00  0.00000000E+00  0.00000000E+00
  0.00000000E+00  0.00000000E+00  0.00000000E+00
  0.00000000E+00  0.00000000E+00  0.00000000E+00
  0.00000000E+00  0.00000000E+00  0.00000000E+00
  0.00000000E+00  0.00000000E+00  0.00000000E+00
  0.00000000E+00  0.00000000E+00  0.00000000E+00
  0.00000000E+00  0.00000000E+00  0.00000000E+00
  0.00000000E+00  0.00000000E+00  0.00000000E+00
  0.00000000E+00  0.00000000E+00  0.00000000E+00
  0.00000000E+00  0.00000000E+00  0.00000000E+00
  0.00000000E+00  0.00000000E+00  0.00000000E+00
  0.00000000E+00  0.00000000E+00  0.00000000E+00
  0.00000000E+00  0.00000000E+00  0.00000000E+00
  0.00000000E+00  0.00000000E+00  0.00000000E+00
  0.00000000E+00  0.00000000E+00  0.00000000E+00
  0.00000000E+00  0.00000000E+00  0.00000000E+00
  0.00000000E+00  0.00000000E+00  0.00000000E+00
  0.00000000E+00  0.00000000E+00  0.00000000E+00
  0.00000000E+00  0.00000000E+00  0.00000000E+00
  0.00000000E+00  0.00000000E+00  0.00000000E+00
  0.00000000E+00  0.00000000E+00  0.00000000E+00
  0.00000000E+00  0.00000000E+00  0.00000000E+00
  0.00000000E+00  0.00000000E+00  0.00000000E+00
  0.00000000E+00  0.00000000E+00  0.00000000E+00
  0.00000000E+00  0.00000000E+00  0.00000000E+00
  0.00000000E+00  0.00000000E+00  0.00000000E+00
  0.00000000E+00  0.00000000E+00  0.00000000E+00
  0.00000000E+00  0.00000000E+00  0.00000000E+00
  0.00000000E+00  0.00000000E+00  0.00000000E+00
  0.00000000E+00  0.00000000E+00  0.00000000E+00
  0.00000000E+00  0.00000000E+00  0.00000000E+00
  0.00000000E+00  0.00000000E+00  0.00000000E+00
  0.00000000E+00  0.00000000E+00  0.00000000E+00
  0.00000000E+00  0.00000000E+00  0.00000000E+00
  0.00000000E+00  0.00000000E+00  0.00000000E+00
  0.00000000E+00  0.00000000E+00  0.00000000E+00
  0.00000000E+00  0.00000000E+00  0.00000000E+00
  0.00000000E+00  0.00000000E+00  0.00000000E+00
  0.00000000E+00  0.00000000E+00  0.00000000E+00
  0.00000000E+00  0.00000000E+00  0.00000000E+00
  0.00000000E+00  0.00000000E+00  0.00000000E+00
  0.00000000E+00  0.00000000E+00  0.00000000E+00
  0.00000000E+00  0.00000000E+00  0.00000000E+00
  0.00000000E+00  0.00000000E+00  0.00000000E+00
  0.00000000E+00  0.00000000E+00  0.00000000E+00
  0.00000000E+00  0.00000000E+00  0.00000000E+00
  0.00000000E+00  0.00000000E+00  0.00000000E+00
  0.00000000E+00  0.00000000E+00  0.00000000E+00
  0.00000000E+00  0.00000000E+00  0.00000000E+00
  0.00000000E+00  0.00000000E+00  0.00000000E+00
  0.00000000E+00  0.00000000E+00  0.00000000E+00
  0.00000000E+00  0.00000000E+00  0.00000000E+00
  0.00000000E+00  0.00000000E+00  0.00000000E+00
  0.00000000E+00  0.00000000E+00  0.00000000E+00
  0.00000000E+00  0.00000000E+00  0.00000000E+00
  0.00000000E+00  0.00000000E+00  0.00000000E+00
  0.00000000E+00  0.00000000E+00  0.00000000E+00
