CONTCAR                                 
   1.00000000000000     
    12.3312997818000003    0.0000000000000000    0.0000000000000000
     0.0001127485000000   12.8291997905000006    0.0000000000000000
     0.0005937186000000    0.0011528207000000   19.9943999824000009
   C    N    Fe   Ni   O 
    52     4     1     1     2
Direct
  0.0562907926158877  0.0548886598748509  0.0515296177664713
  0.1562994460702130  0.1107521204223628  0.0517180434478945
  0.1563946958179127  0.2215405330392849  0.0510709953993989
  0.0565945811987143  0.2766893704699923  0.0499769410426779
  0.2567219532480668  0.0562108162780755  0.0530315804447973
  0.3570761378310442  0.1120882177809276  0.0548624253483604
  0.3567713746327272  0.2237845945530146  0.0549185973023091
  0.2559912617445863  0.2772980809677110  0.0522940196747911
  0.4570975341668362  0.0566113834952320  0.0567506487052499
  0.5569559961252244  0.1135271638432184  0.0582788124114476
  0.5571389326723805  0.2274144357898058  0.0590457189077711
  0.4552733220911168  0.2833848792518110  0.0580141822561262
  0.6556865333961921  0.0527073079649082  0.0578676333507646
  0.7553744901303144  0.1097356607752392  0.0557479876526484
  0.7569470397457357  0.2220626777485028  0.0551016648699350
  0.6592524342298326  0.2830136185565874  0.0579773747137304
  0.8552733980709281  0.0537341547524523  0.0538811575620890
  0.9558062905841603  0.1094175061183568  0.0520987971589783
  0.9569386667242548  0.2205794637633602  0.0512062890230065
  0.8575635229171459  0.2763441056627826  0.0522760996411902
  0.0572878942631116  0.3879859393651710  0.0487113266543261
  0.1560354395628290  0.4439622384435891  0.0489983299173328
  0.1565517683037861  0.5551033749563840  0.0487856081993392
  0.0571302045056423  0.6106288762929247  0.0481677727137970
  0.2552770203403499  0.3880968548307605  0.0512956698682931
  0.3541175834657501  0.4426947802204713  0.0542700804418920
  0.3566578909264118  0.5557882680092641  0.0536285456290446
  0.2561004455853849  0.6106838504941561  0.0506514651741662
  0.7611026868603846  0.4435171346516095  0.0537876689539573
  0.8596140082413178  0.3874806964266380  0.0510240293353579
  0.9581250377036279  0.4438545131742653  0.0486878012732597
  0.9578491643394162  0.5548981904088016  0.0483459850231051
  0.8573226935736393  0.6097786711488413  0.0504299791432440
  0.0569209483179706  0.7217742332958881  0.0490463023633357
  0.1556463898187875  0.7776192218101622  0.0500556030719326
  0.1560980563286724  0.8889171251460095  0.0511542040939813
  0.0562135347933664  0.9441126019574019  0.0512899926632522
  0.2549617128803504  0.7217673138667272  0.0510412982669907
  0.3532380166770682  0.7781235385722810  0.0537427733733379
  0.3551951515926134  0.8894632330159387  0.0542831766127825
  0.2557020733140804  0.9450536015574250  0.0527256866834842
  0.4520638573947982  0.7223558726596992  0.0572230270915193
  0.5530929985178977  0.8841502456346847  0.0588643259534671
  0.4554527630343551  0.9444965150722416  0.0565267864933593
  0.7569214050162025  0.8821206687621196  0.0566595673159546
  0.6554827974658921  0.9388190893600632  0.0585476858565238
  0.8585664217084323  0.7229428521200241  0.0521332998506781
  0.9574932617449594  0.7775881462176035  0.0505713995682756
  0.9565326528884392  0.8884052212088606  0.0518169855560187
  0.8555223124674317  0.9418068849183945  0.0539395164176793
  0.4567483626834059  0.6098231684295138  0.0573748312608806
  0.7583448020463693  0.5550660180231481  0.0532007717734229
  0.4503921808847614  0.3911412543730179  0.0589830391650421
  0.6646650872699090  0.3898203490413351  0.0584542357832865
  0.5474225669033250  0.7778819457167143  0.0605146494076317
  0.7616395688578130  0.7738477058849845  0.0567232298104880
  0.6464430046499759  0.6603673321972983  0.0711773734947016
  0.5616188917963197  0.4980730323407868  0.0717586819846059
  0.5937958478179762  0.5382120161482997  0.1654189382426132
  0.6415251264438818  0.6339027931380240  0.1636897728379962
 
  0.00000000E+00  0.00000000E+00  0.00000000E+00
  0.00000000E+00  0.00000000E+00  0.00000000E+00
  0.00000000E+00  0.00000000E+00  0.00000000E+00
  0.00000000E+00  0.00000000E+00  0.00000000E+00
  0.00000000E+00  0.00000000E+00  0.00000000E+00
  0.00000000E+00  0.00000000E+00  0.00000000E+00
  0.00000000E+00  0.00000000E+00  0.00000000E+00
  0.00000000E+00  0.00000000E+00  0.00000000E+00
  0.00000000E+00  0.00000000E+00  0.00000000E+00
  0.00000000E+00  0.00000000E+00  0.00000000E+00
  0.00000000E+00  0.00000000E+00  0.00000000E+00
  0.00000000E+00  0.00000000E+00  0.00000000E+00
  0.00000000E+00  0.00000000E+00  0.00000000E+00
  0.00000000E+00  0.00000000E+00  0.00000000E+00
  0.00000000E+00  0.00000000E+00  0.00000000E+00
  0.00000000E+00  0.00000000E+00  0.00000000E+00
  0.00000000E+00  0.00000000E+00  0.00000000E+00
  0.00000000E+00  0.00000000E+00  0.00000000E+00
  0.00000000E+00  0.00000000E+00  0.00000000E+00
  0.00000000E+00  0.00000000E+00  0.00000000E+00
  0.00000000E+00  0.00000000E+00  0.00000000E+00
  0.00000000E+00  0.00000000E+00  0.00000000E+00
  0.00000000E+00  0.00000000E+00  0.00000000E+00
  0.00000000E+00  0.00000000E+00  0.00000000E+00
  0.00000000E+00  0.00000000E+00  0.00000000E+00
  0.00000000E+00  0.00000000E+00  0.00000000E+00
  0.00000000E+00  0.00000000E+00  0.00000000E+00
  0.00000000E+00  0.00000000E+00  0.00000000E+00
  0.00000000E+00  0.00000000E+00  0.00000000E+00
  0.00000000E+00  0.00000000E+00  0.00000000E+00
  0.00000000E+00  0.00000000E+00  0.00000000E+00
  0.00000000E+00  0.00000000E+00  0.00000000E+00
  0.00000000E+00  0.00000000E+00  0.00000000E+00
  0.00000000E+00  0.00000000E+00  0.00000000E+00
  0.00000000E+00  0.00000000E+00  0.00000000E+00
  0.00000000E+00  0.00000000E+00  0.00000000E+00
  0.00000000E+00  0.00000000E+00  0.00000000E+00
  0.00000000E+00  0.00000000E+00  0.00000000E+00
  0.00000000E+00  0.00000000E+00  0.00000000E+00
  0.00000000E+00  0.00000000E+00  0.00000000E+00
  0.00000000E+00  0.00000000E+00  0.00000000E+00
  0.00000000E+00  0.00000000E+00  0.00000000E+00
  0.00000000E+00  0.00000000E+00  0.00000000E+00
  0.00000000E+00  0.00000000E+00  0.00000000E+00
  0.00000000E+00  0.00000000E+00  0.00000000E+00
  0.00000000E+00  0.00000000E+00  0.00000000E+00
  0.00000000E+00  0.00000000E+00  0.00000000E+00
  0.00000000E+00  0.00000000E+00  0.00000000E+00
  0.00000000E+00  0.00000000E+00  0.00000000E+00
  0.00000000E+00  0.00000000E+00  0.00000000E+00
  0.00000000E+00  0.00000000E+00  0.00000000E+00
  0.00000000E+00  0.00000000E+00  0.00000000E+00
  0.00000000E+00  0.00000000E+00  0.00000000E+00
  0.00000000E+00  0.00000000E+00  0.00000000E+00
  0.00000000E+00  0.00000000E+00  0.00000000E+00
  0.00000000E+00  0.00000000E+00  0.00000000E+00
  0.00000000E+00  0.00000000E+00  0.00000000E+00
  0.00000000E+00  0.00000000E+00  0.00000000E+00
  0.00000000E+00  0.00000000E+00  0.00000000E+00
  0.00000000E+00  0.00000000E+00  0.00000000E+00
