CONTCAR\(5)                             
   1.00000000000000     
    12.3312997818000003    0.0000000000000000    0.0000000000000000
     0.0001127485000000   12.8291997905000006    0.0000000000000000
     0.0005937186000000    0.0011528207000000   19.9943999824000009
   C    N    Fe   Ni   O 
    54     2     1     1     2
Direct
  0.0570203452027466  0.0542999705914614  0.0495654190084843
  0.1570455059999163  0.1096978981900157  0.0494674476256773
  0.1568294405778753  0.2206251112058050  0.0483468283150379
  0.0573146992722227  0.2761966067254396  0.0472955927961600
  0.2576349540919377  0.0552226678651510  0.0510233107922381
  0.3576475525599775  0.1119306818846806  0.0533144302375181
  0.3572599747326260  0.2238817008615143  0.0526773281309780
  0.2561597533779534  0.2766576061889074  0.0492105674805742
  0.4573352697462855  0.0568271392646084  0.0566344614775346
  0.5566651573587659  0.1150541729533920  0.0588298450234722
  0.5568898737286785  0.2278142789613080  0.0590104453248489
  0.4556344906957475  0.2837849896785692  0.0557658405090793
  0.6562630288509420  0.0559240496338606  0.0591714016235744
  0.7567058764314543  0.1110398860014789  0.0558601004727125
  0.7579297559325558  0.2225065900256609  0.0552488802539246
  0.6598638991581561  0.2824450005426557  0.0594426085017535
  0.8563162022062193  0.0547185536992281  0.0531811550518373
  0.9569228786115980  0.1096408590590037  0.0504577548443575
  0.9576864629362345  0.2204552563212185  0.0492727147399932
  0.8582581775157218  0.2763309694210191  0.0512783686486732
  0.0574146384847159  0.3875106328290769  0.0456282002616952
  0.1557873589240062  0.4435418911160933  0.0454961199559687
  0.1557338896091353  0.5549491492711609  0.0451502947885573
  0.0563160921957283  0.6102332020702731  0.0452544325968347
  0.2548577463534062  0.3871640588404646  0.0477938921061095
  0.3534598145683913  0.4418388800812411  0.0506501594758497
  0.3551148071451758  0.5542875704650971  0.0514470017185612
  0.2555898693105493  0.6103417065095781  0.0473367792214057
  0.7607416271130205  0.4424899210730943  0.0552329618708411
  0.8595583227294329  0.3870481412490466  0.0499093694231020
  0.9579708287393968  0.4432537940482719  0.0462382645242982
  0.9567615430111702  0.5539346543811792  0.0460786695242240
  0.8555221071058492  0.6077579303138138  0.0492920867690574
  0.0568079560133839  0.7217636911205020  0.0464155374043714
  0.1563816170839570  0.7770106163332091  0.0474102149823572
  0.1569312021340309  0.8883639563774254  0.0487891644097748
  0.0567945740816641  0.9433532432941589  0.0492917034674445
  0.2564086129986796  0.7211817591610232  0.0485420723044120
  0.3564991336391798  0.7758681666978295  0.0528230359416860
  0.3573550049668561  0.8879733892632846  0.0536106238688843
  0.2573177434686140  0.9438371714462350  0.0507781891582632
  0.4559219225511568  0.7177477561640432  0.0591440905947159
  0.5560081262712838  0.8868140564246024  0.0626770773855801
  0.4567344424165850  0.9444581867240687  0.0575638254688823
  0.7559839407752978  0.8870221537552045  0.0584778681153514
  0.6562726389952581  0.9444340887323827  0.0613131876576692
  0.8568994362895853  0.7214788693780025  0.0512861827079467
  0.9567014291817321  0.7770828893281614  0.0487332309789265
  0.9563814093598104  0.8880674205654078  0.0503654832484634
  0.8560547387297691  0.9432259206039172  0.0536913579620284
  0.7561368690816227  0.5535861919506464  0.0546382427746056
  0.5531504822639677  0.7771609527513343  0.0670698287958297
  0.7582949182002111  0.7759923710276748  0.0590892789257438
  0.4549939102368392  0.6050781039301655  0.0593366077351574
  0.4505043831137464  0.3920252285753383  0.0545667075310681
  0.6652845860193991  0.3880303047629691  0.0621123257046598
  0.6569470370431263  0.6730088028459894  0.0900638460076540
  0.5612126300428374  0.4951046519851090  0.0722771406606625
  0.5894684484544596  0.5314468117020611  0.1672768879165201
  0.6148209413093512  0.6346777007758750  0.1761035501964289
 
  0.00000000E+00  0.00000000E+00  0.00000000E+00
  0.00000000E+00  0.00000000E+00  0.00000000E+00
  0.00000000E+00  0.00000000E+00  0.00000000E+00
  0.00000000E+00  0.00000000E+00  0.00000000E+00
  0.00000000E+00  0.00000000E+00  0.00000000E+00
  0.00000000E+00  0.00000000E+00  0.00000000E+00
  0.00000000E+00  0.00000000E+00  0.00000000E+00
  0.00000000E+00  0.00000000E+00  0.00000000E+00
  0.00000000E+00  0.00000000E+00  0.00000000E+00
  0.00000000E+00  0.00000000E+00  0.00000000E+00
  0.00000000E+00  0.00000000E+00  0.00000000E+00
  0.00000000E+00  0.00000000E+00  0.00000000E+00
  0.00000000E+00  0.00000000E+00  0.00000000E+00
  0.00000000E+00  0.00000000E+00  0.00000000E+00
  0.00000000E+00  0.00000000E+00  0.00000000E+00
  0.00000000E+00  0.00000000E+00  0.00000000E+00
  0.00000000E+00  0.00000000E+00  0.00000000E+00
  0.00000000E+00  0.00000000E+00  0.00000000E+00
  0.00000000E+00  0.00000000E+00  0.00000000E+00
  0.00000000E+00  0.00000000E+00  0.00000000E+00
  0.00000000E+00  0.00000000E+00  0.00000000E+00
  0.00000000E+00  0.00000000E+00  0.00000000E+00
  0.00000000E+00  0.00000000E+00  0.00000000E+00
  0.00000000E+00  0.00000000E+00  0.00000000E+00
  0.00000000E+00  0.00000000E+00  0.00000000E+00
  0.00000000E+00  0.00000000E+00  0.00000000E+00
  0.00000000E+00  0.00000000E+00  0.00000000E+00
  0.00000000E+00  0.00000000E+00  0.00000000E+00
  0.00000000E+00  0.00000000E+00  0.00000000E+00
  0.00000000E+00  0.00000000E+00  0.00000000E+00
  0.00000000E+00  0.00000000E+00  0.00000000E+00
  0.00000000E+00  0.00000000E+00  0.00000000E+00
  0.00000000E+00  0.00000000E+00  0.00000000E+00
  0.00000000E+00  0.00000000E+00  0.00000000E+00
  0.00000000E+00  0.00000000E+00  0.00000000E+00
  0.00000000E+00  0.00000000E+00  0.00000000E+00
  0.00000000E+00  0.00000000E+00  0.00000000E+00
  0.00000000E+00  0.00000000E+00  0.00000000E+00
  0.00000000E+00  0.00000000E+00  0.00000000E+00
  0.00000000E+00  0.00000000E+00  0.00000000E+00
  0.00000000E+00  0.00000000E+00  0.00000000E+00
  0.00000000E+00  0.00000000E+00  0.00000000E+00
  0.00000000E+00  0.00000000E+00  0.00000000E+00
  0.00000000E+00  0.00000000E+00  0.00000000E+00
  0.00000000E+00  0.00000000E+00  0.00000000E+00
  0.00000000E+00  0.00000000E+00  0.00000000E+00
  0.00000000E+00  0.00000000E+00  0.00000000E+00
  0.00000000E+00  0.00000000E+00  0.00000000E+00
  0.00000000E+00  0.00000000E+00  0.00000000E+00
  0.00000000E+00  0.00000000E+00  0.00000000E+00
  0.00000000E+00  0.00000000E+00  0.00000000E+00
  0.00000000E+00  0.00000000E+00  0.00000000E+00
  0.00000000E+00  0.00000000E+00  0.00000000E+00
  0.00000000E+00  0.00000000E+00  0.00000000E+00
  0.00000000E+00  0.00000000E+00  0.00000000E+00
  0.00000000E+00  0.00000000E+00  0.00000000E+00
  0.00000000E+00  0.00000000E+00  0.00000000E+00
  0.00000000E+00  0.00000000E+00  0.00000000E+00
  0.00000000E+00  0.00000000E+00  0.00000000E+00
  0.00000000E+00  0.00000000E+00  0.00000000E+00
