CONTCAR\(10)                            
   1.00000000000000     
    12.3312997818000003    0.0000000000000000    0.0000000000000000
     0.0001127485000000   12.8291997905000006    0.0000000000000000
     0.0005937186000000    0.0011528207000000   19.9943999824000009
   C    N    Fe   Ni   O    H 
    52     4     1     1     2     2
Direct
  0.0567816327364290  0.0509973711243855  0.0503917799433727
  0.1576262723346799  0.1066243918238369  0.0499136180140134
  0.1580135948195386  0.2177233795177189  0.0487826761509820
  0.0576157702338064  0.2724436395121234  0.0494538128659351
  0.2580397586510270  0.0519041786184642  0.0514748150293611
  0.3586836111731774  0.1078464937500316  0.0544365328523302
  0.3590472081042239  0.2200194386039372  0.0526925343219265
  0.2581888131151789  0.2740974594982583  0.0484568901828627
  0.4583529587031442  0.0517549559268425  0.0592644858778069
  0.5582157434840704  0.1089718787300683  0.0632743943219042
  0.5591630964343411  0.2223760071806647  0.0633040305670804
  0.4590359607193111  0.2786623041803634  0.0564941043765497
  0.6558884732687210  0.0485091400795653  0.0649632204140552
  0.7559374073232222  0.1057089915794702  0.0620886922991033
  0.7573692755140796  0.2184875718092222  0.0629389910724117
  0.6603800957384324  0.2792848671284950  0.0669537787304433
  0.8559800962584455  0.0502756158676351  0.0570631060273637
  0.9565465575117188  0.1058793213199112  0.0533613831767808
  0.9573819704139340  0.2170770041928810  0.0534349473199378
  0.8579811704309739  0.2727815201324444  0.0581698018652093
  0.0575206464998585  0.3833760460001928  0.0474902831539943
  0.1565800137173319  0.4398431129358937  0.0448550514445780
  0.1559252682724541  0.5510810101501693  0.0436058738149430
  0.0568439360949612  0.6064890682653794  0.0440970995705851
  0.2565092397148705  0.3854362881225105  0.0461643642910267
  0.3555221172566052  0.4427998893330005  0.0480789731979375
  0.3544476625257754  0.5552254054693100  0.0498565480291230
  0.2549270084703377  0.6082282818069406  0.0455904816760565
  0.7611642212650540  0.4420755192642879  0.0649624742926299
  0.8590609847375873  0.3840436857104594  0.0574250914322158
  0.9583354209338429  0.4387261321401263  0.0504990115556203
  0.9578122343523044  0.5494888353127296  0.0484831484925100
  0.8582413908485328  0.6022790736615545  0.0552147792204699
  0.0569165653715294  0.7177647347265396  0.0440568417310243
  0.1560883169833200  0.7743431792556479  0.0450154853261103
  0.1566060683378961  0.8852345695958577  0.0474065603987965
  0.0562784013297206  0.9399291071247412  0.0487505344174675
  0.2552105208524316  0.7188925290632298  0.0468412804157798
  0.3550179338952778  0.7729544900843499  0.0525506903363489
  0.3564329318043783  0.8843572905754025  0.0541683072579255
  0.2571217764285385  0.9404938277110464  0.0506472515549952
  0.4531514273591801  0.7147429580488284  0.0597954495061047
  0.5534198088308726  0.8774998547774450  0.0660220402257920
  0.4570081323315942  0.9387505964201709  0.0597863816554395
  0.7567614688123904  0.8804211812344563  0.0637106451903658
  0.6550543886501030  0.9350877798416903  0.0668732731609390
  0.8586623102994766  0.7150964443026450  0.0547321978974438
  0.9572570237945944  0.7721378603800881  0.0476416604815282
  0.9562160322814225  0.8836159424094812  0.0502487428331194
  0.8558781068544749  0.9384426369336726  0.0560904208672304
  0.4550862236620844  0.3898414334031667  0.0534354815770965
  0.7623523672646012  0.7698389890689092  0.0678985824012411
  0.4513323290393921  0.6062823108574193  0.0587178015900413
  0.6645759445836443  0.3879984636971024  0.0712372024907325
  0.7616035405235818  0.5503035211708691  0.0647425065191161
  0.5488024513836213  0.7681827074733729  0.0690837906398714
  0.6661565027503704  0.6768870654091721  0.1096936179964271
  0.5543770688645753  0.4868515813966638  0.0806531775169997
  0.6055698602228989  0.5610506176023251  0.1591733219121942
  0.6934642473074943  0.7398622251914628  0.1914281810084273
  0.7295573879958889  0.8071998625239651  0.1875715622243027
  0.5494011735266999  0.5843882519713873  0.1899502392860281
 
  0.00000000E+00  0.00000000E+00  0.00000000E+00
  0.00000000E+00  0.00000000E+00  0.00000000E+00
  0.00000000E+00  0.00000000E+00  0.00000000E+00
  0.00000000E+00  0.00000000E+00  0.00000000E+00
  0.00000000E+00  0.00000000E+00  0.00000000E+00
  0.00000000E+00  0.00000000E+00  0.00000000E+00
  0.00000000E+00  0.00000000E+00  0.00000000E+00
  0.00000000E+00  0.00000000E+00  0.00000000E+00
  0.00000000E+00  0.00000000E+00  0.00000000E+00
  0.00000000E+00  0.00000000E+00  0.00000000E+00
  0.00000000E+00  0.00000000E+00  0.00000000E+00
  0.00000000E+00  0.00000000E+00  0.00000000E+00
  0.00000000E+00  0.00000000E+00  0.00000000E+00
  0.00000000E+00  0.00000000E+00  0.00000000E+00
  0.00000000E+00  0.00000000E+00  0.00000000E+00
  0.00000000E+00  0.00000000E+00  0.00000000E+00
  0.00000000E+00  0.00000000E+00  0.00000000E+00
  0.00000000E+00  0.00000000E+00  0.00000000E+00
  0.00000000E+00  0.00000000E+00  0.00000000E+00
  0.00000000E+00  0.00000000E+00  0.00000000E+00
  0.00000000E+00  0.00000000E+00  0.00000000E+00
  0.00000000E+00  0.00000000E+00  0.00000000E+00
  0.00000000E+00  0.00000000E+00  0.00000000E+00
  0.00000000E+00  0.00000000E+00  0.00000000E+00
  0.00000000E+00  0.00000000E+00  0.00000000E+00
  0.00000000E+00  0.00000000E+00  0.00000000E+00
  0.00000000E+00  0.00000000E+00  0.00000000E+00
  0.00000000E+00  0.00000000E+00  0.00000000E+00
  0.00000000E+00  0.00000000E+00  0.00000000E+00
  0.00000000E+00  0.00000000E+00  0.00000000E+00
  0.00000000E+00  0.00000000E+00  0.00000000E+00
  0.00000000E+00  0.00000000E+00  0.00000000E+00
  0.00000000E+00  0.00000000E+00  0.00000000E+00
  0.00000000E+00  0.00000000E+00  0.00000000E+00
  0.00000000E+00  0.00000000E+00  0.00000000E+00
  0.00000000E+00  0.00000000E+00  0.00000000E+00
  0.00000000E+00  0.00000000E+00  0.00000000E+00
  0.00000000E+00  0.00000000E+00  0.00000000E+00
  0.00000000E+00  0.00000000E+00  0.00000000E+00
  0.00000000E+00  0.00000000E+00  0.00000000E+00
  0.00000000E+00  0.00000000E+00  0.00000000E+00
  0.00000000E+00  0.00000000E+00  0.00000000E+00
  0.00000000E+00  0.00000000E+00  0.00000000E+00
  0.00000000E+00  0.00000000E+00  0.00000000E+00
  0.00000000E+00  0.00000000E+00  0.00000000E+00
  0.00000000E+00  0.00000000E+00  0.00000000E+00
  0.00000000E+00  0.00000000E+00  0.00000000E+00
  0.00000000E+00  0.00000000E+00  0.00000000E+00
  0.00000000E+00  0.00000000E+00  0.00000000E+00
  0.00000000E+00  0.00000000E+00  0.00000000E+00
  0.00000000E+00  0.00000000E+00  0.00000000E+00
  0.00000000E+00  0.00000000E+00  0.00000000E+00
  0.00000000E+00  0.00000000E+00  0.00000000E+00
  0.00000000E+00  0.00000000E+00  0.00000000E+00
  0.00000000E+00  0.00000000E+00  0.00000000E+00
  0.00000000E+00  0.00000000E+00  0.00000000E+00
  0.00000000E+00  0.00000000E+00  0.00000000E+00
  0.00000000E+00  0.00000000E+00  0.00000000E+00
  0.00000000E+00  0.00000000E+00  0.00000000E+00
  0.00000000E+00  0.00000000E+00  0.00000000E+00
  0.00000000E+00  0.00000000E+00  0.00000000E+00
  0.00000000E+00  0.00000000E+00  0.00000000E+00
