1h\(2)                                  
   1.00000000000000     
    12.3312997818000003    0.0000000000000000    0.0000000000000000
     0.0001127485000000   12.8291997905000006    0.0000000000000000
     0.0005937186000000    0.0011528207000000   19.9943999824000009
   C    N    Fe   Ni
    53     3     1     1
Direct
  0.0559248453901369  0.0539926234994107  0.0548561363312765
  0.1560349161502660  0.1102622885274599  0.0548576851170445
  0.1567282677452346  0.2211351169673446  0.0544780343795417
  0.0570382525609541  0.2759321067594291  0.0540877520064852
  0.2564332498106225  0.0561916296471694  0.0556480656689439
  0.3566597814205627  0.1126054898520165  0.0565747827982423
  0.3570498093868762  0.2243901375962944  0.0563813563503581
  0.2563609471994138  0.2774634853915711  0.0550866598025401
  0.4564409975765698  0.0573924543057211  0.0575821348943047
  0.5563355706413542  0.1143128811899245  0.0580444440510049
  0.5570708723892372  0.2274577819776854  0.0579575031099156
  0.4560604253460490  0.2839483857634618  0.0573313227163043
  0.6549428345645075  0.0539251145551942  0.0579503391346342
  0.7554730274119907  0.1095499621569748  0.0571580420116533
  0.7574442027075078  0.2214990579187145  0.0569229223752732
  0.6596507401291458  0.2820297412688615  0.0577455085881298
  0.8547837851734541  0.0526322490953921  0.0562609496230926
  0.9555786808976363  0.1084823966692219  0.0552420046497617
  0.9572257828018406  0.2197494796888750  0.0548347420717896
  0.8580271952464185  0.2757652878095860  0.0556247087561824
  0.0581688010262621  0.3872315102926936  0.0536111875049589
  0.1568070681150392  0.4437586224702517  0.0536452226510973
  0.1572024365598971  0.5548534102594306  0.0536027580045699
  0.0573618912441657  0.6097695394537462  0.0534827715709814
  0.2562556255550038  0.3883778062530418  0.0546740657216286
  0.3553130618461770  0.4433554295760510  0.0558952117959395
  0.3582452120307655  0.5566026273151299  0.0559412655760769
  0.2569508234540286  0.6106619347117928  0.0546487761148129
  0.7617948401869611  0.4430958903778791  0.0567330211674420
  0.8602547555302333  0.3867379628800270  0.0552950778461736
  0.9590694682442951  0.4425935464281349  0.0539922079956202
  0.9582240093924842  0.5531989096207417  0.0539542945399415
  0.8574534736024677  0.6070763655015067  0.0553031906416388
  0.0566705347965669  0.7211621957753334  0.0538932437643885
  0.1554769976309202  0.7771449881873839  0.0543275453125291
  0.1554280787909901  0.8884572429598150  0.0547876602487189
  0.0552017639632427  0.9430037455009773  0.0548244572797099
  0.2552902859033894  0.7216076109800114  0.0549262682570832
  0.3536842342521959  0.7780412061478521  0.0563609474458829
  0.3546809364511888  0.8896738970252317  0.0566030644619468
  0.2551951125748036  0.9448679877383641  0.0556099138723100
  0.4531365129818513  0.7227542209961515  0.0575627486041413
  0.5524903216741950  0.8869974700813966  0.0582858351351267
  0.4544665361108457  0.9455687272524670  0.0576697752212475
  0.7535347633576451  0.8817752943693729  0.0573439202341027
  0.6543203981156781  0.9412767159695232  0.0580581963910752
  0.8579332629290627  0.7194603014838656  0.0556252303127819
  0.9564796898016655  0.7759702558778495  0.0547206135156461
  0.9551109773785962  0.8869677974291873  0.0551996513275891
  0.8538004600677331  0.9404119137012673  0.0563128603539259
  0.4594752459499020  0.6098659371997653  0.0574328359902258
  0.7564598597734185  0.5548496056801558  0.0568357592331340
  0.7564533717252591  0.7690889200254583  0.0571719539862334
  0.4519829626364055  0.3919335528316629  0.0572854362420034
  0.6656280346920149  0.3882215221275447  0.0579215356159572
  0.5481025478355512  0.7808217831132013  0.0585510847541475
  0.6377792514957243  0.6659430136363259  0.0582301043305869
  0.5660622517736004  0.4954131061290752  0.0581552075421549
 
  0.00000000E+00  0.00000000E+00  0.00000000E+00
  0.00000000E+00  0.00000000E+00  0.00000000E+00
  0.00000000E+00  0.00000000E+00  0.00000000E+00
  0.00000000E+00  0.00000000E+00  0.00000000E+00
  0.00000000E+00  0.00000000E+00  0.00000000E+00
  0.00000000E+00  0.00000000E+00  0.00000000E+00
  0.00000000E+00  0.00000000E+00  0.00000000E+00
  0.00000000E+00  0.00000000E+00  0.00000000E+00
  0.00000000E+00  0.00000000E+00  0.00000000E+00
  0.00000000E+00  0.00000000E+00  0.00000000E+00
  0.00000000E+00  0.00000000E+00  0.00000000E+00
  0.00000000E+00  0.00000000E+00  0.00000000E+00
  0.00000000E+00  0.00000000E+00  0.00000000E+00
  0.00000000E+00  0.00000000E+00  0.00000000E+00
  0.00000000E+00  0.00000000E+00  0.00000000E+00
  0.00000000E+00  0.00000000E+00  0.00000000E+00
  0.00000000E+00  0.00000000E+00  0.00000000E+00
  0.00000000E+00  0.00000000E+00  0.00000000E+00
  0.00000000E+00  0.00000000E+00  0.00000000E+00
  0.00000000E+00  0.00000000E+00  0.00000000E+00
  0.00000000E+00  0.00000000E+00  0.00000000E+00
  0.00000000E+00  0.00000000E+00  0.00000000E+00
  0.00000000E+00  0.00000000E+00  0.00000000E+00
  0.00000000E+00  0.00000000E+00  0.00000000E+00
  0.00000000E+00  0.00000000E+00  0.00000000E+00
  0.00000000E+00  0.00000000E+00  0.00000000E+00
  0.00000000E+00  0.00000000E+00  0.00000000E+00
  0.00000000E+00  0.00000000E+00  0.00000000E+00
  0.00000000E+00  0.00000000E+00  0.00000000E+00
  0.00000000E+00  0.00000000E+00  0.00000000E+00
  0.00000000E+00  0.00000000E+00  0.00000000E+00
  0.00000000E+00  0.00000000E+00  0.00000000E+00
  0.00000000E+00  0.00000000E+00  0.00000000E+00
  0.00000000E+00  0.00000000E+00  0.00000000E+00
  0.00000000E+00  0.00000000E+00  0.00000000E+00
  0.00000000E+00  0.00000000E+00  0.00000000E+00
  0.00000000E+00  0.00000000E+00  0.00000000E+00
  0.00000000E+00  0.00000000E+00  0.00000000E+00
  0.00000000E+00  0.00000000E+00  0.00000000E+00
  0.00000000E+00  0.00000000E+00  0.00000000E+00
  0.00000000E+00  0.00000000E+00  0.00000000E+00
  0.00000000E+00  0.00000000E+00  0.00000000E+00
  0.00000000E+00  0.00000000E+00  0.00000000E+00
  0.00000000E+00  0.00000000E+00  0.00000000E+00
  0.00000000E+00  0.00000000E+00  0.00000000E+00
  0.00000000E+00  0.00000000E+00  0.00000000E+00
  0.00000000E+00  0.00000000E+00  0.00000000E+00
  0.00000000E+00  0.00000000E+00  0.00000000E+00
  0.00000000E+00  0.00000000E+00  0.00000000E+00
  0.00000000E+00  0.00000000E+00  0.00000000E+00
  0.00000000E+00  0.00000000E+00  0.00000000E+00
  0.00000000E+00  0.00000000E+00  0.00000000E+00
  0.00000000E+00  0.00000000E+00  0.00000000E+00
  0.00000000E+00  0.00000000E+00  0.00000000E+00
  0.00000000E+00  0.00000000E+00  0.00000000E+00
  0.00000000E+00  0.00000000E+00  0.00000000E+00
  0.00000000E+00  0.00000000E+00  0.00000000E+00
  0.00000000E+00  0.00000000E+00  0.00000000E+00
