CONTCAR\(2)                             
   1.00000000000000     
    12.3312997818000003    0.0000000000000000    0.0000000000000000
     0.0001127485000000   12.8291997905000006    0.0000000000000000
     0.0005937186000000    0.0011528207000000   19.9943999824000009
   C    N    Fe   Ni   O 
    52     4     1     1     1
Direct
  0.0553827861560989  0.0538503251621692  0.0519361992110875
  0.1558829522695026  0.1094717076216923  0.0530992505492110
  0.1560575404377421  0.2201961939154856  0.0516570901651932
  0.0562206707855031  0.2754548569232889  0.0490135158177252
  0.2566456485759171  0.0554687567646051  0.0558859504920856
  0.3569481547966945  0.1117316457126328  0.0595125229463547
  0.3567481034682375  0.2237713251302568  0.0589047774354809
  0.2555661204851195  0.2762869636457996  0.0536133535716780
  0.4571305519251823  0.0565349115333170  0.0631980508381718
  0.5565672830823755  0.1148169147354388  0.0648614423333444
  0.5574820288408509  0.2294902569255077  0.0655005329030915
  0.4550833198419008  0.2845062058968575  0.0634077568435620
  0.6546742329571937  0.0540056292243921  0.0633826791389981
  0.7545888119589845  0.1103037661450185  0.0591255323263199
  0.7560679926130083  0.2231884454549861  0.0583252989197060
  0.6596766393365660  0.2854106094944301  0.0637890438824640
  0.8543756938787416  0.0534354138464601  0.0553075599187633
  0.9549792399966678  0.1089000375646336  0.0526704981646979
  0.9560657360028642  0.2202844498346111  0.0511945576547746
  0.8567972583907298  0.2767782744697971  0.0528138958333118
  0.0571231216245921  0.3864197135084719  0.0457554354389752
  0.1556304187584689  0.4430250198848646  0.0462704937290629
  0.1560776127923465  0.5542226001734467  0.0452427762895904
  0.0573082762673974  0.6099730460997966  0.0430250463545906
  0.2544841393465758  0.3870691034908781  0.0509941011035659
  0.3524123772759898  0.4422876219464437  0.0565714579023497
  0.3536846872820032  0.5547520581171750  0.0570012404289526
  0.2549503883178603  0.6101050978242540  0.0499364901176121
  0.7609103310009210  0.4460947356704905  0.0537405569658901
  0.8589127787047536  0.3878599431311837  0.0490470431853717
  0.9582579410946646  0.4421312633943791  0.0444322308009946
  0.9588719876682092  0.5528602011835765  0.0426193461647842
  0.8592208569020927  0.6060349503678156  0.0439466490950776
  0.0569050204694074  0.7211613539327605  0.0445242954158627
  0.1558594513963676  0.7771940791814429  0.0482259423004906
  0.1557654417375308  0.8883172477332011  0.0507780882799160
  0.0551037868646903  0.9428648363348934  0.0504775021094558
  0.2552173943080235  0.7213261512284052  0.0514044429306094
  0.3540816762979657  0.7767806765495778  0.0578312571282421
  0.3553377036615561  0.8884903246804099  0.0588171376663504
  0.2557707385538091  0.9440963401384246  0.0549932041933299
  0.4526289534828731  0.7199067138700829  0.0656059583874877
  0.5534374378834539  0.8835945745827327  0.0668923609749096
  0.4556314674708341  0.9436479795220553  0.0635569731185045
  0.7543845449432299  0.8825991331336489  0.0586657920066401
  0.6543094130750760  0.9400041077986470  0.0641647253711454
  0.8578933338125959  0.7186862302748761  0.0462792084970972
  0.9566871121603523  0.7755395933015418  0.0457739768811178
  0.9549773909427001  0.8868686480883370  0.0497229360622490
  0.8540347901909240  0.9411905023653812  0.0542612407733115
  0.4526794292256716  0.6071832122130058  0.0678299784380710
  0.7577778907112842  0.7705719420952637  0.0549905190106095
  0.4493508010597826  0.3923688244555588  0.0644260870140685
  0.6657404752366948  0.3943250377664361  0.0656945755425647
  0.7627369897368284  0.5540443443004893  0.0475617328432402
  0.5492104715491867  0.7752455157057074  0.0694834752984225
  0.6517898610958760  0.6664473145515903  0.0712705941654177
  0.5538463501148698  0.4980446702878670  0.0866405479449951
  0.6255462271826492  0.5894686401135316  0.1404450861230434
 
  0.00000000E+00  0.00000000E+00  0.00000000E+00
  0.00000000E+00  0.00000000E+00  0.00000000E+00
  0.00000000E+00  0.00000000E+00  0.00000000E+00
  0.00000000E+00  0.00000000E+00  0.00000000E+00
  0.00000000E+00  0.00000000E+00  0.00000000E+00
  0.00000000E+00  0.00000000E+00  0.00000000E+00
  0.00000000E+00  0.00000000E+00  0.00000000E+00
  0.00000000E+00  0.00000000E+00  0.00000000E+00
  0.00000000E+00  0.00000000E+00  0.00000000E+00
  0.00000000E+00  0.00000000E+00  0.00000000E+00
  0.00000000E+00  0.00000000E+00  0.00000000E+00
  0.00000000E+00  0.00000000E+00  0.00000000E+00
  0.00000000E+00  0.00000000E+00  0.00000000E+00
  0.00000000E+00  0.00000000E+00  0.00000000E+00
  0.00000000E+00  0.00000000E+00  0.00000000E+00
  0.00000000E+00  0.00000000E+00  0.00000000E+00
  0.00000000E+00  0.00000000E+00  0.00000000E+00
  0.00000000E+00  0.00000000E+00  0.00000000E+00
  0.00000000E+00  0.00000000E+00  0.00000000E+00
  0.00000000E+00  0.00000000E+00  0.00000000E+00
  0.00000000E+00  0.00000000E+00  0.00000000E+00
  0.00000000E+00  0.00000000E+00  0.00000000E+00
  0.00000000E+00  0.00000000E+00  0.00000000E+00
  0.00000000E+00  0.00000000E+00  0.00000000E+00
  0.00000000E+00  0.00000000E+00  0.00000000E+00
  0.00000000E+00  0.00000000E+00  0.00000000E+00
  0.00000000E+00  0.00000000E+00  0.00000000E+00
  0.00000000E+00  0.00000000E+00  0.00000000E+00
  0.00000000E+00  0.00000000E+00  0.00000000E+00
  0.00000000E+00  0.00000000E+00  0.00000000E+00
  0.00000000E+00  0.00000000E+00  0.00000000E+00
  0.00000000E+00  0.00000000E+00  0.00000000E+00
  0.00000000E+00  0.00000000E+00  0.00000000E+00
  0.00000000E+00  0.00000000E+00  0.00000000E+00
  0.00000000E+00  0.00000000E+00  0.00000000E+00
  0.00000000E+00  0.00000000E+00  0.00000000E+00
  0.00000000E+00  0.00000000E+00  0.00000000E+00
  0.00000000E+00  0.00000000E+00  0.00000000E+00
  0.00000000E+00  0.00000000E+00  0.00000000E+00
  0.00000000E+00  0.00000000E+00  0.00000000E+00
  0.00000000E+00  0.00000000E+00  0.00000000E+00
  0.00000000E+00  0.00000000E+00  0.00000000E+00
  0.00000000E+00  0.00000000E+00  0.00000000E+00
  0.00000000E+00  0.00000000E+00  0.00000000E+00
  0.00000000E+00  0.00000000E+00  0.00000000E+00
  0.00000000E+00  0.00000000E+00  0.00000000E+00
  0.00000000E+00  0.00000000E+00  0.00000000E+00
  0.00000000E+00  0.00000000E+00  0.00000000E+00
  0.00000000E+00  0.00000000E+00  0.00000000E+00
  0.00000000E+00  0.00000000E+00  0.00000000E+00
  0.00000000E+00  0.00000000E+00  0.00000000E+00
  0.00000000E+00  0.00000000E+00  0.00000000E+00
  0.00000000E+00  0.00000000E+00  0.00000000E+00
  0.00000000E+00  0.00000000E+00  0.00000000E+00
  0.00000000E+00  0.00000000E+00  0.00000000E+00
  0.00000000E+00  0.00000000E+00  0.00000000E+00
  0.00000000E+00  0.00000000E+00  0.00000000E+00
  0.00000000E+00  0.00000000E+00  0.00000000E+00
  0.00000000E+00  0.00000000E+00  0.00000000E+00
