CONTCAR                                 
   1.00000000000000     
    12.3312997818000003    0.0000000000000000    0.0000000000000000
     0.0001127485000000   12.8291997905000006    0.0000000000000000
     0.0005937186000000    0.0011528207000000   19.9943999824000009
   C    N    Fe   Ni   H 
    53     3     1     1     2
Direct
  0.0548559558864608  0.0538435037541557  0.0499945360436095
  0.1553817518552981  0.1088556223199538  0.0504833478278137
  0.1556091144349275  0.2196906168658237  0.0485286271855834
  0.0557348889685974  0.2748510572841094  0.0463020095356640
  0.2557753570373885  0.0543014441587691  0.0537281872343047
  0.3559996809602289  0.1103662318944231  0.0577098081628441
  0.3557921882908229  0.2223932228581447  0.0566775780112446
  0.2551906287921133  0.2756775858070731  0.0506160591188088
  0.4556893673737862  0.0548222289019924  0.0623536126751588
  0.5550924742748778  0.1132551829835205  0.0651109760413565
  0.5554949206749055  0.2263464325062381  0.0660583541877156
  0.4541736181555817  0.2819324450997435  0.0618656411245525
  0.6545211411110410  0.0534588259866946  0.0641879896049971
  0.7544241022765780  0.1104330633655905  0.0596556669197726
  0.7551228964839874  0.2232170608252079  0.0593908747951024
  0.6571377092719073  0.2843061910728572  0.0663605287637037
  0.8537938031671750  0.0533708080143871  0.0551014616684554
  0.9544133279943725  0.1088620079486383  0.0512812759535768
  0.9551796393782286  0.2201311686503246  0.0494867755793907
  0.8557409085593055  0.2768748579752235  0.0525689693108044
  0.0572368700550810  0.3858647441905470  0.0432257059244841
  0.1557853733382476  0.4424033941365774  0.0433808410714144
  0.1558422452618939  0.5535396121525721  0.0425121879438772
  0.0572214845658292  0.6096543586020282  0.0412686550023974
  0.2549395653477944  0.3867986396901174  0.0483279828491312
  0.3535367262181063  0.4415626818130003  0.0544289691836139
  0.3529756556664010  0.5551084621393166  0.0557143255558617
  0.2540936458272288  0.6096720073228671  0.0479042845616644
  0.7625366921994858  0.4479279893025009  0.0579777760504339
  0.8587496350027715  0.3881449338892482  0.0497563326026745
  0.9584253482697981  0.4418826904805415  0.0437222726322920
  0.9593915319855724  0.5525519407560028  0.0426221133068278
  0.8604641675911112  0.6070366057836113  0.0477738733212359
  0.0558786477103521  0.7210098352362474  0.0432943342102732
  0.1545400094483728  0.7768922337557488  0.0464196555350745
  0.1549969193747500  0.8879276332615288  0.0490383506273536
  0.0545856256547923  0.9428518492091537  0.0490285281553640
  0.2536818725355238  0.7207523853931507  0.0496885053914683
  0.3527333278986201  0.7751622255278757  0.0568621495888796
  0.3548623650551740  0.8869981631955963  0.0578065297179609
  0.2553170642294331  0.9429795689650260  0.0532734070129567
  0.4495475932056344  0.7159260687664282  0.0655865511687868
  0.5533795114278937  0.8828894025497717  0.0679876008427426
  0.4550869808862125  0.9422504790770426  0.0631418812882974
  0.7539375595626088  0.8826096927430613  0.0598113033067375
  0.6543430340145879  0.9405891740722170  0.0651663498612950
  0.8573119920177248  0.7194604680655089  0.0491973137665093
  0.9557355100148293  0.7759808549841654  0.0461565829408486
  0.9545209819788337  0.8870715858990387  0.0494363810027120
  0.8533359074995127  0.9409673896523492  0.0546100041646943
  0.6629580823456958  0.3956850514804983  0.0705902183246901
  0.5503943514124620  0.7714960205007235  0.0719480880550134
  0.7558072484119324  0.7693674258836118  0.0579841134129325
  0.4499829959856976  0.3903238175908878  0.0616810494454445
  0.4474097054490864  0.6070034558423830  0.0666919553508170
  0.7659789895699211  0.5560683452399500  0.0554038604561749
  0.6491514714223768  0.6638530193884750  0.0742257585945462
  0.5545626262808697  0.4942316286575419  0.0803376728074581
  0.6641682320779656  0.6905010491738737  0.1451159573016645
  0.6213388732522378  0.5663936003563074  0.1284182939189369
 
  0.00000000E+00  0.00000000E+00  0.00000000E+00
  0.00000000E+00  0.00000000E+00  0.00000000E+00
  0.00000000E+00  0.00000000E+00  0.00000000E+00
  0.00000000E+00  0.00000000E+00  0.00000000E+00
  0.00000000E+00  0.00000000E+00  0.00000000E+00
  0.00000000E+00  0.00000000E+00  0.00000000E+00
  0.00000000E+00  0.00000000E+00  0.00000000E+00
  0.00000000E+00  0.00000000E+00  0.00000000E+00
  0.00000000E+00  0.00000000E+00  0.00000000E+00
  0.00000000E+00  0.00000000E+00  0.00000000E+00
  0.00000000E+00  0.00000000E+00  0.00000000E+00
  0.00000000E+00  0.00000000E+00  0.00000000E+00
  0.00000000E+00  0.00000000E+00  0.00000000E+00
  0.00000000E+00  0.00000000E+00  0.00000000E+00
  0.00000000E+00  0.00000000E+00  0.00000000E+00
  0.00000000E+00  0.00000000E+00  0.00000000E+00
  0.00000000E+00  0.00000000E+00  0.00000000E+00
  0.00000000E+00  0.00000000E+00  0.00000000E+00
  0.00000000E+00  0.00000000E+00  0.00000000E+00
  0.00000000E+00  0.00000000E+00  0.00000000E+00
  0.00000000E+00  0.00000000E+00  0.00000000E+00
  0.00000000E+00  0.00000000E+00  0.00000000E+00
  0.00000000E+00  0.00000000E+00  0.00000000E+00
  0.00000000E+00  0.00000000E+00  0.00000000E+00
  0.00000000E+00  0.00000000E+00  0.00000000E+00
  0.00000000E+00  0.00000000E+00  0.00000000E+00
  0.00000000E+00  0.00000000E+00  0.00000000E+00
  0.00000000E+00  0.00000000E+00  0.00000000E+00
  0.00000000E+00  0.00000000E+00  0.00000000E+00
  0.00000000E+00  0.00000000E+00  0.00000000E+00
  0.00000000E+00  0.00000000E+00  0.00000000E+00
  0.00000000E+00  0.00000000E+00  0.00000000E+00
  0.00000000E+00  0.00000000E+00  0.00000000E+00
  0.00000000E+00  0.00000000E+00  0.00000000E+00
  0.00000000E+00  0.00000000E+00  0.00000000E+00
  0.00000000E+00  0.00000000E+00  0.00000000E+00
  0.00000000E+00  0.00000000E+00  0.00000000E+00
  0.00000000E+00  0.00000000E+00  0.00000000E+00
  0.00000000E+00  0.00000000E+00  0.00000000E+00
  0.00000000E+00  0.00000000E+00  0.00000000E+00
  0.00000000E+00  0.00000000E+00  0.00000000E+00
  0.00000000E+00  0.00000000E+00  0.00000000E+00
  0.00000000E+00  0.00000000E+00  0.00000000E+00
  0.00000000E+00  0.00000000E+00  0.00000000E+00
  0.00000000E+00  0.00000000E+00  0.00000000E+00
  0.00000000E+00  0.00000000E+00  0.00000000E+00
  0.00000000E+00  0.00000000E+00  0.00000000E+00
  0.00000000E+00  0.00000000E+00  0.00000000E+00
  0.00000000E+00  0.00000000E+00  0.00000000E+00
  0.00000000E+00  0.00000000E+00  0.00000000E+00
  0.00000000E+00  0.00000000E+00  0.00000000E+00
  0.00000000E+00  0.00000000E+00  0.00000000E+00
  0.00000000E+00  0.00000000E+00  0.00000000E+00
  0.00000000E+00  0.00000000E+00  0.00000000E+00
  0.00000000E+00  0.00000000E+00  0.00000000E+00
  0.00000000E+00  0.00000000E+00  0.00000000E+00
  0.00000000E+00  0.00000000E+00  0.00000000E+00
  0.00000000E+00  0.00000000E+00  0.00000000E+00
  0.00000000E+00  0.00000000E+00  0.00000000E+00
  0.00000000E+00  0.00000000E+00  0.00000000E+00
