CONTCAR\(4)                             
   1.00000000000000     
    12.3312997818000003    0.0000000000000000    0.0000000000000000
     0.0001127485000000   12.8291997905000006    0.0000000000000000
     0.0005937186000000    0.0011528207000000   19.9943999824000009
   C    N    Fe   Ni   O    H 
    54     2     1     1     2     2
Direct
  0.0544883728953353  0.0527010330224796  0.0453108428641203
  0.1547337927567176  0.1076937785083582  0.0450746247604856
  0.1544721550271689  0.2186285879750804  0.0442578584802371
  0.0548160590014922  0.2744380891581667  0.0440276989697623
  0.2552744692844207  0.0528380772114911  0.0468825735317584
  0.3552190637428449  0.1090931327807285  0.0493317269682460
  0.3547100260839714  0.2206859802291657  0.0489789699292264
  0.2541129550630803  0.2743298810208516  0.0454902548427745
  0.4550676265104754  0.0541688800749040  0.0528040277425893
  0.5543718112806225  0.1120887682835432  0.0555172585737883
  0.5544149272502040  0.2241415427219624  0.0572450255217209
  0.4532299845645382  0.2792745336388053  0.0538002765614172
  0.6544485808218862  0.0540299084505338  0.0553466955098151
  0.7543286094380727  0.1101213438719055  0.0523746215906695
  0.7545953347439792  0.2221984592774497  0.0529157573592367
  0.6555961687595729  0.2815476911797372  0.0590236575100603
  0.8538792239291277  0.0532044637251455  0.0492258670886517
  0.9542686388659476  0.1084903512989080  0.0464554404238953
  0.9544511250590220  0.2198193285611316  0.0460214549081902
  0.8547440090977650  0.2765650780872426  0.0492056021227916
  0.0559091950887054  0.3856881729770760  0.0435268169496125
  0.1548929933877830  0.4415947409689981  0.0434872466632267
  0.1558377977510318  0.5529186667799515  0.0439533318169435
  0.0563414194889349  0.6086090486554706  0.0440198689268031
  0.2540520225798719  0.3850587421916679  0.0450209926071878
  0.3534183270539451  0.4391693802059149  0.0494737884653076
  0.3562059646146924  0.5520958589619952  0.0522929235017540
  0.2557836765368923  0.6079135478464238  0.0470218061198949
  0.7589292990471428  0.4472114964179310  0.0574667881649983
  0.8566276284031805  0.3879528778823707  0.0494430051710886
  0.9566689566577519  0.4417405584134945  0.0455601582966919
  0.9573944138179722  0.5522900223961255  0.0458599533436802
  0.8571549967920068  0.6060817329594974  0.0506627676447623
  0.0556456346286453  0.7198319283901167  0.0446838575199870
  0.1552074733488323  0.7750144249043819  0.0455570009878532
  0.1550509788688414  0.8862967561351179  0.0457792562491601
  0.0546026521405177  0.9415053235747592  0.0455260781448859
  0.2554441817375326  0.7189713028735653  0.0478942726219520
  0.3551043821241866  0.7739719715825855  0.0520592160791918
  0.3554921269376451  0.8857792589628386  0.0507967240162895
  0.2553132796402605  0.9415964684505055  0.0473805741959804
  0.4548558177705466  0.7162576072993896  0.0594378727259544
  0.5545545676664320  0.8852225906251006  0.0578447376014500
  0.4549108755317972  0.9422522585756874  0.0536764156944389
  0.7539551277604549  0.8843846238392801  0.0543314366246174
  0.6546305214305872  0.9424294686177666  0.0566376900257721
  0.8554320769770556  0.7188798756721267  0.0499340176696260
  0.9551066160025682  0.7748268461571260  0.0463514818702252
  0.9544007523627120  0.8860442280576822  0.0468538808635738
  0.8538695546809263  0.9411911364550487  0.0496837448244338
  0.6608590804432277  0.3912214644016652  0.0662266269998773
  0.5526354450246331  0.7757594673726453  0.0624688664916408
  0.7556879576001612  0.7728773890189469  0.0559713216742880
  0.4554581992885017  0.6038171470839105  0.0630525031122243
  0.4492994877849047  0.3869643707512271  0.0548169091709987
  0.7617282372541689  0.5552764727953855  0.0580048621153852
  0.6532862678101446  0.6729574027466536  0.0886160428194297
  0.5486586750655923  0.4790382131365183  0.0949426530418943
  0.5901579936987379  0.5109505187606671  0.1773945990030078
  0.6836933034856697  0.6924632003935605  0.1791952174374698
  0.7122515451357785  0.7593424578965560  0.1937209413679076
  0.6226776544027665  0.5777419567346712  0.1922515211190862
 
  0.00000000E+00  0.00000000E+00  0.00000000E+00
  0.00000000E+00  0.00000000E+00  0.00000000E+00
  0.00000000E+00  0.00000000E+00  0.00000000E+00
  0.00000000E+00  0.00000000E+00  0.00000000E+00
  0.00000000E+00  0.00000000E+00  0.00000000E+00
  0.00000000E+00  0.00000000E+00  0.00000000E+00
  0.00000000E+00  0.00000000E+00  0.00000000E+00
  0.00000000E+00  0.00000000E+00  0.00000000E+00
  0.00000000E+00  0.00000000E+00  0.00000000E+00
  0.00000000E+00  0.00000000E+00  0.00000000E+00
  0.00000000E+00  0.00000000E+00  0.00000000E+00
  0.00000000E+00  0.00000000E+00  0.00000000E+00
  0.00000000E+00  0.00000000E+00  0.00000000E+00
  0.00000000E+00  0.00000000E+00  0.00000000E+00
  0.00000000E+00  0.00000000E+00  0.00000000E+00
  0.00000000E+00  0.00000000E+00  0.00000000E+00
  0.00000000E+00  0.00000000E+00  0.00000000E+00
  0.00000000E+00  0.00000000E+00  0.00000000E+00
  0.00000000E+00  0.00000000E+00  0.00000000E+00
  0.00000000E+00  0.00000000E+00  0.00000000E+00
  0.00000000E+00  0.00000000E+00  0.00000000E+00
  0.00000000E+00  0.00000000E+00  0.00000000E+00
  0.00000000E+00  0.00000000E+00  0.00000000E+00
  0.00000000E+00  0.00000000E+00  0.00000000E+00
  0.00000000E+00  0.00000000E+00  0.00000000E+00
  0.00000000E+00  0.00000000E+00  0.00000000E+00
  0.00000000E+00  0.00000000E+00  0.00000000E+00
  0.00000000E+00  0.00000000E+00  0.00000000E+00
  0.00000000E+00  0.00000000E+00  0.00000000E+00
  0.00000000E+00  0.00000000E+00  0.00000000E+00
  0.00000000E+00  0.00000000E+00  0.00000000E+00
  0.00000000E+00  0.00000000E+00  0.00000000E+00
  0.00000000E+00  0.00000000E+00  0.00000000E+00
  0.00000000E+00  0.00000000E+00  0.00000000E+00
  0.00000000E+00  0.00000000E+00  0.00000000E+00
  0.00000000E+00  0.00000000E+00  0.00000000E+00
  0.00000000E+00  0.00000000E+00  0.00000000E+00
  0.00000000E+00  0.00000000E+00  0.00000000E+00
  0.00000000E+00  0.00000000E+00  0.00000000E+00
  0.00000000E+00  0.00000000E+00  0.00000000E+00
  0.00000000E+00  0.00000000E+00  0.00000000E+00
  0.00000000E+00  0.00000000E+00  0.00000000E+00
  0.00000000E+00  0.00000000E+00  0.00000000E+00
  0.00000000E+00  0.00000000E+00  0.00000000E+00
  0.00000000E+00  0.00000000E+00  0.00000000E+00
  0.00000000E+00  0.00000000E+00  0.00000000E+00
  0.00000000E+00  0.00000000E+00  0.00000000E+00
  0.00000000E+00  0.00000000E+00  0.00000000E+00
  0.00000000E+00  0.00000000E+00  0.00000000E+00
  0.00000000E+00  0.00000000E+00  0.00000000E+00
  0.00000000E+00  0.00000000E+00  0.00000000E+00
  0.00000000E+00  0.00000000E+00  0.00000000E+00
  0.00000000E+00  0.00000000E+00  0.00000000E+00
  0.00000000E+00  0.00000000E+00  0.00000000E+00
  0.00000000E+00  0.00000000E+00  0.00000000E+00
  0.00000000E+00  0.00000000E+00  0.00000000E+00
  0.00000000E+00  0.00000000E+00  0.00000000E+00
  0.00000000E+00  0.00000000E+00  0.00000000E+00
  0.00000000E+00  0.00000000E+00  0.00000000E+00
  0.00000000E+00  0.00000000E+00  0.00000000E+00
  0.00000000E+00  0.00000000E+00  0.00000000E+00
  0.00000000E+00  0.00000000E+00  0.00000000E+00
