35                                      
   1.00000000000000     
    12.3312997818000003    0.0000000000000000    0.0000000000000000
     0.0001127485000000   12.8291997905000006    0.0000000000000000
     0.0005937186000000    0.0011528207000000   19.9943999824000009
   C    N    Fe   Ni   O 
    54     2     1     1     1
Direct
  0.0551344164854415  0.0545130764636817  0.0530694894800451
  0.1554672285951790  0.1101351566724035  0.0535149150448867
  0.1562273745984873  0.2210241232003421  0.0529486185975330
  0.0562672746581751  0.2758162227644695  0.0513021719219102
  0.2558045690293705  0.0554924761156264  0.0545638444072218
  0.3563040119225674  0.1110495327454844  0.0575262441491214
  0.3569608965261690  0.2226303316623815  0.0582085578158214
  0.2565547488714137  0.2769251107078321  0.0543813205321488
  0.4559978887979284  0.0552661581181717  0.0599514596878005
  0.5562234297169554  0.1113702157766795  0.0626599002757352
  0.5568888515550050  0.2232298359502462  0.0643969185730115
  0.4568435906877584  0.2800092945225741  0.0628826613416622
  0.6551538660053154  0.0522802126253993  0.0619466523995907
  0.7547854693234138  0.1095726995660946  0.0591414071219839
  0.7554462399826704  0.2223019994012572  0.0584222880017659
  0.6568669696990713  0.2817427514686648  0.0631574628137814
  0.8543257524053428  0.0531695037204681  0.0564182782531069
  0.9547329963660137  0.1093785151366252  0.0540608386862959
  0.9555412960632762  0.2208128075081498  0.0529464239956380
  0.8556842808684251  0.2771128951119210  0.0542728445965356
  0.0577117869455863  0.3868848878342895  0.0491656125237616
  0.1569633211288189  0.4430078047708576  0.0490213259708182
  0.1575564352522575  0.5546018214627330  0.0478398926187905
  0.0581965200586182  0.6097402178202455  0.0469583952565029
  0.2568746969102454  0.3879022489723352  0.0519925986220798
  0.3566034532782432  0.4437845578447128  0.0546917833345164
  0.3581098322870118  0.5569147382984819  0.0512770665952670
  0.2569899820052409  0.6111188307063806  0.0486704378220054
  0.7591001812832918  0.4485154527729028  0.0544151154936433
  0.8574888653656922  0.3887232964289402  0.0516983852008834
  0.9581396519598327  0.4423302079650810  0.0485952348253966
  0.9594374620859891  0.5528046759611033  0.0473943351140914
  0.8596620656343908  0.6066661072475263  0.0485342541444764
  0.0568222023757502  0.7212033255277546  0.0476151279081985
  0.1553242548834290  0.7774120791323271  0.0485006377766891
  0.1549874721507826  0.8886368285874159  0.0505701295373561
  0.0548046535656688  0.9433522364328881  0.0518725467210097
  0.2551201411831791  0.7219235857253021  0.0488714438454173
  0.3533975403666183  0.7782952062108490  0.0520388840817166
  0.3544019238111146  0.8891628134923467  0.0542403915112192
  0.2548342694746010  0.9446101121199302  0.0527667857961772
  0.4525535974089660  0.7227672014940880  0.0561691701509940
  0.5528797853931531  0.8843671295517284  0.0622631198462111
  0.4546413087891139  0.9435351082324880  0.0587595221012327
  0.7542738987051398  0.8820217775893647  0.0598165210100772
  0.6545895873788747  0.9397005998982869  0.0625296034243539
  0.8578732270084932  0.7192416147572126  0.0510813841396548
  0.9567119587991126  0.7758702649705799  0.0497741681262598
  0.9549780433579057  0.8869912764428384  0.0525112418949455
  0.8539351862155647  0.9408335900986081  0.0562251980521784
  0.4552411663568856  0.3909887095404573  0.0641494481139914
  0.4570044077408652  0.6116679957728669  0.0552136660661965
  0.6596954090658174  0.3932096030850114  0.0659033034590630
  0.7574255582918278  0.7698943139950404  0.0582831351627584
  0.7633391762947733  0.5564997479447329  0.0505898762195014
  0.5483448338639977  0.7775098349630816  0.0631923717457705
  0.6471816082968116  0.6660258545106992  0.0726438358355401
  0.5571956610331885  0.4920627215497179  0.0907102857668378
  0.6198676408351880  0.5920587370503307  0.1437014724888107
 
  0.00000000E+00  0.00000000E+00  0.00000000E+00
  0.00000000E+00  0.00000000E+00  0.00000000E+00
  0.00000000E+00  0.00000000E+00  0.00000000E+00
  0.00000000E+00  0.00000000E+00  0.00000000E+00
  0.00000000E+00  0.00000000E+00  0.00000000E+00
  0.00000000E+00  0.00000000E+00  0.00000000E+00
  0.00000000E+00  0.00000000E+00  0.00000000E+00
  0.00000000E+00  0.00000000E+00  0.00000000E+00
  0.00000000E+00  0.00000000E+00  0.00000000E+00
  0.00000000E+00  0.00000000E+00  0.00000000E+00
  0.00000000E+00  0.00000000E+00  0.00000000E+00
  0.00000000E+00  0.00000000E+00  0.00000000E+00
  0.00000000E+00  0.00000000E+00  0.00000000E+00
  0.00000000E+00  0.00000000E+00  0.00000000E+00
  0.00000000E+00  0.00000000E+00  0.00000000E+00
  0.00000000E+00  0.00000000E+00  0.00000000E+00
  0.00000000E+00  0.00000000E+00  0.00000000E+00
  0.00000000E+00  0.00000000E+00  0.00000000E+00
  0.00000000E+00  0.00000000E+00  0.00000000E+00
  0.00000000E+00  0.00000000E+00  0.00000000E+00
  0.00000000E+00  0.00000000E+00  0.00000000E+00
  0.00000000E+00  0.00000000E+00  0.00000000E+00
  0.00000000E+00  0.00000000E+00  0.00000000E+00
  0.00000000E+00  0.00000000E+00  0.00000000E+00
  0.00000000E+00  0.00000000E+00  0.00000000E+00
  0.00000000E+00  0.00000000E+00  0.00000000E+00
  0.00000000E+00  0.00000000E+00  0.00000000E+00
  0.00000000E+00  0.00000000E+00  0.00000000E+00
  0.00000000E+00  0.00000000E+00  0.00000000E+00
  0.00000000E+00  0.00000000E+00  0.00000000E+00
  0.00000000E+00  0.00000000E+00  0.00000000E+00
  0.00000000E+00  0.00000000E+00  0.00000000E+00
  0.00000000E+00  0.00000000E+00  0.00000000E+00
  0.00000000E+00  0.00000000E+00  0.00000000E+00
  0.00000000E+00  0.00000000E+00  0.00000000E+00
  0.00000000E+00  0.00000000E+00  0.00000000E+00
  0.00000000E+00  0.00000000E+00  0.00000000E+00
  0.00000000E+00  0.00000000E+00  0.00000000E+00
  0.00000000E+00  0.00000000E+00  0.00000000E+00
  0.00000000E+00  0.00000000E+00  0.00000000E+00
  0.00000000E+00  0.00000000E+00  0.00000000E+00
  0.00000000E+00  0.00000000E+00  0.00000000E+00
  0.00000000E+00  0.00000000E+00  0.00000000E+00
  0.00000000E+00  0.00000000E+00  0.00000000E+00
  0.00000000E+00  0.00000000E+00  0.00000000E+00
  0.00000000E+00  0.00000000E+00  0.00000000E+00
  0.00000000E+00  0.00000000E+00  0.00000000E+00
  0.00000000E+00  0.00000000E+00  0.00000000E+00
  0.00000000E+00  0.00000000E+00  0.00000000E+00
  0.00000000E+00  0.00000000E+00  0.00000000E+00
  0.00000000E+00  0.00000000E+00  0.00000000E+00
  0.00000000E+00  0.00000000E+00  0.00000000E+00
  0.00000000E+00  0.00000000E+00  0.00000000E+00
  0.00000000E+00  0.00000000E+00  0.00000000E+00
  0.00000000E+00  0.00000000E+00  0.00000000E+00
  0.00000000E+00  0.00000000E+00  0.00000000E+00
  0.00000000E+00  0.00000000E+00  0.00000000E+00
  0.00000000E+00  0.00000000E+00  0.00000000E+00
  0.00000000E+00  0.00000000E+00  0.00000000E+00
