CONTCAR                                 
   1.00000000000000     
    12.3312997818000003    0.0000000000000000    0.0000000000000000
     0.0001127485000000   12.8291997905000006    0.0000000000000000
     0.0005937186000000    0.0011528207000000   19.9943999824000009
   C    N    Fe   Ni   O 
    55     1     1     1     1
Direct
  0.0552479724691073  0.0548009956261142  0.0529572585336353
  0.1554719376993434  0.1104723904837780  0.0523577493218444
  0.1560174853003123  0.2213377689560083  0.0517787256813233
  0.0558611169762851  0.2762445538095047  0.0506216925560658
  0.2557163697977661  0.0555192740968126  0.0525470574734784
  0.3560688833003603  0.1109834237400008  0.0551301694479248
  0.3566416319527654  0.2225982771937534  0.0561655008543200
  0.2563017240785403  0.2770852105294666  0.0528736180393199
  0.4556842695214766  0.0547441946977814  0.0570357793600834
  0.5557735725234253  0.1105774951518970  0.0604619551694614
  0.5560662272408042  0.2219450704853504  0.0628162971491865
  0.4565783120724132  0.2797614075380235  0.0608159908612543
  0.6550196854934431  0.0520119722424970  0.0610910930529761
  0.7549283088502423  0.1091064163863671  0.0596662977228404
  0.7555906332299663  0.2211764390237594  0.0590008862911017
  0.6562547399485518  0.2791376654403276  0.0633767954529693
  0.8545575567412276  0.0528977725650380  0.0573941347032537
  0.9547396218489778  0.1094089735488530  0.0542859795666981
  0.9553719524559200  0.2208172201630773  0.0527438368490071
  0.8554892435160599  0.2769472334116919  0.0545381749836345
  0.0567508397139277  0.3873473022445917  0.0485419589231691
  0.1563674056217495  0.4431448095108325  0.0481892719530672
  0.1571256015407063  0.5546181465316153  0.0471486370978803
  0.0574726216438332  0.6098450417842285  0.0472293012156876
  0.2564239613778931  0.3880572499189273  0.0510259138937822
  0.3562529389993435  0.4439238151549398  0.0538305672534696
  0.3579587064554663  0.5570840747571771  0.0504226542836601
  0.2567085089303998  0.6110835858784475  0.0474468881657711
  0.7565815422341660  0.4468031450744293  0.0565257893347967
  0.8565542205135599  0.3885160214523766  0.0521172845015188
  0.9568413231889975  0.4428604880193482  0.0484313298577729
  0.9581401142646275  0.5535318914285301  0.0479818047497954
  0.8589138689884770  0.6091175560225344  0.0519104023192020
  0.0566818573608813  0.7213338584227283  0.0486014558968295
  0.1554026513995176  0.7774334424972480  0.0481188218440554
  0.1550601691864866  0.8885965154932089  0.0499948630939889
  0.0550496397207646  0.9438117561580682  0.0525299411355283
  0.2551995018320429  0.7217908647315551  0.0473274776018734
  0.3538307712711825  0.7779405573084803  0.0489105264974104
  0.3544675332540970  0.8888271319386247  0.0508094861404773
  0.2549272461318003  0.9445258116160112  0.0506255688326759
  0.4534904510879423  0.7223073034258392  0.0514408288263863
  0.5533293266736247  0.8845243491670061  0.0577306153546537
  0.4547375851392274  0.9433416807549054  0.0548433001377325
  0.7543535955398192  0.8820465852155633  0.0631404306585806
  0.6546165475185141  0.9398367626778870  0.0617196087229586
  0.8586617870122377  0.7207919220221530  0.0566820836001777
  0.9570498448186099  0.7769230481193585  0.0528581028064792
  0.9554063405687035  0.8876971772288466  0.0549398596119220
  0.8541789390896218  0.9409094952538002  0.0586281534705076
  0.4553631168991679  0.3908713523120372  0.0619521882085487
  0.4575825310599583  0.6113741406642086  0.0534095837080931
  0.6589757898274661  0.3891387413961974  0.0671097716166364
  0.7591661417182490  0.5582594003152522  0.0554122710353434
  0.7579772165528375  0.7703682890121978  0.0659522487774052
  0.5497701984176009  0.7778694297400767  0.0559241208140803
  0.6445940557520388  0.6662937499325143  0.0798511894816486
  0.5589144485787134  0.4914205557081299  0.0862042299055348
  0.6314397590987333  0.5862492260200087  0.1455724686005310
 
  0.00000000E+00  0.00000000E+00  0.00000000E+00
  0.00000000E+00  0.00000000E+00  0.00000000E+00
  0.00000000E+00  0.00000000E+00  0.00000000E+00
  0.00000000E+00  0.00000000E+00  0.00000000E+00
  0.00000000E+00  0.00000000E+00  0.00000000E+00
  0.00000000E+00  0.00000000E+00  0.00000000E+00
  0.00000000E+00  0.00000000E+00  0.00000000E+00
  0.00000000E+00  0.00000000E+00  0.00000000E+00
  0.00000000E+00  0.00000000E+00  0.00000000E+00
  0.00000000E+00  0.00000000E+00  0.00000000E+00
  0.00000000E+00  0.00000000E+00  0.00000000E+00
  0.00000000E+00  0.00000000E+00  0.00000000E+00
  0.00000000E+00  0.00000000E+00  0.00000000E+00
  0.00000000E+00  0.00000000E+00  0.00000000E+00
  0.00000000E+00  0.00000000E+00  0.00000000E+00
  0.00000000E+00  0.00000000E+00  0.00000000E+00
  0.00000000E+00  0.00000000E+00  0.00000000E+00
  0.00000000E+00  0.00000000E+00  0.00000000E+00
  0.00000000E+00  0.00000000E+00  0.00000000E+00
  0.00000000E+00  0.00000000E+00  0.00000000E+00
  0.00000000E+00  0.00000000E+00  0.00000000E+00
  0.00000000E+00  0.00000000E+00  0.00000000E+00
  0.00000000E+00  0.00000000E+00  0.00000000E+00
  0.00000000E+00  0.00000000E+00  0.00000000E+00
  0.00000000E+00  0.00000000E+00  0.00000000E+00
  0.00000000E+00  0.00000000E+00  0.00000000E+00
  0.00000000E+00  0.00000000E+00  0.00000000E+00
  0.00000000E+00  0.00000000E+00  0.00000000E+00
  0.00000000E+00  0.00000000E+00  0.00000000E+00
  0.00000000E+00  0.00000000E+00  0.00000000E+00
  0.00000000E+00  0.00000000E+00  0.00000000E+00
  0.00000000E+00  0.00000000E+00  0.00000000E+00
  0.00000000E+00  0.00000000E+00  0.00000000E+00
  0.00000000E+00  0.00000000E+00  0.00000000E+00
  0.00000000E+00  0.00000000E+00  0.00000000E+00
  0.00000000E+00  0.00000000E+00  0.00000000E+00
  0.00000000E+00  0.00000000E+00  0.00000000E+00
  0.00000000E+00  0.00000000E+00  0.00000000E+00
  0.00000000E+00  0.00000000E+00  0.00000000E+00
  0.00000000E+00  0.00000000E+00  0.00000000E+00
  0.00000000E+00  0.00000000E+00  0.00000000E+00
  0.00000000E+00  0.00000000E+00  0.00000000E+00
  0.00000000E+00  0.00000000E+00  0.00000000E+00
  0.00000000E+00  0.00000000E+00  0.00000000E+00
  0.00000000E+00  0.00000000E+00  0.00000000E+00
  0.00000000E+00  0.00000000E+00  0.00000000E+00
  0.00000000E+00  0.00000000E+00  0.00000000E+00
  0.00000000E+00  0.00000000E+00  0.00000000E+00
  0.00000000E+00  0.00000000E+00  0.00000000E+00
  0.00000000E+00  0.00000000E+00  0.00000000E+00
  0.00000000E+00  0.00000000E+00  0.00000000E+00
  0.00000000E+00  0.00000000E+00  0.00000000E+00
  0.00000000E+00  0.00000000E+00  0.00000000E+00
  0.00000000E+00  0.00000000E+00  0.00000000E+00
  0.00000000E+00  0.00000000E+00  0.00000000E+00
  0.00000000E+00  0.00000000E+00  0.00000000E+00
  0.00000000E+00  0.00000000E+00  0.00000000E+00
  0.00000000E+00  0.00000000E+00  0.00000000E+00
  0.00000000E+00  0.00000000E+00  0.00000000E+00
