CONTCAR\(5)                             
   1.00000000000000     
    12.3312997818000003    0.0000000000000000    0.0000000000000000
     0.0001127485000000   12.8291997905000006    0.0000000000000000
     0.0005937186000000    0.0011528207000000   19.9943999824000009
   C    N    Fe   Ni   O 
    54     2     1     1     1
Direct
  0.0557067761948002  0.0545787077794328  0.0510575127063655
  0.1560033798722391  0.1102944290994380  0.0512885760416264
  0.1565610363796873  0.2210701617394313  0.0498795010041633
  0.0564448161234285  0.2758004358575207  0.0484758303335279
  0.2564366314226396  0.0557837279703410  0.0535140797758851
  0.3568220350008771  0.1118826933794815  0.0567868616320266
  0.3573230275420076  0.2236625047528446  0.0559537297338904
  0.2564840328600769  0.2771500743224400  0.0510049691705631
  0.4564154828338593  0.0560802182366803  0.0608875947132352
  0.5566905611979838  0.1127988214929182  0.0638625761273875
  0.5573597512711341  0.2252945967651364  0.0649632987283865
  0.4570624334413386  0.2822843858227083  0.0608785281495615
  0.6551819876099580  0.0524759552622157  0.0631398858415127
  0.7550825479205064  0.1092157670264272  0.0591904459322911
  0.7567036311508298  0.2215335550702738  0.0589259752560916
  0.6593444556013931  0.2818788944104477  0.0650173691530408
  0.8547153989436757  0.0531346647802223  0.0552581574382519
  0.9552995343020085  0.1090967786977939  0.0523535038757133
  0.9564865028151220  0.2201357649185876  0.0512016921743292
  0.8568950049564992  0.2760260781463703  0.0537035589445489
  0.0566299441016584  0.3869017624944247  0.0460387184383108
  0.1553754427031744  0.4431982377713384  0.0457121365191526
  0.1558871457468658  0.5547567395775008  0.0450985729897127
  0.0569530525817348  0.6099143332177305  0.0444105554592193
  0.2549587479555535  0.3880013947059093  0.0488268851832913
  0.3530612447523542  0.4445460193339295  0.0527112512825895
  0.3541324271875953  0.5571955330631606  0.0531855563987686
  0.2548491813154817  0.6117097395848821  0.0482204198356711
  0.7586564254506966  0.4437602200147898  0.0569299827486951
  0.8577629112984615  0.3870473976482899  0.0511332124200351
  0.9572468582867780  0.4423384105574942  0.0462842005338537
  0.9581930127349274  0.5529833363165397  0.0451282247668110
  0.8588160996378263  0.6075719676540369  0.0473126385973729
  0.0568061609243106  0.7216047560144885  0.0457026897428358
  0.1553352840972960  0.7778648963047613  0.0476499370124722
  0.1553539071465305  0.8889461852401906  0.0497847748180880
  0.0552582928637078  0.9437407895549577  0.0501559276978723
  0.2547276675665511  0.7223730691127351  0.0495834193195339
  0.3535304694884488  0.7776779584107948  0.0553782408250811
  0.3547600322186281  0.8889689876649678  0.0564462363862737
  0.2553395275851928  0.9447529103021420  0.0528995401016569
  0.4521255541510976  0.7210301459522962  0.0631396760866781
  0.5523817593492069  0.8840085855510693  0.0659750087680465
  0.4547282480681171  0.9440354302994318  0.0612129922143566
  0.7545124798766100  0.8824407486759404  0.0590895055052819
  0.6545292710224366  0.9397883071229419  0.0639960812769303
  0.8589546579985596  0.7202517005504645  0.0498705783180360
  0.9572252879375853  0.7768324670419864  0.0480292419354795
  0.9553562750205692  0.8876990747108626  0.0505798536746002
  0.8542626960895046  0.9412569628252045  0.0545950959834905
  0.4528886355906348  0.3936579614698394  0.0601447709119845
  0.7591177190758388  0.5555111245134170  0.0525985393948856
  0.7586300447844304  0.7707750781160947  0.0570637214822918
  0.4538250543012336  0.6086633558306903  0.0629569496502404
  0.6635850892811275  0.3889033818033897  0.0683996596989590
  0.5475954291212537  0.7775464398380409  0.0701779571730161
  0.6505508288861035  0.6634330622868500  0.0761663496497164
  0.5570775810795032  0.4928956356912438  0.0841415539193937
  0.6257204622823562  0.5832476316444645  0.1446356885469042
 
  0.00000000E+00  0.00000000E+00  0.00000000E+00
  0.00000000E+00  0.00000000E+00  0.00000000E+00
  0.00000000E+00  0.00000000E+00  0.00000000E+00
  0.00000000E+00  0.00000000E+00  0.00000000E+00
  0.00000000E+00  0.00000000E+00  0.00000000E+00
  0.00000000E+00  0.00000000E+00  0.00000000E+00
  0.00000000E+00  0.00000000E+00  0.00000000E+00
  0.00000000E+00  0.00000000E+00  0.00000000E+00
  0.00000000E+00  0.00000000E+00  0.00000000E+00
  0.00000000E+00  0.00000000E+00  0.00000000E+00
  0.00000000E+00  0.00000000E+00  0.00000000E+00
  0.00000000E+00  0.00000000E+00  0.00000000E+00
  0.00000000E+00  0.00000000E+00  0.00000000E+00
  0.00000000E+00  0.00000000E+00  0.00000000E+00
  0.00000000E+00  0.00000000E+00  0.00000000E+00
  0.00000000E+00  0.00000000E+00  0.00000000E+00
  0.00000000E+00  0.00000000E+00  0.00000000E+00
  0.00000000E+00  0.00000000E+00  0.00000000E+00
  0.00000000E+00  0.00000000E+00  0.00000000E+00
  0.00000000E+00  0.00000000E+00  0.00000000E+00
  0.00000000E+00  0.00000000E+00  0.00000000E+00
  0.00000000E+00  0.00000000E+00  0.00000000E+00
  0.00000000E+00  0.00000000E+00  0.00000000E+00
  0.00000000E+00  0.00000000E+00  0.00000000E+00
  0.00000000E+00  0.00000000E+00  0.00000000E+00
  0.00000000E+00  0.00000000E+00  0.00000000E+00
  0.00000000E+00  0.00000000E+00  0.00000000E+00
  0.00000000E+00  0.00000000E+00  0.00000000E+00
  0.00000000E+00  0.00000000E+00  0.00000000E+00
  0.00000000E+00  0.00000000E+00  0.00000000E+00
  0.00000000E+00  0.00000000E+00  0.00000000E+00
  0.00000000E+00  0.00000000E+00  0.00000000E+00
  0.00000000E+00  0.00000000E+00  0.00000000E+00
  0.00000000E+00  0.00000000E+00  0.00000000E+00
  0.00000000E+00  0.00000000E+00  0.00000000E+00
  0.00000000E+00  0.00000000E+00  0.00000000E+00
  0.00000000E+00  0.00000000E+00  0.00000000E+00
  0.00000000E+00  0.00000000E+00  0.00000000E+00
  0.00000000E+00  0.00000000E+00  0.00000000E+00
  0.00000000E+00  0.00000000E+00  0.00000000E+00
  0.00000000E+00  0.00000000E+00  0.00000000E+00
  0.00000000E+00  0.00000000E+00  0.00000000E+00
  0.00000000E+00  0.00000000E+00  0.00000000E+00
  0.00000000E+00  0.00000000E+00  0.00000000E+00
  0.00000000E+00  0.00000000E+00  0.00000000E+00
  0.00000000E+00  0.00000000E+00  0.00000000E+00
  0.00000000E+00  0.00000000E+00  0.00000000E+00
  0.00000000E+00  0.00000000E+00  0.00000000E+00
  0.00000000E+00  0.00000000E+00  0.00000000E+00
  0.00000000E+00  0.00000000E+00  0.00000000E+00
  0.00000000E+00  0.00000000E+00  0.00000000E+00
  0.00000000E+00  0.00000000E+00  0.00000000E+00
  0.00000000E+00  0.00000000E+00  0.00000000E+00
  0.00000000E+00  0.00000000E+00  0.00000000E+00
  0.00000000E+00  0.00000000E+00  0.00000000E+00
  0.00000000E+00  0.00000000E+00  0.00000000E+00
  0.00000000E+00  0.00000000E+00  0.00000000E+00
  0.00000000E+00  0.00000000E+00  0.00000000E+00
  0.00000000E+00  0.00000000E+00  0.00000000E+00
