CONTCAR                                 
   1.00000000000000     
    12.3312997818000003    0.0000000000000000    0.0000000000000000
     0.0001127485000000   12.8291997905000006    0.0000000000000000
     0.0005937186000000    0.0011528207000000   19.9943999824000009
   C    N    Fe   Ni   H 
    53     3     1     1     2
Direct
  0.0550134007939699  0.0528176767130904  0.0515417472197157
  0.1554072277239917  0.1083143119495223  0.0521030257778219
  0.1555775224224316  0.2191107431000087  0.0506262493211375
  0.0560598700402402  0.2745580645911335  0.0488710312893728
  0.2561075320889009  0.0543344523342669  0.0546353122053392
  0.3562281349601972  0.1110583454872598  0.0574183007174069
  0.3559874764236637  0.2227979794979270  0.0565758432630757
  0.2549320418736121  0.2752846924851796  0.0520675900615878
  0.4563886977461627  0.0565041998774872  0.0609329046971572
  0.5561179800909637  0.1148611608422854  0.0623801691176844
  0.5567864053541550  0.2287485685195536  0.0626917509805183
  0.4542948795816106  0.2832116135956020  0.0602036248623379
  0.6549816262102028  0.0548591306604949  0.0613764861847472
  0.7549636748190302  0.1104703956269407  0.0576799282368911
  0.7561702431706960  0.2229423024442737  0.0572478975693636
  0.6594104868062581  0.2848839198609329  0.0620117214648137
  0.8541131440197225  0.0528563599754061  0.0545480068256424
  0.9548777016798458  0.1079361626056648  0.0521498541932739
  0.9560513881061639  0.2192420072430754  0.0508837425223564
  0.8570963951754618  0.2759645369562044  0.0526456094073247
  0.0569500063972117  0.3856944346961966  0.0468722967160106
  0.1552012538613820  0.4423926209901953  0.0471971819630584
  0.1554018296623066  0.5535629327653040  0.0469817181591710
  0.0565351955323736  0.6093441371751159  0.0460433278539337
  0.2538897205986058  0.3859503268867764  0.0502574249038144
  0.3520132636694562  0.4407406319788133  0.0549800114506800
  0.3532605987286401  0.5531649964939571  0.0566319400871377
  0.2546113304096239  0.6092547848172318  0.0510416188999289
  0.7621945168343303  0.4447878203758032  0.0547381207538824
  0.8594559228800963  0.3868418173570092  0.0501525525350426
  0.9584730071212522  0.4416346809224331  0.0466753546546639
  0.9582299677650914  0.5522082053348039  0.0462383860243856
  0.8581431567287392  0.6052742021220781  0.0481105847794289
  0.0555880591004071  0.7204444943453751  0.0472973913697028
  0.1549277305486248  0.7761897792164638  0.0498236340979146
  0.1552177287755823  0.8872465881933216  0.0513691943439505
  0.0545962303492237  0.9417431689201782  0.0509229699606796
  0.2546031137545608  0.7204549179301177  0.0523067946481807
  0.3539511076078521  0.7756060680055582  0.0575647361757320
  0.3553710104125503  0.8876243237976833  0.0581519851499371
  0.2556127454051902  0.9429402549983110  0.0545449804499348
  0.4523571547473568  0.7175880197953678  0.0654406000450893
  0.5541979071068796  0.8862204065103894  0.0660995201481272
  0.4553955794423781  0.9440606095443673  0.0621769109863631
  0.7536234043105408  0.8827026061675003  0.0578023277540085
  0.6547899526221780  0.9420619499322527  0.0625421091605987
  0.8556483758398868  0.7178762845985053  0.0495153821860971
  0.9550003725514392  0.7746265490459334  0.0484633262951653
  0.9543182085326354  0.8859800762384267  0.0507732278721179
  0.8533919003106620  0.9404413396589230  0.0541104551811880
  0.4528572935669289  0.6049154729830967  0.0667046817158167
  0.5514329322995961  0.7757663179776041  0.0700293081982029
  0.7539989481192386  0.7693481550665570  0.0555403759825054
  0.4488746721687972  0.3906434009390800  0.0603864876903047
  0.6659096630025894  0.3932039355415081  0.0645194771512030
  0.7623201565725256  0.5522940549939058  0.0511959260612781
  0.6440542592691296  0.6659628802845331  0.0690243803986446
  0.5565931727760772  0.4971817012078989  0.0773954734752495
  0.6643886494097642  0.6869646562415275  0.1403010483271127
  0.6119341431210144  0.5779039075835896  0.1264559864761652
 
  0.00000000E+00  0.00000000E+00  0.00000000E+00
  0.00000000E+00  0.00000000E+00  0.00000000E+00
  0.00000000E+00  0.00000000E+00  0.00000000E+00
  0.00000000E+00  0.00000000E+00  0.00000000E+00
  0.00000000E+00  0.00000000E+00  0.00000000E+00
  0.00000000E+00  0.00000000E+00  0.00000000E+00
  0.00000000E+00  0.00000000E+00  0.00000000E+00
  0.00000000E+00  0.00000000E+00  0.00000000E+00
  0.00000000E+00  0.00000000E+00  0.00000000E+00
  0.00000000E+00  0.00000000E+00  0.00000000E+00
  0.00000000E+00  0.00000000E+00  0.00000000E+00
  0.00000000E+00  0.00000000E+00  0.00000000E+00
  0.00000000E+00  0.00000000E+00  0.00000000E+00
  0.00000000E+00  0.00000000E+00  0.00000000E+00
  0.00000000E+00  0.00000000E+00  0.00000000E+00
  0.00000000E+00  0.00000000E+00  0.00000000E+00
  0.00000000E+00  0.00000000E+00  0.00000000E+00
  0.00000000E+00  0.00000000E+00  0.00000000E+00
  0.00000000E+00  0.00000000E+00  0.00000000E+00
  0.00000000E+00  0.00000000E+00  0.00000000E+00
  0.00000000E+00  0.00000000E+00  0.00000000E+00
  0.00000000E+00  0.00000000E+00  0.00000000E+00
  0.00000000E+00  0.00000000E+00  0.00000000E+00
  0.00000000E+00  0.00000000E+00  0.00000000E+00
  0.00000000E+00  0.00000000E+00  0.00000000E+00
  0.00000000E+00  0.00000000E+00  0.00000000E+00
  0.00000000E+00  0.00000000E+00  0.00000000E+00
  0.00000000E+00  0.00000000E+00  0.00000000E+00
  0.00000000E+00  0.00000000E+00  0.00000000E+00
  0.00000000E+00  0.00000000E+00  0.00000000E+00
  0.00000000E+00  0.00000000E+00  0.00000000E+00
  0.00000000E+00  0.00000000E+00  0.00000000E+00
  0.00000000E+00  0.00000000E+00  0.00000000E+00
  0.00000000E+00  0.00000000E+00  0.00000000E+00
  0.00000000E+00  0.00000000E+00  0.00000000E+00
  0.00000000E+00  0.00000000E+00  0.00000000E+00
  0.00000000E+00  0.00000000E+00  0.00000000E+00
  0.00000000E+00  0.00000000E+00  0.00000000E+00
  0.00000000E+00  0.00000000E+00  0.00000000E+00
  0.00000000E+00  0.00000000E+00  0.00000000E+00
  0.00000000E+00  0.00000000E+00  0.00000000E+00
  0.00000000E+00  0.00000000E+00  0.00000000E+00
  0.00000000E+00  0.00000000E+00  0.00000000E+00
  0.00000000E+00  0.00000000E+00  0.00000000E+00
  0.00000000E+00  0.00000000E+00  0.00000000E+00
  0.00000000E+00  0.00000000E+00  0.00000000E+00
  0.00000000E+00  0.00000000E+00  0.00000000E+00
  0.00000000E+00  0.00000000E+00  0.00000000E+00
  0.00000000E+00  0.00000000E+00  0.00000000E+00
  0.00000000E+00  0.00000000E+00  0.00000000E+00
  0.00000000E+00  0.00000000E+00  0.00000000E+00
  0.00000000E+00  0.00000000E+00  0.00000000E+00
  0.00000000E+00  0.00000000E+00  0.00000000E+00
  0.00000000E+00  0.00000000E+00  0.00000000E+00
  0.00000000E+00  0.00000000E+00  0.00000000E+00
  0.00000000E+00  0.00000000E+00  0.00000000E+00
  0.00000000E+00  0.00000000E+00  0.00000000E+00
  0.00000000E+00  0.00000000E+00  0.00000000E+00
  0.00000000E+00  0.00000000E+00  0.00000000E+00
  0.00000000E+00  0.00000000E+00  0.00000000E+00
