CONTCAR\(2)                             
   1.00000000000000     
    12.3312997818000003    0.0000000000000000    0.0000000000000000
     0.0001127485000000   12.8291997905000006    0.0000000000000000
     0.0005937186000000    0.0011528207000000   19.9943999824000009
   C    N    Fe   Ni   O 
    53     3     1     1     2
Direct
  0.0557781997615276  0.0549292852302944  0.0506138206668032
  0.1560111860383337  0.1108717934973678  0.0505898932459682
  0.1566429519199609  0.2218225704264975  0.0499624197258186
  0.0563875106527234  0.2764717850707564  0.0493939910013590
  0.2563661793015146  0.0562141303149411  0.0517065249314161
  0.3569964122926547  0.1121032902505160  0.0539903210752225
  0.3577083481460438  0.2239193841332124  0.0538305124859886
  0.2567977828036901  0.2777338612964779  0.0507298432001049
  0.4565958989702096  0.0558729706663453  0.0566635016620327
  0.5572888692867605  0.1114282229953132  0.0593156496927100
  0.5578704290159815  0.2241023603515757  0.0606274172080177
  0.4580828853794282  0.2818696545570377  0.0574103878357045
  0.6559522989847285  0.0510918429514145  0.0591387575784187
  0.7553892618390224  0.1084642060643821  0.0567861119428786
  0.7570310751929371  0.2208814619399520  0.0569796278906571
  0.6593049520608517  0.2804133333454595  0.0617762907840035
  0.8548768811698169  0.0527278710950621  0.0540857477046815
  0.9552886558950361  0.1091135271780000  0.0517886430371159
  0.9564561769742715  0.2204405665954928  0.0511466644740715
  0.8568650938881407  0.2761230405914384  0.0532963398748018
  0.0563817000655268  0.3878049576645928  0.0481526625098788
  0.1555082392028982  0.4436957123786706  0.0480592021909664
  0.1558091080753507  0.5551861625202104  0.0475991733325839
  0.0563681423276636  0.6102128917597065  0.0469061598737513
  0.2555288847937582  0.3887182440502359  0.0496949789290336
  0.3542079227454603  0.4452060430197434  0.0523293211138675
  0.3556192564817894  0.5577781301140167  0.0536461677570978
  0.2551595592569821  0.6118041436321026  0.0495317105888680
  0.7579385574221497  0.4440339565379364  0.0566582745975260
  0.8572761837232157  0.3876464666918777  0.0518847373172723
  0.9566241204960602  0.4434010085750695  0.0483833769465837
  0.9567539232611862  0.5543215473230547  0.0475344629326561
  0.8563812952007215  0.6086547879790026  0.0497569078120372
  0.0560258882180370  0.7214464245014555  0.0473857876970197
  0.1545210207921880  0.7778557229549232  0.0482975119255166
  0.1551844997298725  0.8890610362123780  0.0493684797558304
  0.0553331963391564  0.9440266673847807  0.0499523717742363
  0.2538668543128488  0.7224470519264927  0.0496446411997698
  0.3524736218029381  0.7781297498992610  0.0527770587191802
  0.3544068609760568  0.8891699740085123  0.0531357750060059
  0.2550336994852282  0.9450644378557448  0.0510696500060926
  0.4510646118234406  0.7218808228819563  0.0591792469953997
  0.5521961213480224  0.8838936456566473  0.0600309454739150
  0.4546811956788055  0.9440463610436826  0.0564934173836165
  0.7559482627893805  0.8806682451320215  0.0571707560154893
  0.6553102463952594  0.9377032710412615  0.0596792801299504
  0.8578399628683770  0.7216592818307390  0.0509203652987795
  0.9564190183887229  0.7769965440416119  0.0489306423625102
  0.9557883101203143  0.8878365848535249  0.0507234490466548
  0.8546842693884965  0.9405536769899311  0.0539418324853733
  0.4540644610798098  0.3933793735868098  0.0570840245102498
  0.4559812052994977  0.6098478451206515  0.0618251368812250
  0.7558240870418176  0.5565206673312519  0.0543045909315545
  0.6630042932358655  0.3870917180227949  0.0656188628547449
  0.5463889653096802  0.7779879366663958  0.0628661875477692
  0.7601494821425210  0.7714990461131550  0.0563062458964085
  0.6472761804660916  0.6674568745456887  0.0700134725197043
  0.5603213498789078  0.4894692949097713  0.0828096603365196
  0.6178761712821773  0.5452922025952364  0.1646688498238991
  0.6474182681801270  0.6478562770955960  0.1571821545026854
 
  0.00000000E+00  0.00000000E+00  0.00000000E+00
  0.00000000E+00  0.00000000E+00  0.00000000E+00
  0.00000000E+00  0.00000000E+00  0.00000000E+00
  0.00000000E+00  0.00000000E+00  0.00000000E+00
  0.00000000E+00  0.00000000E+00  0.00000000E+00
  0.00000000E+00  0.00000000E+00  0.00000000E+00
  0.00000000E+00  0.00000000E+00  0.00000000E+00
  0.00000000E+00  0.00000000E+00  0.00000000E+00
  0.00000000E+00  0.00000000E+00  0.00000000E+00
  0.00000000E+00  0.00000000E+00  0.00000000E+00
  0.00000000E+00  0.00000000E+00  0.00000000E+00
  0.00000000E+00  0.00000000E+00  0.00000000E+00
  0.00000000E+00  0.00000000E+00  0.00000000E+00
  0.00000000E+00  0.00000000E+00  0.00000000E+00
  0.00000000E+00  0.00000000E+00  0.00000000E+00
  0.00000000E+00  0.00000000E+00  0.00000000E+00
  0.00000000E+00  0.00000000E+00  0.00000000E+00
  0.00000000E+00  0.00000000E+00  0.00000000E+00
  0.00000000E+00  0.00000000E+00  0.00000000E+00
  0.00000000E+00  0.00000000E+00  0.00000000E+00
  0.00000000E+00  0.00000000E+00  0.00000000E+00
  0.00000000E+00  0.00000000E+00  0.00000000E+00
  0.00000000E+00  0.00000000E+00  0.00000000E+00
  0.00000000E+00  0.00000000E+00  0.00000000E+00
  0.00000000E+00  0.00000000E+00  0.00000000E+00
  0.00000000E+00  0.00000000E+00  0.00000000E+00
  0.00000000E+00  0.00000000E+00  0.00000000E+00
  0.00000000E+00  0.00000000E+00  0.00000000E+00
  0.00000000E+00  0.00000000E+00  0.00000000E+00
  0.00000000E+00  0.00000000E+00  0.00000000E+00
  0.00000000E+00  0.00000000E+00  0.00000000E+00
  0.00000000E+00  0.00000000E+00  0.00000000E+00
  0.00000000E+00  0.00000000E+00  0.00000000E+00
  0.00000000E+00  0.00000000E+00  0.00000000E+00
  0.00000000E+00  0.00000000E+00  0.00000000E+00
  0.00000000E+00  0.00000000E+00  0.00000000E+00
  0.00000000E+00  0.00000000E+00  0.00000000E+00
  0.00000000E+00  0.00000000E+00  0.00000000E+00
  0.00000000E+00  0.00000000E+00  0.00000000E+00
  0.00000000E+00  0.00000000E+00  0.00000000E+00
  0.00000000E+00  0.00000000E+00  0.00000000E+00
  0.00000000E+00  0.00000000E+00  0.00000000E+00
  0.00000000E+00  0.00000000E+00  0.00000000E+00
  0.00000000E+00  0.00000000E+00  0.00000000E+00
  0.00000000E+00  0.00000000E+00  0.00000000E+00
  0.00000000E+00  0.00000000E+00  0.00000000E+00
  0.00000000E+00  0.00000000E+00  0.00000000E+00
  0.00000000E+00  0.00000000E+00  0.00000000E+00
  0.00000000E+00  0.00000000E+00  0.00000000E+00
  0.00000000E+00  0.00000000E+00  0.00000000E+00
  0.00000000E+00  0.00000000E+00  0.00000000E+00
  0.00000000E+00  0.00000000E+00  0.00000000E+00
  0.00000000E+00  0.00000000E+00  0.00000000E+00
  0.00000000E+00  0.00000000E+00  0.00000000E+00
  0.00000000E+00  0.00000000E+00  0.00000000E+00
  0.00000000E+00  0.00000000E+00  0.00000000E+00
  0.00000000E+00  0.00000000E+00  0.00000000E+00
  0.00000000E+00  0.00000000E+00  0.00000000E+00
  0.00000000E+00  0.00000000E+00  0.00000000E+00
  0.00000000E+00  0.00000000E+00  0.00000000E+00
