an6                                     
   1.00000000000000     
    12.3312997818000003    0.0000000000000000    0.0000000000000000
     0.0001127485000000   12.8291997905000006    0.0000000000000000
     0.0005937186000000    0.0011528207000000   19.9943999824000009
   C    N    Fe   Ni
    52     4     1     1
Direct
  0.0556454445548099  0.0542250504171336  0.0557780256652840
  0.1562554949383462  0.1106114951823912  0.0558046011147616
  0.1574200053656879  0.2215790789349699  0.0557818994775595
  0.0572831211722081  0.2757163717656860  0.0557527414787887
  0.2566202751980602  0.0565167999840090  0.0558204917009516
  0.3572367227417937  0.1125868955186664  0.0557807267431809
  0.3583550858172641  0.2246193151143359  0.0557461992016745
  0.2576615991106819  0.2785458093101912  0.0557642046610394
  0.4570735811441923  0.0565863547786609  0.0557370304845478
  0.5575410627874786  0.1127747155963627  0.0556872017224464
  0.5592110634998515  0.2259640486129341  0.0556806183992245
  0.4588590309587315  0.2832197321861573  0.0556980211458330
  0.6551691072544221  0.0520559555334322  0.0556608301233540
  0.7551324959622491  0.1086405621586960  0.0556866322271558
  0.7569866922116718  0.2214049152865252  0.0556993614923851
  0.6598899009429431  0.2819521625754070  0.0556740913194797
  0.8546348598286750  0.0519558141620619  0.0556997320694768
  0.9552997065366805  0.1082611805280365  0.0557363388704033
  0.9569068811580956  0.2197582012479521  0.0557327797608148
  0.8577764713765021  0.2756273274716505  0.0557085470879088
  0.0582053955236707  0.3867249438248047  0.0557370588498155
  0.1569991328698648  0.4438527359386065  0.0557633314872739
  0.1565705095468594  0.5547715960993213  0.0557823248941948
  0.0572392306221533  0.6098208082882955  0.0557690505672623
  0.2568943496855630  0.3898590290159334  0.0557559645911423
  0.3561150587620729  0.4474005166838041  0.0557181727037362
  0.3558215954403662  0.5597940223350153  0.0557189348262482
  0.2555118036137022  0.6122030151495589  0.0557735574299405
  0.7621870662138270  0.4446992833176490  0.0556606443795287
  0.8599629458113490  0.3868745422004293  0.0556915185054729
  0.9593168615327750  0.4418366196245518  0.0557037959762373
  0.9585193533103377  0.5524124858140681  0.0557073518962215
  0.8584652626168120  0.6051368717991708  0.0556705394363413
  0.0561015822053846  0.7208357816840224  0.0557809561452865
  0.1545139151700772  0.7780028826613172  0.0558112199700901
  0.1549862723453105  0.8889397891187594  0.0558196165463306
  0.0545246964863308  0.9430640355664751  0.0557875793340805
  0.2535798437580354  0.7229661822798275  0.0557927146741155
  0.3521683667630280  0.7785213259241706  0.0557552720400374
  0.3543109871007767  0.8898301387562488  0.0557757557811473
  0.2551338116018398  0.9451328148213594  0.0558210967902626
  0.4500876648255704  0.7217089049382110  0.0556622814731805
  0.5518689074935524  0.8844264787478184  0.0556197662299710
  0.4550489886995059  0.9443296937475265  0.0557211847539169
  0.7532842441545321  0.8802127888842182  0.0556520599175793
  0.6537580534276717  0.9384997684347928  0.0556295976035067
  0.8576492800011258  0.7168617044697255  0.0556999521426396
  0.9560539388585783  0.7745303753169989  0.0557456978014842
  0.9547110234122432  0.8860770922302561  0.0557440065484253
  0.8532559973572226  0.9394784460977587  0.0556923785210000
  0.4549657569989282  0.3937870313580862  0.0556844611130282
  0.7560168165957212  0.7668862124163169  0.0556634530346918
  0.4535657803247720  0.6132639038274375  0.0556679126704779
  0.6651868369413730  0.3911731191461202  0.0556744299538777
  0.7602877817626867  0.5528172181346422  0.0556212336582358
  0.5465868750959139  0.7756364758188753  0.0555640439479711
  0.6427929915131383  0.6692376783652628  0.0555325107440109
  0.5641224619969984  0.4943318487972854  0.0556885103149326
 
  0.00000000E+00  0.00000000E+00  0.00000000E+00
  0.00000000E+00  0.00000000E+00  0.00000000E+00
  0.00000000E+00  0.00000000E+00  0.00000000E+00
  0.00000000E+00  0.00000000E+00  0.00000000E+00
  0.00000000E+00  0.00000000E+00  0.00000000E+00
  0.00000000E+00  0.00000000E+00  0.00000000E+00
  0.00000000E+00  0.00000000E+00  0.00000000E+00
  0.00000000E+00  0.00000000E+00  0.00000000E+00
  0.00000000E+00  0.00000000E+00  0.00000000E+00
  0.00000000E+00  0.00000000E+00  0.00000000E+00
  0.00000000E+00  0.00000000E+00  0.00000000E+00
  0.00000000E+00  0.00000000E+00  0.00000000E+00
  0.00000000E+00  0.00000000E+00  0.00000000E+00
  0.00000000E+00  0.00000000E+00  0.00000000E+00
  0.00000000E+00  0.00000000E+00  0.00000000E+00
  0.00000000E+00  0.00000000E+00  0.00000000E+00
  0.00000000E+00  0.00000000E+00  0.00000000E+00
  0.00000000E+00  0.00000000E+00  0.00000000E+00
  0.00000000E+00  0.00000000E+00  0.00000000E+00
  0.00000000E+00  0.00000000E+00  0.00000000E+00
  0.00000000E+00  0.00000000E+00  0.00000000E+00
  0.00000000E+00  0.00000000E+00  0.00000000E+00
  0.00000000E+00  0.00000000E+00  0.00000000E+00
  0.00000000E+00  0.00000000E+00  0.00000000E+00
  0.00000000E+00  0.00000000E+00  0.00000000E+00
  0.00000000E+00  0.00000000E+00  0.00000000E+00
  0.00000000E+00  0.00000000E+00  0.00000000E+00
  0.00000000E+00  0.00000000E+00  0.00000000E+00
  0.00000000E+00  0.00000000E+00  0.00000000E+00
  0.00000000E+00  0.00000000E+00  0.00000000E+00
  0.00000000E+00  0.00000000E+00  0.00000000E+00
  0.00000000E+00  0.00000000E+00  0.00000000E+00
  0.00000000E+00  0.00000000E+00  0.00000000E+00
  0.00000000E+00  0.00000000E+00  0.00000000E+00
  0.00000000E+00  0.00000000E+00  0.00000000E+00
  0.00000000E+00  0.00000000E+00  0.00000000E+00
  0.00000000E+00  0.00000000E+00  0.00000000E+00
  0.00000000E+00  0.00000000E+00  0.00000000E+00
  0.00000000E+00  0.00000000E+00  0.00000000E+00
  0.00000000E+00  0.00000000E+00  0.00000000E+00
  0.00000000E+00  0.00000000E+00  0.00000000E+00
  0.00000000E+00  0.00000000E+00  0.00000000E+00
  0.00000000E+00  0.00000000E+00  0.00000000E+00
  0.00000000E+00  0.00000000E+00  0.00000000E+00
  0.00000000E+00  0.00000000E+00  0.00000000E+00
  0.00000000E+00  0.00000000E+00  0.00000000E+00
  0.00000000E+00  0.00000000E+00  0.00000000E+00
  0.00000000E+00  0.00000000E+00  0.00000000E+00
  0.00000000E+00  0.00000000E+00  0.00000000E+00
  0.00000000E+00  0.00000000E+00  0.00000000E+00
  0.00000000E+00  0.00000000E+00  0.00000000E+00
  0.00000000E+00  0.00000000E+00  0.00000000E+00
  0.00000000E+00  0.00000000E+00  0.00000000E+00
  0.00000000E+00  0.00000000E+00  0.00000000E+00
  0.00000000E+00  0.00000000E+00  0.00000000E+00
  0.00000000E+00  0.00000000E+00  0.00000000E+00
  0.00000000E+00  0.00000000E+00  0.00000000E+00
  0.00000000E+00  0.00000000E+00  0.00000000E+00
