CONTCAR\(11)                            
   1.00000000000000     
    12.3312997818000003    0.0000000000000000    0.0000000000000000
     0.0001127485000000   12.8291997905000006    0.0000000000000000
     0.0005937186000000    0.0011528207000000   19.9943999824000009
   C    N    Fe   Ni   O    H 
    52     4     1     1     2     2
Direct
  0.0572108455273199  0.0500364356064526  0.0482434477628548
  0.1576866340323299  0.1057409023616587  0.0479797002813272
  0.1579755575240779  0.2166890616953340  0.0471329870321304
  0.0576395217246357  0.2716631545719881  0.0470513960326496
  0.2583810136004887  0.0511965756790256  0.0499372433580409
  0.3587968731634845  0.1075084809569881  0.0535916485769990
  0.3592293928284381  0.2196163033654864  0.0527261812571233
  0.2578638946838805  0.2727264667777071  0.0480685618051446
  0.4584476102159558  0.0514847272640312  0.0586441379667964
  0.5588525877321606  0.1081313297492408  0.0630747613259210
  0.5595611880373652  0.2215782798333313  0.0635623002535401
  0.4591082088814989  0.2786490680834142  0.0577280289604293
  0.6572586895239736  0.0473175922663804  0.0643317500982077
  0.7567173004418671  0.1046663556602936  0.0604358649831024
  0.7582541133126162  0.2173089411578044  0.0606390420336795
  0.6614201074166662  0.2781948392833953  0.0658367597021927
  0.8566840385608353  0.0493422693562976  0.0552571421917548
  0.9570655161906144  0.1048075899415917  0.0510384998317244
  0.9580169334033970  0.2159681925453699  0.0506790487139775
  0.8585874317535930  0.2715162180314641  0.0551768362125755
  0.0573357183242096  0.3829477606631748  0.0451937628491119
  0.1558920826098704  0.4390989921491336  0.0439228791462006
  0.1551865564348426  0.5505963345393162  0.0427302025674074
  0.0558267288870554  0.6058780998157182  0.0425252174157406
  0.2556816322825186  0.3837352774695415  0.0465050113048026
  0.3533213058456756  0.4404137154544530  0.0502898455342800
  0.3532385291682429  0.5526265648810528  0.0520740396554997
  0.2543058623039776  0.6071593137267871  0.0456897083036993
  0.7622510091884458  0.4401367035230174  0.0623066075661143
  0.8598262273070315  0.3827213430497786  0.0541978610913856
  0.9579767119733233  0.4386009549036453  0.0476379939741138
  0.9564786545589365  0.5497881579336126  0.0463615119846876
  0.8551535421021458  0.6019398949211440  0.0532491564013032
  0.0565908041173127  0.7170286275690783  0.0427356971270546
  0.1559961734534714  0.7732704170510026  0.0437489666910208
  0.1569138095546592  0.8843120552279423  0.0458141135666753
  0.0567981319176382  0.9390390561834533  0.0469555126767787
  0.2554292911365058  0.7178040035547266  0.0462106711296913
  0.3552851857367373  0.7720316993608168  0.0526712086619772
  0.3566454579637345  0.8836662644061045  0.0535332158708957
  0.2572705793531368  0.9398015761128299  0.0491710083301773
  0.4537241603938874  0.7146924248278204  0.0627921808756481
  0.5534116942674375  0.8783605916520005  0.0672218243727160
  0.4565816178030426  0.9391309728911857  0.0593530329073231
  0.7590788664048008  0.8784067586456757  0.0622746197717756
  0.6566831424511177  0.9335365931122668  0.0666700800968276
  0.8570722769408869  0.7169717151511401  0.0533508234765331
  0.9568387442520300  0.7715936243587411  0.0465735303979226
  0.9569258269862488  0.8830333617757983  0.0489244105195546
  0.8569712172898758  0.9376260928667894  0.0547534650256961
  0.4543635609781488  0.3905345394706223  0.0561692118094012
  0.4535469093255868  0.6019272246579482  0.0636568015853559
  0.6660876301794963  0.3861693409074597  0.0701540967161377
  0.7610065514083145  0.5477152758096173  0.0621272529551139
  0.5474511716987069  0.7718802888395173  0.0736416727684482
  0.7641322535502346  0.7708455706808259  0.0646831024856476
  0.6596222688848243  0.6891497625755565  0.1235789089185845
  0.5572087898123486  0.4890805352443625  0.0810995919620759
  0.6178117711548513  0.5568892088109527  0.1615664867332072
  0.6848640503996468  0.7619952039682778  0.2019880020832660
  0.7099836374377819  0.8338645138427404  0.2001131267700150
  0.5629321246060218  0.5687866892270893  0.1958282385399570
 
  0.00000000E+00  0.00000000E+00  0.00000000E+00
  0.00000000E+00  0.00000000E+00  0.00000000E+00
  0.00000000E+00  0.00000000E+00  0.00000000E+00
  0.00000000E+00  0.00000000E+00  0.00000000E+00
  0.00000000E+00  0.00000000E+00  0.00000000E+00
  0.00000000E+00  0.00000000E+00  0.00000000E+00
  0.00000000E+00  0.00000000E+00  0.00000000E+00
  0.00000000E+00  0.00000000E+00  0.00000000E+00
  0.00000000E+00  0.00000000E+00  0.00000000E+00
  0.00000000E+00  0.00000000E+00  0.00000000E+00
  0.00000000E+00  0.00000000E+00  0.00000000E+00
  0.00000000E+00  0.00000000E+00  0.00000000E+00
  0.00000000E+00  0.00000000E+00  0.00000000E+00
  0.00000000E+00  0.00000000E+00  0.00000000E+00
  0.00000000E+00  0.00000000E+00  0.00000000E+00
  0.00000000E+00  0.00000000E+00  0.00000000E+00
  0.00000000E+00  0.00000000E+00  0.00000000E+00
  0.00000000E+00  0.00000000E+00  0.00000000E+00
  0.00000000E+00  0.00000000E+00  0.00000000E+00
  0.00000000E+00  0.00000000E+00  0.00000000E+00
  0.00000000E+00  0.00000000E+00  0.00000000E+00
  0.00000000E+00  0.00000000E+00  0.00000000E+00
  0.00000000E+00  0.00000000E+00  0.00000000E+00
  0.00000000E+00  0.00000000E+00  0.00000000E+00
  0.00000000E+00  0.00000000E+00  0.00000000E+00
  0.00000000E+00  0.00000000E+00  0.00000000E+00
  0.00000000E+00  0.00000000E+00  0.00000000E+00
  0.00000000E+00  0.00000000E+00  0.00000000E+00
  0.00000000E+00  0.00000000E+00  0.00000000E+00
  0.00000000E+00  0.00000000E+00  0.00000000E+00
  0.00000000E+00  0.00000000E+00  0.00000000E+00
  0.00000000E+00  0.00000000E+00  0.00000000E+00
  0.00000000E+00  0.00000000E+00  0.00000000E+00
  0.00000000E+00  0.00000000E+00  0.00000000E+00
  0.00000000E+00  0.00000000E+00  0.00000000E+00
  0.00000000E+00  0.00000000E+00  0.00000000E+00
  0.00000000E+00  0.00000000E+00  0.00000000E+00
  0.00000000E+00  0.00000000E+00  0.00000000E+00
  0.00000000E+00  0.00000000E+00  0.00000000E+00
  0.00000000E+00  0.00000000E+00  0.00000000E+00
  0.00000000E+00  0.00000000E+00  0.00000000E+00
  0.00000000E+00  0.00000000E+00  0.00000000E+00
  0.00000000E+00  0.00000000E+00  0.00000000E+00
  0.00000000E+00  0.00000000E+00  0.00000000E+00
  0.00000000E+00  0.00000000E+00  0.00000000E+00
  0.00000000E+00  0.00000000E+00  0.00000000E+00
  0.00000000E+00  0.00000000E+00  0.00000000E+00
  0.00000000E+00  0.00000000E+00  0.00000000E+00
  0.00000000E+00  0.00000000E+00  0.00000000E+00
  0.00000000E+00  0.00000000E+00  0.00000000E+00
  0.00000000E+00  0.00000000E+00  0.00000000E+00
  0.00000000E+00  0.00000000E+00  0.00000000E+00
  0.00000000E+00  0.00000000E+00  0.00000000E+00
  0.00000000E+00  0.00000000E+00  0.00000000E+00
  0.00000000E+00  0.00000000E+00  0.00000000E+00
  0.00000000E+00  0.00000000E+00  0.00000000E+00
  0.00000000E+00  0.00000000E+00  0.00000000E+00
  0.00000000E+00  0.00000000E+00  0.00000000E+00
  0.00000000E+00  0.00000000E+00  0.00000000E+00
  0.00000000E+00  0.00000000E+00  0.00000000E+00
  0.00000000E+00  0.00000000E+00  0.00000000E+00
  0.00000000E+00  0.00000000E+00  0.00000000E+00
