CONTCAR\(7)                             
   1.00000000000000     
    12.3312997818000003    0.0000000000000000    0.0000000000000000
     0.0001127485000000   12.8291997905000006    0.0000000000000000
     0.0005937186000000    0.0011528207000000   19.9943999824000009
   C    N    Fe   Ni   O    H 
    53     3     1     1     2     2
Direct
  0.0569661711486382  0.0558166052582411  0.0507163354519664
  0.1569406751932722  0.1113429505933966  0.0506137571692585
  0.1569743295455970  0.2222722947738888  0.0506154724218520
  0.0570723220835238  0.2775949422541106  0.0507019117780482
  0.2570949282567467  0.0561961989975061  0.0513602365239713
  0.3575287138861237  0.1113994039698507  0.0532589963543045
  0.3572829521685305  0.2228682370528539  0.0536275279016565
  0.2570827465795130  0.2775369510547423  0.0516048623071429
  0.4572220178494090  0.0555303925191270  0.0552831767419116
  0.5570833387078516  0.1114322611867023  0.0579571733235607
  0.5568858963299913  0.2237402622673366  0.0598801805032596
  0.4562264998196311  0.2803486343629322  0.0570602302322393
  0.6567387808334151  0.0520651176324727  0.0580836358850036
  0.7562256980812393  0.1098179978739703  0.0562961672577630
  0.7568497598714982  0.2221117280393866  0.0572180659884458
  0.6573915445962726  0.2801843337248279  0.0622347240211544
  0.8561600523210899  0.0542648753592424  0.0537876559407592
  0.9563616214497787  0.1105761821390574  0.0518193363215930
  0.9566843272227672  0.2220504897155949  0.0519207236479230
  0.8568366535534889  0.2779860224748519  0.0545984324580422
  0.0583414874856640  0.3888648729345058  0.0507636614379293
  0.1581437698447904  0.4441982679342098  0.0506126847374529
  0.1595071163375147  0.5554011734309329  0.0506491004706150
  0.0595398948769798  0.6108823778104879  0.0508559750717736
  0.2578544136333771  0.3884409409678553  0.0515585147207043
  0.3583159321323285  0.4423961687799457  0.0537202115067558
  0.3625549088362896  0.5561800316557368  0.0548291435117983
  0.2598851933718392  0.6104609873629304  0.0518478576575269
  0.7596651289759657  0.4478996827296921  0.0628704569281328
  0.8585042487424456  0.3898248816572361  0.0554315282750633
  0.9584909707728305  0.4447873447840638  0.0525199732959142
  0.9594518609585144  0.5557860377190386  0.0528217570759865
  0.8594713741285653  0.6116688409165674  0.0571571738990640
  0.0587734551597743  0.7220223070048745  0.0508473213729721
  0.1574611355046331  0.7776005882507162  0.0504972283145509
  0.1571674326475246  0.8890832451426941  0.0503698133461797
  0.0573917906376232  0.9448228127373193  0.0506904276784281
  0.2570375963796755  0.7215245869301385  0.0515413847682870
  0.3548689185689833  0.7784165553385811  0.0530091445800938
  0.3560537539097648  0.8893964034985584  0.0526563204724374
  0.2565410228067746  0.9451751574106467  0.0510694608004484
  0.4540179282873102  0.7233683464866010  0.0572222233782179
  0.5542421008969829  0.8842338497369200  0.0579621309285262
  0.4561749777962089  0.9439952878014396  0.0549863146048072
  0.7581970269264150  0.8825893401111605  0.0574916858177637
  0.6568082383434138  0.9389367767473940  0.0585666159572025
  0.8604841095085692  0.7241699798754854  0.0554783106655384
  0.9593999109570349  0.7784444763934704  0.0522069857374553
  0.9579259326551434  0.8891026538665495  0.0520889804420876
  0.8567043719483535  0.9422992249749160  0.0542032410944140
  0.4623764295267462  0.6117564178354670  0.0601785866021245
  0.6626584668602182  0.3893491005313809  0.0693901952011497
  0.7597112512293654  0.5595902228963395  0.0650913722170985
  0.4538125631979119  0.3883028105117340  0.0572601554781899
  0.5487936307259579  0.7786762515579282  0.0593096690504509
  0.7632188837924118  0.7744225459025434  0.0587082629898218
  0.6501809250099999  0.6674460285802813  0.0851424295363050
  0.5565816712252919  0.4810000538353197  0.0930817611762224
  0.5816613229899463  0.4933381764763641  0.1813216450653804
  0.6513195469535813  0.6905617817329417  0.1776006140391974
  0.7201729904087568  0.7124232352300558  0.1968539224958854
  0.6073872345501413  0.5649542396688886  0.1920871633701669
 
  0.00000000E+00  0.00000000E+00  0.00000000E+00
  0.00000000E+00  0.00000000E+00  0.00000000E+00
  0.00000000E+00  0.00000000E+00  0.00000000E+00
  0.00000000E+00  0.00000000E+00  0.00000000E+00
  0.00000000E+00  0.00000000E+00  0.00000000E+00
  0.00000000E+00  0.00000000E+00  0.00000000E+00
  0.00000000E+00  0.00000000E+00  0.00000000E+00
  0.00000000E+00  0.00000000E+00  0.00000000E+00
  0.00000000E+00  0.00000000E+00  0.00000000E+00
  0.00000000E+00  0.00000000E+00  0.00000000E+00
  0.00000000E+00  0.00000000E+00  0.00000000E+00
  0.00000000E+00  0.00000000E+00  0.00000000E+00
  0.00000000E+00  0.00000000E+00  0.00000000E+00
  0.00000000E+00  0.00000000E+00  0.00000000E+00
  0.00000000E+00  0.00000000E+00  0.00000000E+00
  0.00000000E+00  0.00000000E+00  0.00000000E+00
  0.00000000E+00  0.00000000E+00  0.00000000E+00
  0.00000000E+00  0.00000000E+00  0.00000000E+00
  0.00000000E+00  0.00000000E+00  0.00000000E+00
  0.00000000E+00  0.00000000E+00  0.00000000E+00
  0.00000000E+00  0.00000000E+00  0.00000000E+00
  0.00000000E+00  0.00000000E+00  0.00000000E+00
  0.00000000E+00  0.00000000E+00  0.00000000E+00
  0.00000000E+00  0.00000000E+00  0.00000000E+00
  0.00000000E+00  0.00000000E+00  0.00000000E+00
  0.00000000E+00  0.00000000E+00  0.00000000E+00
  0.00000000E+00  0.00000000E+00  0.00000000E+00
  0.00000000E+00  0.00000000E+00  0.00000000E+00
  0.00000000E+00  0.00000000E+00  0.00000000E+00
  0.00000000E+00  0.00000000E+00  0.00000000E+00
  0.00000000E+00  0.00000000E+00  0.00000000E+00
  0.00000000E+00  0.00000000E+00  0.00000000E+00
  0.00000000E+00  0.00000000E+00  0.00000000E+00
  0.00000000E+00  0.00000000E+00  0.00000000E+00
  0.00000000E+00  0.00000000E+00  0.00000000E+00
  0.00000000E+00  0.00000000E+00  0.00000000E+00
  0.00000000E+00  0.00000000E+00  0.00000000E+00
  0.00000000E+00  0.00000000E+00  0.00000000E+00
  0.00000000E+00  0.00000000E+00  0.00000000E+00
  0.00000000E+00  0.00000000E+00  0.00000000E+00
  0.00000000E+00  0.00000000E+00  0.00000000E+00
  0.00000000E+00  0.00000000E+00  0.00000000E+00
  0.00000000E+00  0.00000000E+00  0.00000000E+00
  0.00000000E+00  0.00000000E+00  0.00000000E+00
  0.00000000E+00  0.00000000E+00  0.00000000E+00
  0.00000000E+00  0.00000000E+00  0.00000000E+00
  0.00000000E+00  0.00000000E+00  0.00000000E+00
  0.00000000E+00  0.00000000E+00  0.00000000E+00
  0.00000000E+00  0.00000000E+00  0.00000000E+00
  0.00000000E+00  0.00000000E+00  0.00000000E+00
  0.00000000E+00  0.00000000E+00  0.00000000E+00
  0.00000000E+00  0.00000000E+00  0.00000000E+00
  0.00000000E+00  0.00000000E+00  0.00000000E+00
  0.00000000E+00  0.00000000E+00  0.00000000E+00
  0.00000000E+00  0.00000000E+00  0.00000000E+00
  0.00000000E+00  0.00000000E+00  0.00000000E+00
  0.00000000E+00  0.00000000E+00  0.00000000E+00
  0.00000000E+00  0.00000000E+00  0.00000000E+00
  0.00000000E+00  0.00000000E+00  0.00000000E+00
  0.00000000E+00  0.00000000E+00  0.00000000E+00
  0.00000000E+00  0.00000000E+00  0.00000000E+00
  0.00000000E+00  0.00000000E+00  0.00000000E+00
