CONTCAR\(2)\(3)                         
   1.00000000000000     
    12.3312997818000003    0.0000000000000000    0.0000000000000000
     0.0001127485000000   12.8291997905000006    0.0000000000000000
     0.0005937186000000    0.0011528207000000   19.9943999824000009
   C    N    Fe   Ni   O 
    54     2     1     1     1
Direct
  0.0556995572075657  0.0547025703725492  0.0511706715368371
  0.1560291804245136  0.1097477906394863  0.0514753534239691
  0.1559095750166782  0.2205279729333368  0.0505281406687181
  0.0558116086368151  0.2759411115803653  0.0487730896964301
  0.2565633623189284  0.0547268893420272  0.0531682873023132
  0.3568122470889529  0.1103737078116603  0.0565569808385590
  0.3566950685243990  0.2219916720701348  0.0569617985414076
  0.2560171330895766  0.2759028065061299  0.0522464065007582
  0.4567040744489919  0.0544644321405902  0.0600125038423783
  0.5570952516358614  0.1110128786940294  0.0628756539702077
  0.5570177553121372  0.2229779846594795  0.0645143855398681
  0.4564337957243024  0.2795944597147248  0.0626342549762826
  0.6569125792371845  0.0522825698929841  0.0620535701279197
  0.7556270850129305  0.1102543342469206  0.0586914042394931
  0.7555548903252720  0.2229579954873339  0.0582801641067829
  0.6568061253588386  0.2822808820607154  0.0635753230971545
  0.8551546256990770  0.0538284515327083  0.0553879552047653
  0.9553710869712070  0.1097006870165860  0.0524022319609553
  0.9554653837947871  0.2212242557043966  0.0510175087089306
  0.8555621143523759  0.2778408428330271  0.0531394710530227
  0.0563425534520328  0.3871937210772875  0.0462949837880074
  0.1556751589083777  0.4426662190891399  0.0460290869203469
  0.1560033190920574  0.5542042272359736  0.0448252376277364
  0.0571008709316220  0.6101788142624140  0.0435402222921854
  0.2551983357724284  0.3866805069447066  0.0497445874918254
  0.3541792886963624  0.4419412917096739  0.0540934295982341
  0.3545076817687370  0.5543407779111154  0.0519330497979398
  0.2553000357537314  0.6102503786719590  0.0471556363169602
  0.7582709926793200  0.4493449158520543  0.0551974583141502
  0.8567363563951058  0.3895181765068447  0.0505582859071320
  0.9569597863274026  0.4433254324136831  0.0460523633408796
  0.9580194979562298  0.5544376785719929  0.0441958754031051
  0.8583079498692862  0.6087978012376389  0.0471190088739809
  0.0566359411508079  0.7214090542990030  0.0447343744364317
  0.1555968227832966  0.7772487141349519  0.0465464260971785
  0.1561493176753420  0.8883291139948933  0.0490035771461654
  0.0560680258354774  0.9436954180383237  0.0499519711777831
  0.2551036709462094  0.7213008935247036  0.0480865064239325
  0.3541198139005450  0.7760960832632251  0.0538046564964460
  0.3560682735171025  0.8875230129467231  0.0551475816331431
  0.2564094909648109  0.9435432885495720  0.0519949624226886
  0.4525895563302126  0.7183709939731326  0.0617080240711913
  0.5554620121717501  0.8841847225042839  0.0656029991815147
  0.4562352854465499  0.9427137985664252  0.0601317264140708
  0.7572152565130673  0.8823706624337918  0.0591073932576257
  0.6569620581636898  0.9395469607185648  0.0633014966686246
  0.8576577807634579  0.7222054693464928  0.0494898944217691
  0.9570265235976156  0.7769051368002963  0.0474443484815515
  0.9564828097240066  0.8880059290611884  0.0505735333638695
  0.8557140327955448  0.9416084926967750  0.0550130510616416
  0.4534750489817917  0.3903275065020547  0.0644023090252358
  0.6592261858952914  0.3939560154679826  0.0664978801440115
  0.5503696385913998  0.7746723001370156  0.0712788104503710
  0.4526283781589489  0.6069901702661710  0.0608724032746467
  0.7626252903825711  0.5576859377384220  0.0523736965502796
  0.7602153008358362  0.7731679745439552  0.0571477813713209
  0.6529330793340861  0.6681944722414169  0.0813400213727363
  0.5539791205298432  0.4920764347183771  0.0931506594225852
  0.6129068622276292  0.5906672448085944  0.1478095416239157
 
  0.00000000E+00  0.00000000E+00  0.00000000E+00
  0.00000000E+00  0.00000000E+00  0.00000000E+00
  0.00000000E+00  0.00000000E+00  0.00000000E+00
  0.00000000E+00  0.00000000E+00  0.00000000E+00
  0.00000000E+00  0.00000000E+00  0.00000000E+00
  0.00000000E+00  0.00000000E+00  0.00000000E+00
  0.00000000E+00  0.00000000E+00  0.00000000E+00
  0.00000000E+00  0.00000000E+00  0.00000000E+00
  0.00000000E+00  0.00000000E+00  0.00000000E+00
  0.00000000E+00  0.00000000E+00  0.00000000E+00
  0.00000000E+00  0.00000000E+00  0.00000000E+00
  0.00000000E+00  0.00000000E+00  0.00000000E+00
  0.00000000E+00  0.00000000E+00  0.00000000E+00
  0.00000000E+00  0.00000000E+00  0.00000000E+00
  0.00000000E+00  0.00000000E+00  0.00000000E+00
  0.00000000E+00  0.00000000E+00  0.00000000E+00
  0.00000000E+00  0.00000000E+00  0.00000000E+00
  0.00000000E+00  0.00000000E+00  0.00000000E+00
  0.00000000E+00  0.00000000E+00  0.00000000E+00
  0.00000000E+00  0.00000000E+00  0.00000000E+00
  0.00000000E+00  0.00000000E+00  0.00000000E+00
  0.00000000E+00  0.00000000E+00  0.00000000E+00
  0.00000000E+00  0.00000000E+00  0.00000000E+00
  0.00000000E+00  0.00000000E+00  0.00000000E+00
  0.00000000E+00  0.00000000E+00  0.00000000E+00
  0.00000000E+00  0.00000000E+00  0.00000000E+00
  0.00000000E+00  0.00000000E+00  0.00000000E+00
  0.00000000E+00  0.00000000E+00  0.00000000E+00
  0.00000000E+00  0.00000000E+00  0.00000000E+00
  0.00000000E+00  0.00000000E+00  0.00000000E+00
  0.00000000E+00  0.00000000E+00  0.00000000E+00
  0.00000000E+00  0.00000000E+00  0.00000000E+00
  0.00000000E+00  0.00000000E+00  0.00000000E+00
  0.00000000E+00  0.00000000E+00  0.00000000E+00
  0.00000000E+00  0.00000000E+00  0.00000000E+00
  0.00000000E+00  0.00000000E+00  0.00000000E+00
  0.00000000E+00  0.00000000E+00  0.00000000E+00
  0.00000000E+00  0.00000000E+00  0.00000000E+00
  0.00000000E+00  0.00000000E+00  0.00000000E+00
  0.00000000E+00  0.00000000E+00  0.00000000E+00
  0.00000000E+00  0.00000000E+00  0.00000000E+00
  0.00000000E+00  0.00000000E+00  0.00000000E+00
  0.00000000E+00  0.00000000E+00  0.00000000E+00
  0.00000000E+00  0.00000000E+00  0.00000000E+00
  0.00000000E+00  0.00000000E+00  0.00000000E+00
  0.00000000E+00  0.00000000E+00  0.00000000E+00
  0.00000000E+00  0.00000000E+00  0.00000000E+00
  0.00000000E+00  0.00000000E+00  0.00000000E+00
  0.00000000E+00  0.00000000E+00  0.00000000E+00
  0.00000000E+00  0.00000000E+00  0.00000000E+00
  0.00000000E+00  0.00000000E+00  0.00000000E+00
  0.00000000E+00  0.00000000E+00  0.00000000E+00
  0.00000000E+00  0.00000000E+00  0.00000000E+00
  0.00000000E+00  0.00000000E+00  0.00000000E+00
  0.00000000E+00  0.00000000E+00  0.00000000E+00
  0.00000000E+00  0.00000000E+00  0.00000000E+00
  0.00000000E+00  0.00000000E+00  0.00000000E+00
  0.00000000E+00  0.00000000E+00  0.00000000E+00
  0.00000000E+00  0.00000000E+00  0.00000000E+00
