134                                     
   1.00000000000000     
    12.3312997818000003    0.0000000000000000    0.0000000000000000
     0.0001127485000000   12.8291997905000006    0.0000000000000000
     0.0005937186000000    0.0011528207000000   19.9943999824000009
   C    N    Fe   Ni   O 
    53     3     1     1     1
Direct
  0.0557933691975576  0.0553398472627675  0.0502473325091126
  0.1559936185724263  0.1105930661780645  0.0497019993760257
  0.1556076930197926  0.2213323355343227  0.0487325617664851
  0.0556152510464916  0.2767852594733851  0.0489292764074857
  0.2565354279111687  0.0556607783494944  0.0508821097107519
  0.3568870149485173  0.1110982899671257  0.0545105415439480
  0.3564531476347100  0.2229504935521040  0.0539036764344717
  0.2557293410093607  0.2766459141036672  0.0490502511550922
  0.4564589495809284  0.0549805493316809  0.0589438726337266
  0.5559976658360368  0.1117224549834122  0.0636704674733078
  0.5559696035395344  0.2247187278488023  0.0654322893242074
  0.4550396750364345  0.2816189968980242  0.0591544351576429
  0.6555682733054600  0.0517534658387088  0.0647075223473229
  0.7550324046309141  0.1095672882620421  0.0620264421591937
  0.7556133529840141  0.2221722167539090  0.0635195853988388
  0.6567851386488973  0.2811284907063931  0.0696538945147720
  0.8549226400990895  0.0539354627398618  0.0571664774733583
  0.9552009761070392  0.1100504737176279  0.0533997898169281
  0.9553529569676432  0.2214864103497132  0.0532168173452044
  0.8558068178920356  0.2776301072650997  0.0583191232934021
  0.0563698603737909  0.3880707619665469  0.0462560262923125
  0.1559003790420794  0.4434270161754829  0.0433264570710903
  0.1566195724735179  0.5547475341092758  0.0414338300026043
  0.0575647086893967  0.6106616384563882  0.0419002784815559
  0.2553196386342259  0.3872919379578244  0.0460811087545243
  0.3549352629206363  0.4416607696908924  0.0489932410179653
  0.3565334067870728  0.5553539522892783  0.0481892851048944
  0.2560816501463198  0.6102616201256583  0.0430629189502079
  0.7596215324730400  0.4476084708396715  0.0678618637848049
  0.8576060902036242  0.3894452826135155  0.0575807502342756
  0.9570003617982560  0.4441071625996335  0.0491922214237782
  0.9581605852126835  0.5553377393122110  0.0465435304163548
  0.8599055220742511  0.6119207611372622  0.0532330753986990
  0.0575188803830040  0.7219564443648585  0.0425785537130823
  0.1564492574660918  0.7776717168430801  0.0430355010978867
  0.1562711776262989  0.8888600799060149  0.0460740012483724
  0.0563036615320079  0.9445254354509764  0.0482678330089149
  0.2558816749875620  0.7212761506361639  0.0440809297141840
  0.3546006643179165  0.7768995067247881  0.0504489239352124
  0.3554949443532834  0.8882407514805800  0.0524810532752852
  0.2561062409625084  0.9444641369044982  0.0492142880162238
  0.4529290030352068  0.7204887876349002  0.0592822517525350
  0.5530296521140770  0.8824131440338940  0.0655179759511747
  0.4554889823400783  0.9429155426902333  0.0587007229674880
  0.7574593166941969  0.8821609751879769  0.0618723067323509
  0.6557175675062028  0.9379961757570965  0.0657328594339962
  0.8600997284833578  0.7240583531787412  0.0528507572094854
  0.9583810572296575  0.7785173286808642  0.0470258478421088
  0.9568093273530536  0.8890559641937293  0.0500273081477347
  0.8556064185206766  0.9420581411650103  0.0561192787914435
  0.4547653476915890  0.6086186420475581  0.0575750221215292
  0.6614776548339864  0.3913042506937218  0.0778208738161665
  0.7620035576301841  0.5599458798976329  0.0666073732064369
  0.4513487168941293  0.3900190168528763  0.0570269588372206
  0.5477497142155812  0.7760934823954780  0.0697798692377399
  0.7629000298238187  0.7738640632448907  0.0618590344349758
  0.6552446885652555  0.6633502354697351  0.0882048244700309
  0.5520573843021450  0.4900327451866401  0.0863022053533183
  0.6078434223411781  0.5787877329882122  0.1487404099107266
 
  0.00000000E+00  0.00000000E+00  0.00000000E+00
  0.00000000E+00  0.00000000E+00  0.00000000E+00
  0.00000000E+00  0.00000000E+00  0.00000000E+00
  0.00000000E+00  0.00000000E+00  0.00000000E+00
  0.00000000E+00  0.00000000E+00  0.00000000E+00
  0.00000000E+00  0.00000000E+00  0.00000000E+00
  0.00000000E+00  0.00000000E+00  0.00000000E+00
  0.00000000E+00  0.00000000E+00  0.00000000E+00
  0.00000000E+00  0.00000000E+00  0.00000000E+00
  0.00000000E+00  0.00000000E+00  0.00000000E+00
  0.00000000E+00  0.00000000E+00  0.00000000E+00
  0.00000000E+00  0.00000000E+00  0.00000000E+00
  0.00000000E+00  0.00000000E+00  0.00000000E+00
  0.00000000E+00  0.00000000E+00  0.00000000E+00
  0.00000000E+00  0.00000000E+00  0.00000000E+00
  0.00000000E+00  0.00000000E+00  0.00000000E+00
  0.00000000E+00  0.00000000E+00  0.00000000E+00
  0.00000000E+00  0.00000000E+00  0.00000000E+00
  0.00000000E+00  0.00000000E+00  0.00000000E+00
  0.00000000E+00  0.00000000E+00  0.00000000E+00
  0.00000000E+00  0.00000000E+00  0.00000000E+00
  0.00000000E+00  0.00000000E+00  0.00000000E+00
  0.00000000E+00  0.00000000E+00  0.00000000E+00
  0.00000000E+00  0.00000000E+00  0.00000000E+00
  0.00000000E+00  0.00000000E+00  0.00000000E+00
  0.00000000E+00  0.00000000E+00  0.00000000E+00
  0.00000000E+00  0.00000000E+00  0.00000000E+00
  0.00000000E+00  0.00000000E+00  0.00000000E+00
  0.00000000E+00  0.00000000E+00  0.00000000E+00
  0.00000000E+00  0.00000000E+00  0.00000000E+00
  0.00000000E+00  0.00000000E+00  0.00000000E+00
  0.00000000E+00  0.00000000E+00  0.00000000E+00
  0.00000000E+00  0.00000000E+00  0.00000000E+00
  0.00000000E+00  0.00000000E+00  0.00000000E+00
  0.00000000E+00  0.00000000E+00  0.00000000E+00
  0.00000000E+00  0.00000000E+00  0.00000000E+00
  0.00000000E+00  0.00000000E+00  0.00000000E+00
  0.00000000E+00  0.00000000E+00  0.00000000E+00
  0.00000000E+00  0.00000000E+00  0.00000000E+00
  0.00000000E+00  0.00000000E+00  0.00000000E+00
  0.00000000E+00  0.00000000E+00  0.00000000E+00
  0.00000000E+00  0.00000000E+00  0.00000000E+00
  0.00000000E+00  0.00000000E+00  0.00000000E+00
  0.00000000E+00  0.00000000E+00  0.00000000E+00
  0.00000000E+00  0.00000000E+00  0.00000000E+00
  0.00000000E+00  0.00000000E+00  0.00000000E+00
  0.00000000E+00  0.00000000E+00  0.00000000E+00
  0.00000000E+00  0.00000000E+00  0.00000000E+00
  0.00000000E+00  0.00000000E+00  0.00000000E+00
  0.00000000E+00  0.00000000E+00  0.00000000E+00
  0.00000000E+00  0.00000000E+00  0.00000000E+00
  0.00000000E+00  0.00000000E+00  0.00000000E+00
  0.00000000E+00  0.00000000E+00  0.00000000E+00
  0.00000000E+00  0.00000000E+00  0.00000000E+00
  0.00000000E+00  0.00000000E+00  0.00000000E+00
  0.00000000E+00  0.00000000E+00  0.00000000E+00
  0.00000000E+00  0.00000000E+00  0.00000000E+00
  0.00000000E+00  0.00000000E+00  0.00000000E+00
  0.00000000E+00  0.00000000E+00  0.00000000E+00
