CONTCAR                                 
   1.00000000000000     
    12.3312997818000003    0.0000000000000000    0.0000000000000000
     0.0001127485000000   12.8291997905000006    0.0000000000000000
     0.0005937186000000    0.0011528207000000   19.9943999824000009
   C    N    Fe   Ni
    54     2     1     1
Direct
  0.0558036109375891  0.0543711892837400  0.0557776493112049
  0.1557703272410948  0.1105581774767770  0.0557918035221489
  0.1565839322995438  0.2214139266048418  0.0557768423954472
  0.0569385958607509  0.2761637875134900  0.0557552786640782
  0.2558324533023740  0.0563065429145550  0.0558008093694067
  0.3562441368525296  0.1121424261906385  0.0557698823044784
  0.3569323288302760  0.2239072797719523  0.0557435721958902
  0.2564538362339399  0.2775158795589026  0.0557644970394063
  0.4555134123368018  0.0562461846034056  0.0557404002512168
  0.5553865452086387  0.1123507515323401  0.0557005536609858
  0.5560582396166580  0.2243414531663643  0.0556849986738917
  0.4561389732703519  0.2822831615656345  0.0556890055064193
  0.6547956719091891  0.0528051927697640  0.0556687431631569
  0.7555310468375320  0.1087425628817697  0.0556843625586037
  0.7569396321376876  0.2204321073623756  0.0556986117521466
  0.6578363602852684  0.2788535999747185  0.0556768790272033
  0.8549342024393328  0.0522650269012709  0.0556957612886530
  0.9554790890175862  0.1087057620840863  0.0557347509907434
  0.9567425809181694  0.2199931236236475  0.0557333526040306
  0.8573733723833281  0.2757391213156078  0.0557118663142292
  0.0586140014380240  0.3874200639892060  0.0557472176985377
  0.1576733285720671  0.4437466739596802  0.0557619282872186
  0.1578932578886701  0.5550631703286171  0.0557671531642686
  0.0579646246719271  0.6098911916312553  0.0557540824909848
  0.2572535521686889  0.3884938654368733  0.0557582943831955
  0.3574308240537001  0.4433261800741975  0.0557211705478144
  0.3599635897899610  0.5573010265936787  0.0557199522654097
  0.2577013005023235  0.6107393067879593  0.0557664312872709
  0.7616051959837151  0.4443884862171888  0.0556641291716023
  0.8602542472042728  0.3869786147132245  0.0556958224523631
  0.9591994040539321  0.4425139453032917  0.0557171587638298
  0.9584318426273678  0.5534696840393714  0.0557104035173929
  0.8583902362856177  0.6082123320696154  0.0556699558183501
  0.0568516374814409  0.7212673514989587  0.0557807677721334
  0.1553266857629498  0.7772233037286748  0.0558097477616695
  0.1550990088541717  0.8886158297466221  0.0558208941781715
  0.0551855540091463  0.9434047424983576  0.0557907838805641
  0.2548838412005133  0.7217250987607589  0.0557895860166842
  0.3524892147323664  0.7790027002698015  0.0557592938622140
  0.3538128731984632  0.8900215445959083  0.0557774947605140
  0.2545478955088921  0.9452480494311064  0.0558156006861836
  0.4514624873407944  0.7243227237596916  0.0556819911203592
  0.5521294266633028  0.8862218442526525  0.0556528644325708
  0.4538921002676924  0.9449282615035433  0.0557312352009612
  0.7537122632412117  0.8813511564553314  0.0556327386764507
  0.6542275391561913  0.9405684056583370  0.0556348032841489
  0.8585644510608078  0.7203296092566194  0.0556743997749665
  0.9569860019827097  0.7764448177277727  0.0557435839287254
  0.9552855017041567  0.8872220371715577  0.0557437399616463
  0.8539864422765904  0.9402830460199140  0.0556807663314856
  0.4599244751302125  0.6127252264468055  0.0556703244395865
  0.6636188899915597  0.3877484054622675  0.0556552437921963
  0.7569827454174786  0.5564727772895710  0.0556513667969426
  0.7567120515651501  0.7691048120912948  0.0556272495166718
  0.4538136895702158  0.3909979057908099  0.0556692495330186
  0.5470544514183329  0.7804446814866586  0.0556241545999154
  0.6383808484003139  0.6636006660200034  0.0556233095399831
  0.5667761049064205  0.4926431638369374  0.0556254927106068
 
  0.00000000E+00  0.00000000E+00  0.00000000E+00
  0.00000000E+00  0.00000000E+00  0.00000000E+00
  0.00000000E+00  0.00000000E+00  0.00000000E+00
  0.00000000E+00  0.00000000E+00  0.00000000E+00
  0.00000000E+00  0.00000000E+00  0.00000000E+00
  0.00000000E+00  0.00000000E+00  0.00000000E+00
  0.00000000E+00  0.00000000E+00  0.00000000E+00
  0.00000000E+00  0.00000000E+00  0.00000000E+00
  0.00000000E+00  0.00000000E+00  0.00000000E+00
  0.00000000E+00  0.00000000E+00  0.00000000E+00
  0.00000000E+00  0.00000000E+00  0.00000000E+00
  0.00000000E+00  0.00000000E+00  0.00000000E+00
  0.00000000E+00  0.00000000E+00  0.00000000E+00
  0.00000000E+00  0.00000000E+00  0.00000000E+00
  0.00000000E+00  0.00000000E+00  0.00000000E+00
  0.00000000E+00  0.00000000E+00  0.00000000E+00
  0.00000000E+00  0.00000000E+00  0.00000000E+00
  0.00000000E+00  0.00000000E+00  0.00000000E+00
  0.00000000E+00  0.00000000E+00  0.00000000E+00
  0.00000000E+00  0.00000000E+00  0.00000000E+00
  0.00000000E+00  0.00000000E+00  0.00000000E+00
  0.00000000E+00  0.00000000E+00  0.00000000E+00
  0.00000000E+00  0.00000000E+00  0.00000000E+00
  0.00000000E+00  0.00000000E+00  0.00000000E+00
  0.00000000E+00  0.00000000E+00  0.00000000E+00
  0.00000000E+00  0.00000000E+00  0.00000000E+00
  0.00000000E+00  0.00000000E+00  0.00000000E+00
  0.00000000E+00  0.00000000E+00  0.00000000E+00
  0.00000000E+00  0.00000000E+00  0.00000000E+00
  0.00000000E+00  0.00000000E+00  0.00000000E+00
  0.00000000E+00  0.00000000E+00  0.00000000E+00
  0.00000000E+00  0.00000000E+00  0.00000000E+00
  0.00000000E+00  0.00000000E+00  0.00000000E+00
  0.00000000E+00  0.00000000E+00  0.00000000E+00
  0.00000000E+00  0.00000000E+00  0.00000000E+00
  0.00000000E+00  0.00000000E+00  0.00000000E+00
  0.00000000E+00  0.00000000E+00  0.00000000E+00
  0.00000000E+00  0.00000000E+00  0.00000000E+00
  0.00000000E+00  0.00000000E+00  0.00000000E+00
  0.00000000E+00  0.00000000E+00  0.00000000E+00
  0.00000000E+00  0.00000000E+00  0.00000000E+00
  0.00000000E+00  0.00000000E+00  0.00000000E+00
  0.00000000E+00  0.00000000E+00  0.00000000E+00
  0.00000000E+00  0.00000000E+00  0.00000000E+00
  0.00000000E+00  0.00000000E+00  0.00000000E+00
  0.00000000E+00  0.00000000E+00  0.00000000E+00
  0.00000000E+00  0.00000000E+00  0.00000000E+00
  0.00000000E+00  0.00000000E+00  0.00000000E+00
  0.00000000E+00  0.00000000E+00  0.00000000E+00
  0.00000000E+00  0.00000000E+00  0.00000000E+00
  0.00000000E+00  0.00000000E+00  0.00000000E+00
  0.00000000E+00  0.00000000E+00  0.00000000E+00
  0.00000000E+00  0.00000000E+00  0.00000000E+00
  0.00000000E+00  0.00000000E+00  0.00000000E+00
  0.00000000E+00  0.00000000E+00  0.00000000E+00
  0.00000000E+00  0.00000000E+00  0.00000000E+00
  0.00000000E+00  0.00000000E+00  0.00000000E+00
  0.00000000E+00  0.00000000E+00  0.00000000E+00
