CONTCAR\(3)                             
   1.00000000000000     
    12.3312997818000003    0.0000000000000000    0.0000000000000000
     0.0001127485000000   12.8291997905000006    0.0000000000000000
     0.0005937186000000    0.0011528207000000   19.9943999824000009
   C    N    Fe   Ni   O    H 
    52     4     1     1     2     2
Direct
  0.0575995942457346  0.0579239690104167  0.0461222152772967
  0.1580385025586548  0.1137929599760035  0.0466862075325176
  0.1589928854743047  0.2250202834237193  0.0470239920764124
  0.0584590822814296  0.2793994585853609  0.0466317938508751
  0.2579681341540935  0.0583678096797381  0.0475426028998520
  0.3587805532738166  0.1128873912508380  0.0505540829696857
  0.3593860395656995  0.2244798725717584  0.0519734565282376
  0.2597205767391352  0.2807274810220697  0.0487875327939232
  0.4586359785617823  0.0565791027322753  0.0526825261930465
  0.5592486946943062  0.1115552449618243  0.0558082523510060
  0.5598350141759307  0.2236073253640137  0.0596288997455304
  0.4593050098033510  0.2801521575336910  0.0584468553281801
  0.6580069284276996  0.0521676010715820  0.0547047976064899
  0.7572584529070333  0.1102827976445698  0.0528403574729603
  0.7581745447167000  0.2230542669109418  0.0544857219504577
  0.6602462511427604  0.2811279075407293  0.0610308640931374
  0.8569001167365762  0.0549650828672463  0.0494231661358946
  0.9570142132648179  0.1121486465488144  0.0476521051644720
  0.9577246597925771  0.2240198881214008  0.0480533387317244
  0.8577517256035067  0.2798582224243362  0.0511056476803672
  0.0594419423356897  0.3905648178777113  0.0459381836273295
  0.1597132648513307  0.4464334418171766  0.0452557989608567
  0.1594586103842576  0.5573400192127498  0.0445128076972951
  0.0594761212464117  0.6126725670321194  0.0440386711784592
  0.2607624565791149  0.3925557518374655  0.0476718776469006
  0.3614819657582820  0.4489759033518424  0.0519790094396537
  0.3615317096295367  0.5626657678397663  0.0500557917961241
  0.2589288878708851  0.6141260676205555  0.0459085197515390
  0.7601060820204002  0.4511757182087147  0.0589378436361116
  0.8585991603408556  0.3922176037638506  0.0514241717988875
  0.9596206979798660  0.4458585208281275  0.0475875080691044
  0.9598057371257422  0.5568137735978660  0.0467371147786456
  0.8599980064982292  0.6113327912302636  0.0507630117498677
  0.0584713747839871  0.7235912803754739  0.0434910842395212
  0.1567642136497635  0.7803914410201659  0.0435904872016277
  0.1571508426656338  0.8914401249767792  0.0444108275450449
  0.0572895050861790  0.9466283722587755  0.0448681104084094
  0.2559435715396707  0.7249187618726940  0.0451224724721549
  0.3536867976362954  0.7814803981470569  0.0479060655750377
  0.3560393444084474  0.8918813086448109  0.0484236609848403
  0.2568612510957576  0.9474504663628419  0.0463986003631245
  0.4511125945326963  0.7246543214189003  0.0522483678890165
  0.5545421359765591  0.8841882144508921  0.0545662534668141
  0.4572187128302327  0.9448983512200585  0.0516465460340841
  0.7581786103320749  0.8824794695225210  0.0515023479282278
  0.6571162023536612  0.9384778858452675  0.0543759878929399
  0.8603370478768427  0.7232183763502358  0.0478036580068045
  0.9590187351073122  0.7788513604999552  0.0446446693195939
  0.9580448435708210  0.8898787485039692  0.0454188312089006
  0.8567629417521239  0.9426588110551756  0.0485146800134303
  0.4576954153111376  0.3909969267284106  0.0633862570063272
  0.6626650325808396  0.3924000973561291  0.0686443891050915
  0.4560359042424981  0.6189774837705861  0.0527341030086984
  0.7618314792675444  0.5615218291299042  0.0598173936559758
  0.5481945316298531  0.7769663540671182  0.0564555223191417
  0.7624739253149246  0.7736703022781688  0.0510905058248851
  0.6542622267949765  0.6728755912384285  0.0774461944276646
  0.5570139899724476  0.4619332758298205  0.1113492606714205
  0.5483056191258405  0.4982061078961367  0.1966621832578357
  0.6492038694071949  0.6852231097407590  0.1693886701223618
  0.7064219181267744  0.6479583289202312  0.1931553684295058
  0.5569057472873425  0.5746428000592099  0.1979627651086325
 
  0.00000000E+00  0.00000000E+00  0.00000000E+00
  0.00000000E+00  0.00000000E+00  0.00000000E+00
  0.00000000E+00  0.00000000E+00  0.00000000E+00
  0.00000000E+00  0.00000000E+00  0.00000000E+00
  0.00000000E+00  0.00000000E+00  0.00000000E+00
  0.00000000E+00  0.00000000E+00  0.00000000E+00
  0.00000000E+00  0.00000000E+00  0.00000000E+00
  0.00000000E+00  0.00000000E+00  0.00000000E+00
  0.00000000E+00  0.00000000E+00  0.00000000E+00
  0.00000000E+00  0.00000000E+00  0.00000000E+00
  0.00000000E+00  0.00000000E+00  0.00000000E+00
  0.00000000E+00  0.00000000E+00  0.00000000E+00
  0.00000000E+00  0.00000000E+00  0.00000000E+00
  0.00000000E+00  0.00000000E+00  0.00000000E+00
  0.00000000E+00  0.00000000E+00  0.00000000E+00
  0.00000000E+00  0.00000000E+00  0.00000000E+00
  0.00000000E+00  0.00000000E+00  0.00000000E+00
  0.00000000E+00  0.00000000E+00  0.00000000E+00
  0.00000000E+00  0.00000000E+00  0.00000000E+00
  0.00000000E+00  0.00000000E+00  0.00000000E+00
  0.00000000E+00  0.00000000E+00  0.00000000E+00
  0.00000000E+00  0.00000000E+00  0.00000000E+00
  0.00000000E+00  0.00000000E+00  0.00000000E+00
  0.00000000E+00  0.00000000E+00  0.00000000E+00
  0.00000000E+00  0.00000000E+00  0.00000000E+00
  0.00000000E+00  0.00000000E+00  0.00000000E+00
  0.00000000E+00  0.00000000E+00  0.00000000E+00
  0.00000000E+00  0.00000000E+00  0.00000000E+00
  0.00000000E+00  0.00000000E+00  0.00000000E+00
  0.00000000E+00  0.00000000E+00  0.00000000E+00
  0.00000000E+00  0.00000000E+00  0.00000000E+00
  0.00000000E+00  0.00000000E+00  0.00000000E+00
  0.00000000E+00  0.00000000E+00  0.00000000E+00
  0.00000000E+00  0.00000000E+00  0.00000000E+00
  0.00000000E+00  0.00000000E+00  0.00000000E+00
  0.00000000E+00  0.00000000E+00  0.00000000E+00
  0.00000000E+00  0.00000000E+00  0.00000000E+00
  0.00000000E+00  0.00000000E+00  0.00000000E+00
  0.00000000E+00  0.00000000E+00  0.00000000E+00
  0.00000000E+00  0.00000000E+00  0.00000000E+00
  0.00000000E+00  0.00000000E+00  0.00000000E+00
  0.00000000E+00  0.00000000E+00  0.00000000E+00
  0.00000000E+00  0.00000000E+00  0.00000000E+00
  0.00000000E+00  0.00000000E+00  0.00000000E+00
  0.00000000E+00  0.00000000E+00  0.00000000E+00
  0.00000000E+00  0.00000000E+00  0.00000000E+00
  0.00000000E+00  0.00000000E+00  0.00000000E+00
  0.00000000E+00  0.00000000E+00  0.00000000E+00
  0.00000000E+00  0.00000000E+00  0.00000000E+00
  0.00000000E+00  0.00000000E+00  0.00000000E+00
  0.00000000E+00  0.00000000E+00  0.00000000E+00
  0.00000000E+00  0.00000000E+00  0.00000000E+00
  0.00000000E+00  0.00000000E+00  0.00000000E+00
  0.00000000E+00  0.00000000E+00  0.00000000E+00
  0.00000000E+00  0.00000000E+00  0.00000000E+00
  0.00000000E+00  0.00000000E+00  0.00000000E+00
  0.00000000E+00  0.00000000E+00  0.00000000E+00
  0.00000000E+00  0.00000000E+00  0.00000000E+00
  0.00000000E+00  0.00000000E+00  0.00000000E+00
  0.00000000E+00  0.00000000E+00  0.00000000E+00
  0.00000000E+00  0.00000000E+00  0.00000000E+00
  0.00000000E+00  0.00000000E+00  0.00000000E+00
