CONTCAR\(2)                             
   1.00000000000000     
    12.3312997818000003    0.0000000000000000    0.0000000000000000
     0.0001127485000000   12.8291997905000006    0.0000000000000000
     0.0005937186000000    0.0011528207000000   19.9943999824000009
   C    N    Fe   Ni   H 
    53     3     1     1     1
Direct
  0.0559119939749176  0.0546201977369355  0.0515671805422757
  0.1565563010410608  0.1100931284510907  0.0519592685458161
  0.1569654254781935  0.2210113757621501  0.0506146481531334
  0.0569739498900864  0.2757690560552031  0.0494108492209053
  0.2570169658006868  0.0556049533909031  0.0544426611973512
  0.3573926791073724  0.1119996198743929  0.0570392905192345
  0.3577266109277414  0.2240318113641941  0.0559369993390193
  0.2567617353235634  0.2775584898716693  0.0517758172419445
  0.4571793113452060  0.0563794592762835  0.0608649265919534
  0.5573430520490221  0.1141077385556400  0.0625857255513343
  0.5582578770452213  0.2271302018446959  0.0627450582823463
  0.4572785134711215  0.2831689655619685  0.0593479788955123
  0.6557406908453929  0.0539877530631743  0.0616530094951314
  0.7554298877198016  0.1106845844158430  0.0579131026249170
  0.7565715589713584  0.2233493003302889  0.0580106490056842
  0.6596278555966431  0.2844735785685959  0.0629570410096742
  0.8549941633517770  0.0541454738536575  0.0544690469345540
  0.9557759386690345  0.1094354102880212  0.0523307447217009
  0.9567799963117603  0.2204805974170600  0.0514146416224837
  0.8575469974619364  0.2764984392841650  0.0533930908356102
  0.0571999706441519  0.3867891036632159  0.0479098724022781
  0.1555308113825327  0.4435054314780644  0.0482396922701723
  0.1550880421187907  0.5548450442959164  0.0483605061760816
  0.0566635075147037  0.6104530259188206  0.0475505208433308
  0.2548998862141760  0.3885732998766399  0.0505050194545493
  0.3532166053125299  0.4453060304350953  0.0542394391757318
  0.3518608188273817  0.5576025694068396  0.0569799987844516
  0.2533306023383182  0.6121259495481952  0.0520449258423547
  0.7615081148836582  0.4450840549512527  0.0553906128399267
  0.8591168392842533  0.3872801293931978  0.0508937168224643
  0.9583293931665195  0.4423526983798878  0.0477505491832971
  0.9583452989603997  0.5530973431992233  0.0473176074835068
  0.8587733820164869  0.6059209486575658  0.0480919412707920
  0.0558555866115294  0.7217049832234582  0.0486692898233112
  0.1546251123159059  0.7782834668244203  0.0509249524764522
  0.1555631497767520  0.8891291359176007  0.0519781891571471
  0.0553185590205308  0.9436275943903516  0.0511406638710301
  0.2536109350538013  0.7227147154431796  0.0536013379942082
  0.3535854661628337  0.7763946916613517  0.0588603302690248
  0.3558586100735066  0.8883476730301370  0.0588572070055642
  0.2563522047257149  0.9442614252211551  0.0548804911245855
  0.4505713690207503  0.7168595896358732  0.0664692875127435
  0.5541683949541661  0.8840756132030321  0.0668095757075197
  0.4562161841539784  0.9437122588143755  0.0625342687855407
  0.7546214982271734  0.8842627967365908  0.0565231010616689
  0.6548938499610570  0.9414582901735282  0.0624947370935159
  0.8564055569719368  0.7190919020471551  0.0492392526935600
  0.9558205029902666  0.7760803293589348  0.0492226736022408
  0.9550711027802686  0.8874697472178543  0.0508418193540293
  0.8543492739998134  0.9421404709896321  0.0535008711236684
  0.4531346011170562  0.3941342918453341  0.0588332809110176
  0.5509491526799427  0.7726639204867064  0.0724867585503687
  0.7562238218902080  0.7725374362376075  0.0534842582515808
  0.4476245380662884  0.6074822660837190  0.0668521636545635
  0.6646230787510314  0.3937413957770541  0.0660524962189074
  0.7629161824293725  0.5520848159224090  0.0511608809704925
  0.6537984352261011  0.6663329922335189  0.0739219102731321
  0.5566149766548915  0.4954954854325887  0.0796914598496424
  0.6170531223392919  0.5751568859225547  0.1313526047849523
 
  0.00000000E+00  0.00000000E+00  0.00000000E+00
  0.00000000E+00  0.00000000E+00  0.00000000E+00
  0.00000000E+00  0.00000000E+00  0.00000000E+00
  0.00000000E+00  0.00000000E+00  0.00000000E+00
  0.00000000E+00  0.00000000E+00  0.00000000E+00
  0.00000000E+00  0.00000000E+00  0.00000000E+00
  0.00000000E+00  0.00000000E+00  0.00000000E+00
  0.00000000E+00  0.00000000E+00  0.00000000E+00
  0.00000000E+00  0.00000000E+00  0.00000000E+00
  0.00000000E+00  0.00000000E+00  0.00000000E+00
  0.00000000E+00  0.00000000E+00  0.00000000E+00
  0.00000000E+00  0.00000000E+00  0.00000000E+00
  0.00000000E+00  0.00000000E+00  0.00000000E+00
  0.00000000E+00  0.00000000E+00  0.00000000E+00
  0.00000000E+00  0.00000000E+00  0.00000000E+00
  0.00000000E+00  0.00000000E+00  0.00000000E+00
  0.00000000E+00  0.00000000E+00  0.00000000E+00
  0.00000000E+00  0.00000000E+00  0.00000000E+00
  0.00000000E+00  0.00000000E+00  0.00000000E+00
  0.00000000E+00  0.00000000E+00  0.00000000E+00
  0.00000000E+00  0.00000000E+00  0.00000000E+00
  0.00000000E+00  0.00000000E+00  0.00000000E+00
  0.00000000E+00  0.00000000E+00  0.00000000E+00
  0.00000000E+00  0.00000000E+00  0.00000000E+00
  0.00000000E+00  0.00000000E+00  0.00000000E+00
  0.00000000E+00  0.00000000E+00  0.00000000E+00
  0.00000000E+00  0.00000000E+00  0.00000000E+00
  0.00000000E+00  0.00000000E+00  0.00000000E+00
  0.00000000E+00  0.00000000E+00  0.00000000E+00
  0.00000000E+00  0.00000000E+00  0.00000000E+00
  0.00000000E+00  0.00000000E+00  0.00000000E+00
  0.00000000E+00  0.00000000E+00  0.00000000E+00
  0.00000000E+00  0.00000000E+00  0.00000000E+00
  0.00000000E+00  0.00000000E+00  0.00000000E+00
  0.00000000E+00  0.00000000E+00  0.00000000E+00
  0.00000000E+00  0.00000000E+00  0.00000000E+00
  0.00000000E+00  0.00000000E+00  0.00000000E+00
  0.00000000E+00  0.00000000E+00  0.00000000E+00
  0.00000000E+00  0.00000000E+00  0.00000000E+00
  0.00000000E+00  0.00000000E+00  0.00000000E+00
  0.00000000E+00  0.00000000E+00  0.00000000E+00
  0.00000000E+00  0.00000000E+00  0.00000000E+00
  0.00000000E+00  0.00000000E+00  0.00000000E+00
  0.00000000E+00  0.00000000E+00  0.00000000E+00
  0.00000000E+00  0.00000000E+00  0.00000000E+00
  0.00000000E+00  0.00000000E+00  0.00000000E+00
  0.00000000E+00  0.00000000E+00  0.00000000E+00
  0.00000000E+00  0.00000000E+00  0.00000000E+00
  0.00000000E+00  0.00000000E+00  0.00000000E+00
  0.00000000E+00  0.00000000E+00  0.00000000E+00
  0.00000000E+00  0.00000000E+00  0.00000000E+00
  0.00000000E+00  0.00000000E+00  0.00000000E+00
  0.00000000E+00  0.00000000E+00  0.00000000E+00
  0.00000000E+00  0.00000000E+00  0.00000000E+00
  0.00000000E+00  0.00000000E+00  0.00000000E+00
  0.00000000E+00  0.00000000E+00  0.00000000E+00
  0.00000000E+00  0.00000000E+00  0.00000000E+00
  0.00000000E+00  0.00000000E+00  0.00000000E+00
  0.00000000E+00  0.00000000E+00  0.00000000E+00
