CONTCAR\(4)                             
   1.00000000000000     
    12.3312997818000003    0.0000000000000000    0.0000000000000000
     0.0001127485000000   12.8291997905000006    0.0000000000000000
     0.0005937186000000    0.0011528207000000   19.9943999824000009
   C    N    Fe   Ni   O    H 
    54     2     1     1     2     2
Direct
  0.0559817205347680  0.0518922330858460  0.0449265008145250
  0.1564319092784842  0.1070027340814382  0.0439886505802281
  0.1567180098037672  0.2181394553195943  0.0431004960073592
  0.0565164148474128  0.2731893327491940  0.0441042080035581
  0.2568080355461732  0.0519138955208662  0.0451168646048870
  0.3571026740563714  0.1078630827665097  0.0481116632619319
  0.3575362438565325  0.2198074038953514  0.0469560791421558
  0.2567340662997093  0.2741625924428515  0.0428477562360990
  0.4566395991013498  0.0517902565756698  0.0529973969047305
  0.5562257560779215  0.1088702026069381  0.0576579949844912
  0.5567930721440391  0.2207473800357423  0.0582475557249647
  0.4571678236879284  0.2775682463518414  0.0515899100575792
  0.6557330612449228  0.0504399663143530  0.0600088252308109
  0.7557878978823225  0.1073760806734978  0.0572574494371332
  0.7564120476068487  0.2194167277890308  0.0581989783998572
  0.6574878341314835  0.2784062676751165  0.0626873377269631
  0.8556587573738704  0.0517870336576243  0.0525134327968751
  0.9558080045179980  0.1072121069556142  0.0482249050883419
  0.9562315489961105  0.2182530351450504  0.0482919575043112
  0.8565463815681665  0.2740744126559977  0.0534900797193310
  0.0569903188590071  0.3841943794805993  0.0423904979893968
  0.1556726740589914  0.4402859978711653  0.0395296183780981
  0.1547609578653266  0.5516954439743780  0.0383568032444166
  0.0554445628126789  0.6072004981633254  0.0393494459771912
  0.2559875227185981  0.3853525439642219  0.0407863716009620
  0.3551524434518047  0.4416824297326981  0.0430922177731983
  0.3534331757692206  0.5546205576625437  0.0440551135547950
  0.2534833558825725  0.6085066165555840  0.0398687271878307
  0.7607083242959105  0.4443382553258282  0.0627777208356971
  0.8581129273383125  0.3854925131402519  0.0536364991705469
  0.9574035362816528  0.4398847499657898  0.0462258342881561
  0.9568590866906708  0.5504522714440906  0.0444226563010206
  0.8565926920737569  0.6038148452488427  0.0529000741662934
  0.0554523708631304  0.7186440461914221  0.0395390212973729
  0.1546506256512369  0.7747201995399032  0.0395397297524056
  0.1556345413524571  0.8858147683734470  0.0416885335872038
  0.0554880711231460  0.9408288739332847  0.0435820150472675
  0.2543545155838092  0.7190643161661316  0.0408189051316441
  0.3547446021448887  0.7727251526875373  0.0463134989223076
  0.3561899366048900  0.8843428968549035  0.0477906506140556
  0.2562732055702221  0.9406146280511047  0.0442884513699533
  0.4525070607383860  0.7130130139969294  0.0545702915566067
  0.5542789845745396  0.8804665709913851  0.0622958233001116
  0.4560767584056888  0.9394267845009235  0.0538182058564497
  0.7564672884743406  0.8833785230220919  0.0602298626266862
  0.6552099068082859  0.9387677459664284  0.0628899732447086
  0.8563188794891461  0.7174464465153825  0.0517789067615151
  0.9553474686258424  0.7735652279326704  0.0439567385683323
  0.9553581459694845  0.8848966388454537  0.0460939423581986
  0.8555116554525120  0.9402068417289394  0.0522980246478393
  0.4555978643636217  0.3891393089999327  0.0494607882052097
  0.6598128915206438  0.3889608165884209  0.0683408795945533
  0.5505861892254991  0.7691648296857717  0.0679680638677542
  0.7605030481305391  0.7730944774233174  0.0640867728268769
  0.7630710550697137  0.5525014803664312  0.0644297880068785
  0.4488178969438585  0.6049180758906736  0.0525377548578800
  0.6608079891451485  0.6921441292668524  0.1149459525139849
  0.5538896390448697  0.4874576138944663  0.0754038132562281
  0.5983399633686984  0.5672564273078680  0.1541549494232167
  0.7047460520120760  0.7477923205943688  0.1954939437511734
  0.7085936856322926  0.6956469710569526  0.2309449140453689
  0.5348773894563872  0.5838473517995516  0.1811801943144893
 
  0.00000000E+00  0.00000000E+00  0.00000000E+00
  0.00000000E+00  0.00000000E+00  0.00000000E+00
  0.00000000E+00  0.00000000E+00  0.00000000E+00
  0.00000000E+00  0.00000000E+00  0.00000000E+00
  0.00000000E+00  0.00000000E+00  0.00000000E+00
  0.00000000E+00  0.00000000E+00  0.00000000E+00
  0.00000000E+00  0.00000000E+00  0.00000000E+00
  0.00000000E+00  0.00000000E+00  0.00000000E+00
  0.00000000E+00  0.00000000E+00  0.00000000E+00
  0.00000000E+00  0.00000000E+00  0.00000000E+00
  0.00000000E+00  0.00000000E+00  0.00000000E+00
  0.00000000E+00  0.00000000E+00  0.00000000E+00
  0.00000000E+00  0.00000000E+00  0.00000000E+00
  0.00000000E+00  0.00000000E+00  0.00000000E+00
  0.00000000E+00  0.00000000E+00  0.00000000E+00
  0.00000000E+00  0.00000000E+00  0.00000000E+00
  0.00000000E+00  0.00000000E+00  0.00000000E+00
  0.00000000E+00  0.00000000E+00  0.00000000E+00
  0.00000000E+00  0.00000000E+00  0.00000000E+00
  0.00000000E+00  0.00000000E+00  0.00000000E+00
  0.00000000E+00  0.00000000E+00  0.00000000E+00
  0.00000000E+00  0.00000000E+00  0.00000000E+00
  0.00000000E+00  0.00000000E+00  0.00000000E+00
  0.00000000E+00  0.00000000E+00  0.00000000E+00
  0.00000000E+00  0.00000000E+00  0.00000000E+00
  0.00000000E+00  0.00000000E+00  0.00000000E+00
  0.00000000E+00  0.00000000E+00  0.00000000E+00
  0.00000000E+00  0.00000000E+00  0.00000000E+00
  0.00000000E+00  0.00000000E+00  0.00000000E+00
  0.00000000E+00  0.00000000E+00  0.00000000E+00
  0.00000000E+00  0.00000000E+00  0.00000000E+00
  0.00000000E+00  0.00000000E+00  0.00000000E+00
  0.00000000E+00  0.00000000E+00  0.00000000E+00
  0.00000000E+00  0.00000000E+00  0.00000000E+00
  0.00000000E+00  0.00000000E+00  0.00000000E+00
  0.00000000E+00  0.00000000E+00  0.00000000E+00
  0.00000000E+00  0.00000000E+00  0.00000000E+00
  0.00000000E+00  0.00000000E+00  0.00000000E+00
  0.00000000E+00  0.00000000E+00  0.00000000E+00
  0.00000000E+00  0.00000000E+00  0.00000000E+00
  0.00000000E+00  0.00000000E+00  0.00000000E+00
  0.00000000E+00  0.00000000E+00  0.00000000E+00
  0.00000000E+00  0.00000000E+00  0.00000000E+00
  0.00000000E+00  0.00000000E+00  0.00000000E+00
  0.00000000E+00  0.00000000E+00  0.00000000E+00
  0.00000000E+00  0.00000000E+00  0.00000000E+00
  0.00000000E+00  0.00000000E+00  0.00000000E+00
  0.00000000E+00  0.00000000E+00  0.00000000E+00
  0.00000000E+00  0.00000000E+00  0.00000000E+00
  0.00000000E+00  0.00000000E+00  0.00000000E+00
  0.00000000E+00  0.00000000E+00  0.00000000E+00
  0.00000000E+00  0.00000000E+00  0.00000000E+00
  0.00000000E+00  0.00000000E+00  0.00000000E+00
  0.00000000E+00  0.00000000E+00  0.00000000E+00
  0.00000000E+00  0.00000000E+00  0.00000000E+00
  0.00000000E+00  0.00000000E+00  0.00000000E+00
  0.00000000E+00  0.00000000E+00  0.00000000E+00
  0.00000000E+00  0.00000000E+00  0.00000000E+00
  0.00000000E+00  0.00000000E+00  0.00000000E+00
  0.00000000E+00  0.00000000E+00  0.00000000E+00
  0.00000000E+00  0.00000000E+00  0.00000000E+00
  0.00000000E+00  0.00000000E+00  0.00000000E+00
