4                                       
   1.00000000000000     
    12.3312997818000003    0.0000000000000000    0.0000000000000000
     0.0001127485000000   12.8291997905000006    0.0000000000000000
     0.0005937186000000    0.0011528207000000   19.9943999824000009
   C    N    Fe   Ni   O 
    55     1     1     1     1
Direct
  0.0560851173795994  0.0554054492960167  0.0522189195220595
  0.1562356875300914  0.1102424863474181  0.0516661274733031
  0.1556518553488083  0.2211056844703958  0.0507233035625403
  0.0554266505393559  0.2767257285516977  0.0497939059586987
  0.2568092072171265  0.0547988240899151  0.0523969892086958
  0.3570426949536277  0.1102570643425531  0.0555018568164386
  0.3566012656034955  0.2219746575687044  0.0559645393325965
  0.2558395845584128  0.2761584361406242  0.0516007440403968
  0.4568700683243750  0.0539240241826754  0.0585418756711555
  0.5569056677636635  0.1102920568994100  0.0624209153560724
  0.5563502513854481  0.2220371078291444  0.0645134543743107
  0.4562439345954232  0.2794186682691491  0.0613547348059748
  0.6571756094584802  0.0523614554478403  0.0628249196250172
  0.7559652450077364  0.1102101579834917  0.0607727856239917
  0.7556437163967759  0.2226422367877648  0.0608078067175703
  0.6560273757451875  0.2802985545243362  0.0657280745737480
  0.8555889160345669  0.0543222056664731  0.0575522409741984
  0.9555451662434292  0.1103684103669695  0.0541444571024685
  0.9551894477758607  0.2218664094806228  0.0528067648999968
  0.8551514755112469  0.2783525800312500  0.0556600149838183
  0.0553814402201438  0.3880794799344086  0.0472537259357742
  0.1549611311672046  0.4429309250406998  0.0458599234205166
  0.1555552353115688  0.5544225601512390  0.0444002958821697
  0.0565190435093541  0.6105143110888154  0.0442756239669601
  0.2547237724631114  0.3868050890322449  0.0489037952777285
  0.3538534413142566  0.4418952293483676  0.0521681240427803
  0.3545507782579907  0.5542463303879752  0.0489649943595464
  0.2551288830300495  0.6102391563190208  0.0452001952991589
  0.7555324602952949  0.4486501830268506  0.0594848424879974
  0.8554136267963595  0.3902762628809147  0.0533574104605587
  0.9555183747418023  0.4445070481370297  0.0478903943301947
  0.9567515683699267  0.5555654326691146  0.0460123164302076
  0.8576159781004074  0.6122687009531970  0.0505032486198965
  0.0568943446439046  0.7219007160497289  0.0456032629621081
  0.1560586977745191  0.7773903641229516  0.0460005249691459
  0.1566407326674059  0.8885838358952042  0.0486495446254592
  0.0567887709799693  0.9444842612481320  0.0510364868604375
  0.2556270470194934  0.7211657138487683  0.0457563408513991
  0.3552977120999557  0.7756174801160923  0.0494305892994715
  0.3569043934098332  0.8870390127753482  0.0518738224476535
  0.2569609449498886  0.9435503276425863  0.0505147894124758
  0.4545204187192861  0.7173542681716831  0.0547507803914965
  0.5567468800129394  0.8837421209227346  0.0617327071483859
  0.4569979783068122  0.9421265786919388  0.0571398490425681
  0.7581712285627717  0.8831172735102373  0.0624462172484865
  0.6577282138329367  0.9398111732139749  0.0635045985301024
  0.8587749792244244  0.7244005125975405  0.0538704375946627
  0.9577659125716589  0.7785576962955038  0.0498757289808496
  0.9573597231636294  0.8891620647757834  0.0529505448239277
  0.8564255307577757  0.9423020770843364  0.0578233395289870
  0.4534634432283217  0.3903426189699620  0.0617686152912240
  0.4536457318109673  0.6060759377581219  0.0556001090064885
  0.6580690284608801  0.3910198091298323  0.0700476906335395
  0.7585931769475713  0.5609622795637313  0.0587174562772771
  0.5522532175596436  0.7738551715215652  0.0638876946422809
  0.7613676220007557  0.7740092147070764  0.0632338760454106
  0.6515931525579982  0.6670901518480092  0.0888137673082015
  0.5542646892468134  0.4929961237539399  0.0885583153398124
  0.6147417155396722  0.5868803685388729  0.1512335956016056
 
  0.00000000E+00  0.00000000E+00  0.00000000E+00
  0.00000000E+00  0.00000000E+00  0.00000000E+00
  0.00000000E+00  0.00000000E+00  0.00000000E+00
  0.00000000E+00  0.00000000E+00  0.00000000E+00
  0.00000000E+00  0.00000000E+00  0.00000000E+00
  0.00000000E+00  0.00000000E+00  0.00000000E+00
  0.00000000E+00  0.00000000E+00  0.00000000E+00
  0.00000000E+00  0.00000000E+00  0.00000000E+00
  0.00000000E+00  0.00000000E+00  0.00000000E+00
  0.00000000E+00  0.00000000E+00  0.00000000E+00
  0.00000000E+00  0.00000000E+00  0.00000000E+00
  0.00000000E+00  0.00000000E+00  0.00000000E+00
  0.00000000E+00  0.00000000E+00  0.00000000E+00
  0.00000000E+00  0.00000000E+00  0.00000000E+00
  0.00000000E+00  0.00000000E+00  0.00000000E+00
  0.00000000E+00  0.00000000E+00  0.00000000E+00
  0.00000000E+00  0.00000000E+00  0.00000000E+00
  0.00000000E+00  0.00000000E+00  0.00000000E+00
  0.00000000E+00  0.00000000E+00  0.00000000E+00
  0.00000000E+00  0.00000000E+00  0.00000000E+00
  0.00000000E+00  0.00000000E+00  0.00000000E+00
  0.00000000E+00  0.00000000E+00  0.00000000E+00
  0.00000000E+00  0.00000000E+00  0.00000000E+00
  0.00000000E+00  0.00000000E+00  0.00000000E+00
  0.00000000E+00  0.00000000E+00  0.00000000E+00
  0.00000000E+00  0.00000000E+00  0.00000000E+00
  0.00000000E+00  0.00000000E+00  0.00000000E+00
  0.00000000E+00  0.00000000E+00  0.00000000E+00
  0.00000000E+00  0.00000000E+00  0.00000000E+00
  0.00000000E+00  0.00000000E+00  0.00000000E+00
  0.00000000E+00  0.00000000E+00  0.00000000E+00
  0.00000000E+00  0.00000000E+00  0.00000000E+00
  0.00000000E+00  0.00000000E+00  0.00000000E+00
  0.00000000E+00  0.00000000E+00  0.00000000E+00
  0.00000000E+00  0.00000000E+00  0.00000000E+00
  0.00000000E+00  0.00000000E+00  0.00000000E+00
  0.00000000E+00  0.00000000E+00  0.00000000E+00
  0.00000000E+00  0.00000000E+00  0.00000000E+00
  0.00000000E+00  0.00000000E+00  0.00000000E+00
  0.00000000E+00  0.00000000E+00  0.00000000E+00
  0.00000000E+00  0.00000000E+00  0.00000000E+00
  0.00000000E+00  0.00000000E+00  0.00000000E+00
  0.00000000E+00  0.00000000E+00  0.00000000E+00
  0.00000000E+00  0.00000000E+00  0.00000000E+00
  0.00000000E+00  0.00000000E+00  0.00000000E+00
  0.00000000E+00  0.00000000E+00  0.00000000E+00
  0.00000000E+00  0.00000000E+00  0.00000000E+00
  0.00000000E+00  0.00000000E+00  0.00000000E+00
  0.00000000E+00  0.00000000E+00  0.00000000E+00
  0.00000000E+00  0.00000000E+00  0.00000000E+00
  0.00000000E+00  0.00000000E+00  0.00000000E+00
  0.00000000E+00  0.00000000E+00  0.00000000E+00
  0.00000000E+00  0.00000000E+00  0.00000000E+00
  0.00000000E+00  0.00000000E+00  0.00000000E+00
  0.00000000E+00  0.00000000E+00  0.00000000E+00
  0.00000000E+00  0.00000000E+00  0.00000000E+00
  0.00000000E+00  0.00000000E+00  0.00000000E+00
  0.00000000E+00  0.00000000E+00  0.00000000E+00
  0.00000000E+00  0.00000000E+00  0.00000000E+00
