235                                     
   1.00000000000000     
    12.3312997818000003    0.0000000000000000    0.0000000000000000
     0.0001127485000000   12.8291997905000006    0.0000000000000000
     0.0005937186000000    0.0011528207000000   19.9943999824000009
   C    N    Fe   Ni   O 
    53     3     1     1     1
Direct
  0.0555143469303758  0.0548981398348911  0.0517002830686666
  0.1560605949664310  0.1105108524994255  0.0517052203090216
  0.1568664996622622  0.2215055767543174  0.0506351639048617
  0.0566578909618712  0.2758881265413692  0.0496560467452626
  0.2562109687660648  0.0557179191629521  0.0532253987431733
  0.3569032759295978  0.1110262835125470  0.0564920164502613
  0.3575711017631988  0.2228949284280349  0.0561049898894276
  0.2572050998062119  0.2776843335091896  0.0514501271231737
  0.4564619125160851  0.0547211099933068  0.0601189996063567
  0.5563950128034154  0.1110327768116347  0.0634716380913066
  0.5571734516892444  0.2234819032667252  0.0649886344868751
  0.4572108791885274  0.2804720704136283  0.0611183113652403
  0.6549188200516324  0.0511638086262111  0.0632443362954438
  0.7548425597462212  0.1089175305493611  0.0602460138194949
  0.7557962731934096  0.2217465764944246  0.0604532233353806
  0.6576871481954263  0.2815830275747637  0.0659506380492707
  0.8545776834515639  0.0530953193034950  0.0563829637764551
  0.9549801430805039  0.1094338261924003  0.0534400675060239
  0.9558302496957347  0.2207227978338233  0.0525703166467838
  0.8561185562157391  0.2767161891584543  0.0554104499294884
  0.0578291383165179  0.3866705528525051  0.0471621844801846
  0.1569280009779692  0.4431416534758521  0.0459419999231275
  0.1564730309377957  0.5544408886140439  0.0447934167628344
  0.0578787930343583  0.6099286220879253  0.0444784210773289
  0.2571433587014732  0.3889880249104778  0.0487978201245712
  0.3569163773297812  0.4458680317729209  0.0519045739908923
  0.3552191339414063  0.5592462255088779  0.0504856415788741
  0.2549540394604956  0.6118043440958960  0.0466048082225373
  0.7605043241337068  0.4480852359769184  0.0585696885797774
  0.8580796158674908  0.3884033922651289  0.0530866698055300
  0.9584483819440723  0.4420620638924392  0.0478967678772855
  0.9594534031158110  0.5526015707736649  0.0461976405929887
  0.8606659310302005  0.6067717012818232  0.0494561132803855
  0.0567865752907859  0.7213011475146679  0.0453832720231494
  0.1548969945186232  0.7780566027015946  0.0466963883982551
  0.1550910153809772  0.8891246895450012  0.0491350112634357
  0.0550672457881175  0.9439019801654223  0.0503177464254135
  0.2538604065250297  0.7224952139086791  0.0477724439913322
  0.3524151788295933  0.7780303797353576  0.0526216972636161
  0.3543296755465125  0.8888412155467228  0.0546053571517863
  0.2550940053475804  0.9447116735684259  0.0519714121333638
  0.4496762279683478  0.7204435924559309  0.0579074077833043
  0.5521351242050520  0.8817037219780834  0.0638185106804808
  0.4550740521193399  0.9423197640587000  0.0596187721826324
  0.7549236337457392  0.8817994448859151  0.0603332888982735
  0.6540162073635278  0.9380321357744549  0.0638478484512923
  0.8589120474284446  0.7194051443047613  0.0509065086213131
  0.9571416045099895  0.7762041751391020  0.0481439850562646
  0.9552621255769114  0.8873047045753298  0.0510398894104249
  0.8542227637520393  0.9409647763767177  0.0556798690510416
  0.4557751761922104  0.3919975896029278  0.0609277333942734
  0.6606679687311279  0.3931789655308823  0.0697150562629724
  0.7590006782294790  0.7703389443912625  0.0589593681103118
  0.7646793699704055  0.5564725621003030  0.0551898135929725
  0.5468219387479416  0.7728874751027773  0.0654705536614508
  0.4500440402135875  0.6132931602115854  0.0562233520758204
  0.6524829784827900  0.6650630827594420  0.0772666515928530
  0.5558932003259656  0.4904771659084561  0.0868051190904312
  0.6159936478052672  0.5884753481880424  0.1446123749952418
 
  0.00000000E+00  0.00000000E+00  0.00000000E+00
  0.00000000E+00  0.00000000E+00  0.00000000E+00
  0.00000000E+00  0.00000000E+00  0.00000000E+00
  0.00000000E+00  0.00000000E+00  0.00000000E+00
  0.00000000E+00  0.00000000E+00  0.00000000E+00
  0.00000000E+00  0.00000000E+00  0.00000000E+00
  0.00000000E+00  0.00000000E+00  0.00000000E+00
  0.00000000E+00  0.00000000E+00  0.00000000E+00
  0.00000000E+00  0.00000000E+00  0.00000000E+00
  0.00000000E+00  0.00000000E+00  0.00000000E+00
  0.00000000E+00  0.00000000E+00  0.00000000E+00
  0.00000000E+00  0.00000000E+00  0.00000000E+00
  0.00000000E+00  0.00000000E+00  0.00000000E+00
  0.00000000E+00  0.00000000E+00  0.00000000E+00
  0.00000000E+00  0.00000000E+00  0.00000000E+00
  0.00000000E+00  0.00000000E+00  0.00000000E+00
  0.00000000E+00  0.00000000E+00  0.00000000E+00
  0.00000000E+00  0.00000000E+00  0.00000000E+00
  0.00000000E+00  0.00000000E+00  0.00000000E+00
  0.00000000E+00  0.00000000E+00  0.00000000E+00
  0.00000000E+00  0.00000000E+00  0.00000000E+00
  0.00000000E+00  0.00000000E+00  0.00000000E+00
  0.00000000E+00  0.00000000E+00  0.00000000E+00
  0.00000000E+00  0.00000000E+00  0.00000000E+00
  0.00000000E+00  0.00000000E+00  0.00000000E+00
  0.00000000E+00  0.00000000E+00  0.00000000E+00
  0.00000000E+00  0.00000000E+00  0.00000000E+00
  0.00000000E+00  0.00000000E+00  0.00000000E+00
  0.00000000E+00  0.00000000E+00  0.00000000E+00
  0.00000000E+00  0.00000000E+00  0.00000000E+00
  0.00000000E+00  0.00000000E+00  0.00000000E+00
  0.00000000E+00  0.00000000E+00  0.00000000E+00
  0.00000000E+00  0.00000000E+00  0.00000000E+00
  0.00000000E+00  0.00000000E+00  0.00000000E+00
  0.00000000E+00  0.00000000E+00  0.00000000E+00
  0.00000000E+00  0.00000000E+00  0.00000000E+00
  0.00000000E+00  0.00000000E+00  0.00000000E+00
  0.00000000E+00  0.00000000E+00  0.00000000E+00
  0.00000000E+00  0.00000000E+00  0.00000000E+00
  0.00000000E+00  0.00000000E+00  0.00000000E+00
  0.00000000E+00  0.00000000E+00  0.00000000E+00
  0.00000000E+00  0.00000000E+00  0.00000000E+00
  0.00000000E+00  0.00000000E+00  0.00000000E+00
  0.00000000E+00  0.00000000E+00  0.00000000E+00
  0.00000000E+00  0.00000000E+00  0.00000000E+00
  0.00000000E+00  0.00000000E+00  0.00000000E+00
  0.00000000E+00  0.00000000E+00  0.00000000E+00
  0.00000000E+00  0.00000000E+00  0.00000000E+00
  0.00000000E+00  0.00000000E+00  0.00000000E+00
  0.00000000E+00  0.00000000E+00  0.00000000E+00
  0.00000000E+00  0.00000000E+00  0.00000000E+00
  0.00000000E+00  0.00000000E+00  0.00000000E+00
  0.00000000E+00  0.00000000E+00  0.00000000E+00
  0.00000000E+00  0.00000000E+00  0.00000000E+00
  0.00000000E+00  0.00000000E+00  0.00000000E+00
  0.00000000E+00  0.00000000E+00  0.00000000E+00
  0.00000000E+00  0.00000000E+00  0.00000000E+00
  0.00000000E+00  0.00000000E+00  0.00000000E+00
  0.00000000E+00  0.00000000E+00  0.00000000E+00
