12456                                   
   1.00000000000000     
    12.3312997818000003    0.0000000000000000    0.0000000000000000
     0.0001127485000000   12.8291997905000006    0.0000000000000000
     0.0005937186000000    0.0011528207000000   19.9943999824000009
   C    N    Fe   Ni   O    H 
    51     5     1     1     1     1
Direct
  0.0557599301260703  0.0549432447365743  0.0492916683538648
  0.1563247917336386  0.1101701113809970  0.0497153557992555
  0.1558188623385277  0.2209735700401634  0.0483403511386348
  0.0557244995511362  0.2766050837477835  0.0471920466912025
  0.2571027167194178  0.0553616839186453  0.0521928595006426
  0.3573562647357183  0.1114580495625154  0.0552043489467528
  0.3564057020525422  0.2235471550485279  0.0540442509400172
  0.2554277530471604  0.2768149552031147  0.0494606308650484
  0.4575846321144413  0.0556225862663786  0.0593978410103811
  0.5570206249203817  0.1142912078664979  0.0614264852043187
  0.5572253161008467  0.2290708217161143  0.0617489926593709
  0.4547052082883759  0.2841391736228309  0.0582740381769449
  0.6555886649636384  0.0538466591941449  0.0607708507454579
  0.7548002546346371  0.1113700021892653  0.0569819925908716
  0.7556126038717084  0.2240001464227496  0.0572602211333291
  0.6586393829456113  0.2857319856136792  0.0620741017604462
  0.8547631832573428  0.0548711190398792  0.0530962451385187
  0.9553412357725911  0.1100451437875268  0.0505829217175544
  0.9557578811676890  0.2214238569801277  0.0499036385823860
  0.8564433442254573  0.2778368857086457  0.0527613279011691
  0.0559225376055058  0.3876686064525623  0.0450156736912136
  0.1548343998344009  0.4437349105296676  0.0442028336975744
  0.1548234424145748  0.5546029355526750  0.0437906645925290
  0.0561157002885602  0.6110924295079952  0.0433345931564239
  0.2538138492671670  0.3878829405971584  0.0472586805401546
  0.3523027630667232  0.4427623589896930  0.0518388597887389
  0.3521631101261060  0.5553117781576691  0.0535450043470570
  0.2535893931959596  0.6103879679771163  0.0477031569708661
  0.7604879528540008  0.4471481790354089  0.0568914903395077
  0.8582863464540462  0.3889106329649568  0.0511752291064061
  0.9571925747787812  0.4439082302176419  0.0462460744776374
  0.9570621959916608  0.5552487457804282  0.0450795724406016
  0.8571545792245533  0.6088159973987485  0.0484300565549636
  0.0562083447585832  0.7218691198141866  0.0443931949625302
  0.1555300403437393  0.7778906073880170  0.0466208749483680
  0.1564288964045344  0.8887906620438125  0.0485738694733669
  0.0559780263704853  0.9440606421032934  0.0483150510871926
  0.2542503487611700  0.7217124552349612  0.0493602298838482
  0.3539428044978872  0.7753251771833305  0.0557483840097399
  0.3565317015788523  0.8873126509088759  0.0564196401024727
  0.2568575988333642  0.9437241521145789  0.0521661519869993
  0.4511789838915142  0.7152912631597355  0.0636751097470191
  0.5551401826709131  0.8818635299581040  0.0658066196790093
  0.4570488570161094  0.9427473554106000  0.0608157904163100
  0.7567158371847965  0.8839780347184338  0.0564518056445777
  0.6556519793921864  0.9397709366242760  0.0621546642377021
  0.8573655749783117  0.7221305584425433  0.0486517697273645
  0.9566864599259384  0.7770909679746146  0.0462729508652290
  0.9560624134926583  0.8885590674446691  0.0484396792935949
  0.8553947846231668  0.9429242319763932  0.0520238229748703
  0.5505034675571767  0.7698449389567873  0.0718022973483378
  0.4490104369771925  0.3915305569200943  0.0584671220249201
  0.6643054406328806  0.3949920884841223  0.0650888514964860
  0.7608804844849931  0.5547991872672489  0.0544440163077407
  0.7607509147548491  0.7757739818203093  0.0557210153447215
  0.4480797863316454  0.6059375047046156  0.0629943513514988
  0.6636989942350429  0.6732449455055194  0.0873696640577177
  0.5527188600847643  0.4959456063753899  0.0786965209132501
  0.6148121047859633  0.5822888497239292  0.1535335686721048
  0.5523049227623259  0.6103416725336848  0.1774909308831626
 
  0.00000000E+00  0.00000000E+00  0.00000000E+00
  0.00000000E+00  0.00000000E+00  0.00000000E+00
  0.00000000E+00  0.00000000E+00  0.00000000E+00
  0.00000000E+00  0.00000000E+00  0.00000000E+00
  0.00000000E+00  0.00000000E+00  0.00000000E+00
  0.00000000E+00  0.00000000E+00  0.00000000E+00
  0.00000000E+00  0.00000000E+00  0.00000000E+00
  0.00000000E+00  0.00000000E+00  0.00000000E+00
  0.00000000E+00  0.00000000E+00  0.00000000E+00
  0.00000000E+00  0.00000000E+00  0.00000000E+00
  0.00000000E+00  0.00000000E+00  0.00000000E+00
  0.00000000E+00  0.00000000E+00  0.00000000E+00
  0.00000000E+00  0.00000000E+00  0.00000000E+00
  0.00000000E+00  0.00000000E+00  0.00000000E+00
  0.00000000E+00  0.00000000E+00  0.00000000E+00
  0.00000000E+00  0.00000000E+00  0.00000000E+00
  0.00000000E+00  0.00000000E+00  0.00000000E+00
  0.00000000E+00  0.00000000E+00  0.00000000E+00
  0.00000000E+00  0.00000000E+00  0.00000000E+00
  0.00000000E+00  0.00000000E+00  0.00000000E+00
  0.00000000E+00  0.00000000E+00  0.00000000E+00
  0.00000000E+00  0.00000000E+00  0.00000000E+00
  0.00000000E+00  0.00000000E+00  0.00000000E+00
  0.00000000E+00  0.00000000E+00  0.00000000E+00
  0.00000000E+00  0.00000000E+00  0.00000000E+00
  0.00000000E+00  0.00000000E+00  0.00000000E+00
  0.00000000E+00  0.00000000E+00  0.00000000E+00
  0.00000000E+00  0.00000000E+00  0.00000000E+00
  0.00000000E+00  0.00000000E+00  0.00000000E+00
  0.00000000E+00  0.00000000E+00  0.00000000E+00
  0.00000000E+00  0.00000000E+00  0.00000000E+00
  0.00000000E+00  0.00000000E+00  0.00000000E+00
  0.00000000E+00  0.00000000E+00  0.00000000E+00
  0.00000000E+00  0.00000000E+00  0.00000000E+00
  0.00000000E+00  0.00000000E+00  0.00000000E+00
  0.00000000E+00  0.00000000E+00  0.00000000E+00
  0.00000000E+00  0.00000000E+00  0.00000000E+00
  0.00000000E+00  0.00000000E+00  0.00000000E+00
  0.00000000E+00  0.00000000E+00  0.00000000E+00
  0.00000000E+00  0.00000000E+00  0.00000000E+00
  0.00000000E+00  0.00000000E+00  0.00000000E+00
  0.00000000E+00  0.00000000E+00  0.00000000E+00
  0.00000000E+00  0.00000000E+00  0.00000000E+00
  0.00000000E+00  0.00000000E+00  0.00000000E+00
  0.00000000E+00  0.00000000E+00  0.00000000E+00
  0.00000000E+00  0.00000000E+00  0.00000000E+00
  0.00000000E+00  0.00000000E+00  0.00000000E+00
  0.00000000E+00  0.00000000E+00  0.00000000E+00
  0.00000000E+00  0.00000000E+00  0.00000000E+00
  0.00000000E+00  0.00000000E+00  0.00000000E+00
  0.00000000E+00  0.00000000E+00  0.00000000E+00
  0.00000000E+00  0.00000000E+00  0.00000000E+00
  0.00000000E+00  0.00000000E+00  0.00000000E+00
  0.00000000E+00  0.00000000E+00  0.00000000E+00
  0.00000000E+00  0.00000000E+00  0.00000000E+00
  0.00000000E+00  0.00000000E+00  0.00000000E+00
  0.00000000E+00  0.00000000E+00  0.00000000E+00
  0.00000000E+00  0.00000000E+00  0.00000000E+00
  0.00000000E+00  0.00000000E+00  0.00000000E+00
  0.00000000E+00  0.00000000E+00  0.00000000E+00
