CONTCAR                                 
   1.00000000000000     
    12.3312997818000003    0.0000000000000000    0.0000000000000000
     0.0001127485000000   12.8291997905000006    0.0000000000000000
     0.0005937186000000    0.0011528207000000   19.9943999824000009
   C    N    Fe   Ni   O    H 
    52     4     1     1     2     2
Direct
  0.0569818438634497  0.0556500877930280  0.0488424459147822
  0.1569414144795220  0.1113933246368955  0.0485934842508182
  0.1567028323078586  0.2222285445718317  0.0482677785417296
  0.0568912222645275  0.2776169195628836  0.0482292412718964
  0.2574264507000449  0.0566009121317158  0.0492460479894466
  0.3577712192302979  0.1124668944257129  0.0508203816632610
  0.3572177118293140  0.2241748962273262  0.0505402492148542
  0.2563596473161877  0.2778583589249577  0.0486911352304897
  0.4577842995447527  0.0568661285956829  0.0529532642304223
  0.5573996397639147  0.1140968339222494  0.0550287927879142
  0.5574319648420455  0.2278428461527365  0.0553193650066274
  0.4556719234611948  0.2839024699424542  0.0525356752256093
  0.6562492617226492  0.0532975293392671  0.0558172862137059
  0.7559507158652637  0.1104917766440326  0.0542419445676458
  0.7572656000025541  0.2227609530458448  0.0542492554565226
  0.6594250459044175  0.2834713878401414  0.0566239740378772
  0.8560910252782949  0.0549125505730555  0.0520929959220793
  0.9565257025741962  0.1104793425984195  0.0499939488587024
  0.9572510242414971  0.2215738130014082  0.0496742686063020
  0.8577065293396029  0.2772273495897378  0.0517500326519181
  0.0572392158115154  0.3889169806758503  0.0476232227732867
  0.1560847157366795  0.4446304994382314  0.0470740891641218
  0.1565599196848153  0.5557832646678780  0.0464136558639735
  0.0570275303303974  0.6113829121849907  0.0466417517774101
  0.2553910535779551  0.3885901586067926  0.0481649151078059
  0.3545113648944720  0.4430398746819449  0.0494982437243666
  0.3570048937681095  0.5559308777896708  0.0504141267456759
  0.2565401008790152  0.6110748399105658  0.0473654392347416
  0.7606192658141149  0.4442242726505688  0.0561922273449977
  0.8593448066127553  0.3884819331618535  0.0517539760370235
  0.9578445988199460  0.4449113324540432  0.0489304415448487
  0.9571479591866752  0.5559727365371743  0.0485900325551916
  0.8562162570743859  0.6109261529967507  0.0524888455748852
  0.0575435346829141  0.7224956045382144  0.0468534932994809
  0.1565905480296095  0.7780780445004453  0.0469528231864209
  0.1570283991182574  0.8894428034358030  0.0477248839826204
  0.0571981643273876  0.9448532159744747  0.0484763890843385
  0.2559487428423203  0.7221064124300864  0.0476507216113141
  0.3547497617807107  0.7780090797923187  0.0499132434149036
  0.3563736884029868  0.8894609515488420  0.0502795096394323
  0.2567363475807177  0.9453818882294233  0.0487511042398307
  0.4539524690117286  0.7220468742427649  0.0540837535938478
  0.5542102327756411  0.8839593243687787  0.0561239867114915
  0.4565003419855024  0.9445643654202245  0.0529577061312569
  0.7583307237487975  0.8838274318026444  0.0558030294365145
  0.6562798605673540  0.9396538547203052  0.0568127866103211
  0.8588257346610566  0.7245469420644075  0.0521515866813393
  0.9582861534811867  0.7785090790978997  0.0487387728539350
  0.9574343080930733  0.8893238453645304  0.0496622054161438
  0.8567223819541163  0.9432462075853749  0.0523137731829055
  0.4573430987795136  0.6091451706495730  0.0559587710495925
  0.7569562294893024  0.5559607348478289  0.0585401675027372
  0.4506644977461256  0.3913626740123053  0.0507527235046125
  0.6645479117858957  0.3900314177019270  0.0585333101043651
  0.5489807454901379  0.7774415778730416  0.0574027807155564
  0.7633139855023960  0.7765393295999665  0.0571535815505669
  0.6510421185660226  0.6647926357887259  0.0885158470653929
  0.5603375019754289  0.4977856085025318  0.0723367785660484
  0.5498398877228760  0.4853821743163270  0.1661550412572042
  0.6540217665678865  0.6815113398289727  0.1806635203813473
  0.7238830728318785  0.6771295723940177  0.2031637747690226
  0.5760311047767395  0.5505932360925447  0.1864314153665184
 
  0.00000000E+00  0.00000000E+00  0.00000000E+00
  0.00000000E+00  0.00000000E+00  0.00000000E+00
  0.00000000E+00  0.00000000E+00  0.00000000E+00
  0.00000000E+00  0.00000000E+00  0.00000000E+00
  0.00000000E+00  0.00000000E+00  0.00000000E+00
  0.00000000E+00  0.00000000E+00  0.00000000E+00
  0.00000000E+00  0.00000000E+00  0.00000000E+00
  0.00000000E+00  0.00000000E+00  0.00000000E+00
  0.00000000E+00  0.00000000E+00  0.00000000E+00
  0.00000000E+00  0.00000000E+00  0.00000000E+00
  0.00000000E+00  0.00000000E+00  0.00000000E+00
  0.00000000E+00  0.00000000E+00  0.00000000E+00
  0.00000000E+00  0.00000000E+00  0.00000000E+00
  0.00000000E+00  0.00000000E+00  0.00000000E+00
  0.00000000E+00  0.00000000E+00  0.00000000E+00
  0.00000000E+00  0.00000000E+00  0.00000000E+00
  0.00000000E+00  0.00000000E+00  0.00000000E+00
  0.00000000E+00  0.00000000E+00  0.00000000E+00
  0.00000000E+00  0.00000000E+00  0.00000000E+00
  0.00000000E+00  0.00000000E+00  0.00000000E+00
  0.00000000E+00  0.00000000E+00  0.00000000E+00
  0.00000000E+00  0.00000000E+00  0.00000000E+00
  0.00000000E+00  0.00000000E+00  0.00000000E+00
  0.00000000E+00  0.00000000E+00  0.00000000E+00
  0.00000000E+00  0.00000000E+00  0.00000000E+00
  0.00000000E+00  0.00000000E+00  0.00000000E+00
  0.00000000E+00  0.00000000E+00  0.00000000E+00
  0.00000000E+00  0.00000000E+00  0.00000000E+00
  0.00000000E+00  0.00000000E+00  0.00000000E+00
  0.00000000E+00  0.00000000E+00  0.00000000E+00
  0.00000000E+00  0.00000000E+00  0.00000000E+00
  0.00000000E+00  0.00000000E+00  0.00000000E+00
  0.00000000E+00  0.00000000E+00  0.00000000E+00
  0.00000000E+00  0.00000000E+00  0.00000000E+00
  0.00000000E+00  0.00000000E+00  0.00000000E+00
  0.00000000E+00  0.00000000E+00  0.00000000E+00
  0.00000000E+00  0.00000000E+00  0.00000000E+00
  0.00000000E+00  0.00000000E+00  0.00000000E+00
  0.00000000E+00  0.00000000E+00  0.00000000E+00
  0.00000000E+00  0.00000000E+00  0.00000000E+00
  0.00000000E+00  0.00000000E+00  0.00000000E+00
  0.00000000E+00  0.00000000E+00  0.00000000E+00
  0.00000000E+00  0.00000000E+00  0.00000000E+00
  0.00000000E+00  0.00000000E+00  0.00000000E+00
  0.00000000E+00  0.00000000E+00  0.00000000E+00
  0.00000000E+00  0.00000000E+00  0.00000000E+00
  0.00000000E+00  0.00000000E+00  0.00000000E+00
  0.00000000E+00  0.00000000E+00  0.00000000E+00
  0.00000000E+00  0.00000000E+00  0.00000000E+00
  0.00000000E+00  0.00000000E+00  0.00000000E+00
  0.00000000E+00  0.00000000E+00  0.00000000E+00
  0.00000000E+00  0.00000000E+00  0.00000000E+00
  0.00000000E+00  0.00000000E+00  0.00000000E+00
  0.00000000E+00  0.00000000E+00  0.00000000E+00
  0.00000000E+00  0.00000000E+00  0.00000000E+00
  0.00000000E+00  0.00000000E+00  0.00000000E+00
  0.00000000E+00  0.00000000E+00  0.00000000E+00
  0.00000000E+00  0.00000000E+00  0.00000000E+00
  0.00000000E+00  0.00000000E+00  0.00000000E+00
  0.00000000E+00  0.00000000E+00  0.00000000E+00
  0.00000000E+00  0.00000000E+00  0.00000000E+00
  0.00000000E+00  0.00000000E+00  0.00000000E+00
