an6                                     
   1.00000000000000     
    12.3312997818000003    0.0000000000000000    0.0000000000000000
     0.0001127485000000   12.8291997905000006    0.0000000000000000
     0.0005937186000000    0.0011528207000000   19.9943999824000009
   C    N    Fe   Ni
    54     2     1     1
Direct
  0.0564952857059961  0.0542897251114037  0.0557885236938065
  0.1566747296537393  0.1104396979486620  0.0558065268575187
  0.1575819955238721  0.2215846965222098  0.0557844561770950
  0.0577896436879949  0.2759184821927622  0.0557498537663119
  0.2567694252643383  0.0560020349635093  0.0558144802003312
  0.3570771019791554  0.1127841740390624  0.0557667436923037
  0.3581197961397614  0.2246737804369425  0.0557357127702083
  0.2574280116036811  0.2784267519824477  0.0557706746726827
  0.4563561915637051  0.0570294058701839  0.0557367612803104
  0.5569696910008511  0.1130386794748979  0.0556989440301072
  0.5578937457636186  0.2248385699078038  0.0556730679459943
  0.4584819651865182  0.2827322123215650  0.0556776741455614
  0.6558995375850525  0.0538604563041988  0.0556938082166062
  0.7563888379636017  0.1094337783630742  0.0556996573194169
  0.7581196978458138  0.2208539751427639  0.0556867870661676
  0.6596706177585545  0.2799855619869889  0.0556617296885446
  0.8556646835120933  0.0531113967543567  0.0557133154162624
  0.9563848911789122  0.1086846659647125  0.0557432268503927
  0.9579717656100666  0.2194338492715012  0.0557235800091152
  0.8588189350577694  0.2746990347725235  0.0556880752740946
  0.0580739082827996  0.3870900543109809  0.0557457676804946
  0.1565333279122346  0.4436430493090970  0.0557795305285090
  0.1557107373340378  0.5550873323995827  0.0557849766834216
  0.0560031887927388  0.6097453269530855  0.0557636613147496
  0.2563551327173098  0.3894039487971431  0.0557674568706492
  0.3557399502343143  0.4461897407731133  0.0557212011740270
  0.3556002279027626  0.5587326194891314  0.0557124150519341
  0.2548514558976111  0.6121082894473128  0.0557698587017714
  0.7616912411935635  0.4404305065412050  0.0556302729576573
  0.8604107367063762  0.3852251399522754  0.0556709508699507
  0.9584976070905555  0.4421629372328521  0.0557073697341915
  0.9565562713058449  0.5528849103639786  0.0557123795630682
  0.8551470431539540  0.6058210481383688  0.0556578605174679
  0.0553318076819235  0.7212068264030975  0.0557848923582726
  0.1540592854948708  0.7776773470467223  0.0558151734947383
  0.1551995673473544  0.8889103564080406  0.0558282112956647
  0.0553255432024556  0.9433773660964547  0.0557968900139008
  0.2534280440726087  0.7226805911443386  0.0557881805160548
  0.3528674422215618  0.7774597589490466  0.0557569066616396
  0.3551449850286312  0.8890467508336224  0.0557856128826568
  0.2554675210878193  0.9446798895117312  0.0558294171350595
  0.4515419685517736  0.7198768840271879  0.0556739155756351
  0.5531061654029306  0.8874180767181092  0.0556765405970780
  0.4548883765441184  0.9452977215078225  0.0557411742939067
  0.7540352585822163  0.8838405796540399  0.0556440018932968
  0.6548545371324255  0.9425768366887420  0.0556692898349355
  0.8558125972028224  0.7196930979181293  0.0556690944744730
  0.9552265220713423  0.7759404836340782  0.0557444312652063
  0.9550158086579118  0.8871040265488567  0.0557446618603268
  0.8544479084515537  0.9412643121293889  0.0556952294485959
  0.4551490587335023  0.3941088571507732  0.0556569929965837
  0.7555681454581374  0.5505799687667514  0.0556116415292870
  0.5496667750287547  0.7779607406397808  0.0556364147567844
  0.7557886487416984  0.7719561293372307  0.0556107688497946
  0.4528239477306206  0.6097085477712337  0.0556480094815273
  0.6646491840432315  0.3859621729674619  0.0556336786812999
  0.6429594607722938  0.6676944909477224  0.0555898665393798
  0.5672441056482581  0.4921723021599227  0.0556217148431444
 
  0.00000000E+00  0.00000000E+00  0.00000000E+00
  0.00000000E+00  0.00000000E+00  0.00000000E+00
  0.00000000E+00  0.00000000E+00  0.00000000E+00
  0.00000000E+00  0.00000000E+00  0.00000000E+00
  0.00000000E+00  0.00000000E+00  0.00000000E+00
  0.00000000E+00  0.00000000E+00  0.00000000E+00
  0.00000000E+00  0.00000000E+00  0.00000000E+00
  0.00000000E+00  0.00000000E+00  0.00000000E+00
  0.00000000E+00  0.00000000E+00  0.00000000E+00
  0.00000000E+00  0.00000000E+00  0.00000000E+00
  0.00000000E+00  0.00000000E+00  0.00000000E+00
  0.00000000E+00  0.00000000E+00  0.00000000E+00
  0.00000000E+00  0.00000000E+00  0.00000000E+00
  0.00000000E+00  0.00000000E+00  0.00000000E+00
  0.00000000E+00  0.00000000E+00  0.00000000E+00
  0.00000000E+00  0.00000000E+00  0.00000000E+00
  0.00000000E+00  0.00000000E+00  0.00000000E+00
  0.00000000E+00  0.00000000E+00  0.00000000E+00
  0.00000000E+00  0.00000000E+00  0.00000000E+00
  0.00000000E+00  0.00000000E+00  0.00000000E+00
  0.00000000E+00  0.00000000E+00  0.00000000E+00
  0.00000000E+00  0.00000000E+00  0.00000000E+00
  0.00000000E+00  0.00000000E+00  0.00000000E+00
  0.00000000E+00  0.00000000E+00  0.00000000E+00
  0.00000000E+00  0.00000000E+00  0.00000000E+00
  0.00000000E+00  0.00000000E+00  0.00000000E+00
  0.00000000E+00  0.00000000E+00  0.00000000E+00
  0.00000000E+00  0.00000000E+00  0.00000000E+00
  0.00000000E+00  0.00000000E+00  0.00000000E+00
  0.00000000E+00  0.00000000E+00  0.00000000E+00
  0.00000000E+00  0.00000000E+00  0.00000000E+00
  0.00000000E+00  0.00000000E+00  0.00000000E+00
  0.00000000E+00  0.00000000E+00  0.00000000E+00
  0.00000000E+00  0.00000000E+00  0.00000000E+00
  0.00000000E+00  0.00000000E+00  0.00000000E+00
  0.00000000E+00  0.00000000E+00  0.00000000E+00
  0.00000000E+00  0.00000000E+00  0.00000000E+00
  0.00000000E+00  0.00000000E+00  0.00000000E+00
  0.00000000E+00  0.00000000E+00  0.00000000E+00
  0.00000000E+00  0.00000000E+00  0.00000000E+00
  0.00000000E+00  0.00000000E+00  0.00000000E+00
  0.00000000E+00  0.00000000E+00  0.00000000E+00
  0.00000000E+00  0.00000000E+00  0.00000000E+00
  0.00000000E+00  0.00000000E+00  0.00000000E+00
  0.00000000E+00  0.00000000E+00  0.00000000E+00
  0.00000000E+00  0.00000000E+00  0.00000000E+00
  0.00000000E+00  0.00000000E+00  0.00000000E+00
  0.00000000E+00  0.00000000E+00  0.00000000E+00
  0.00000000E+00  0.00000000E+00  0.00000000E+00
  0.00000000E+00  0.00000000E+00  0.00000000E+00
  0.00000000E+00  0.00000000E+00  0.00000000E+00
  0.00000000E+00  0.00000000E+00  0.00000000E+00
  0.00000000E+00  0.00000000E+00  0.00000000E+00
  0.00000000E+00  0.00000000E+00  0.00000000E+00
  0.00000000E+00  0.00000000E+00  0.00000000E+00
  0.00000000E+00  0.00000000E+00  0.00000000E+00
  0.00000000E+00  0.00000000E+00  0.00000000E+00
  0.00000000E+00  0.00000000E+00  0.00000000E+00
