CONTCAR\(14)                            
   1.00000000000000     
    12.3312997818000003    0.0000000000000000    0.0000000000000000
     0.0001127485000000   12.8291997905000006    0.0000000000000000
     0.0005937186000000    0.0011528207000000   19.9943999824000009
   C    N    Fe   Ni   H 
    52     4     1     1     1
Direct
  0.0558655714444335  0.0549909610982596  0.0522922806033808
  0.1563414112714723  0.1105880643621178  0.0527622047864348
  0.1563739432643400  0.2214618980524813  0.0512093176706743
  0.0562270498748507  0.2762476010330238  0.0496755986130841
  0.2566692440428499  0.0561106472507088  0.0551806679659250
  0.3569697528803120  0.1120677448908384  0.0579701883484004
  0.3565598565975366  0.2238837967205925  0.0567428239137444
  0.2559571626524653  0.2775072807911481  0.0522923910544460
  0.4569547575345017  0.0563181557451692  0.0616975166449855
  0.5560891988314403  0.1139502623405698  0.0635999637913815
  0.5565912649637136  0.2283786132211538  0.0639822507309353
  0.4551431310723874  0.2840593822069233  0.0601529209967910
  0.6541044882663642  0.0530869848696558  0.0628356095145440
  0.7542369446712962  0.1102232249067835  0.0594696880610763
  0.7556860481361184  0.2229512552630639  0.0596889744478119
  0.6580501102202779  0.2845823968834428  0.0648069086237337
  0.8543999177835055  0.0539796315264195  0.0557466198807619
  0.9550904860247803  0.1095159680865280  0.0533329247891522
  0.9560237670507431  0.2206953070554954  0.0522026308003306
  0.8566268708489559  0.2766987237458687  0.0545312150732622
  0.0569317351850298  0.3870931840002095  0.0471878480521743
  0.1559018696329778  0.4436847619968164  0.0471522551801762
  0.1566760412482671  0.5545889515582807  0.0465128944268095
  0.0582456537330816  0.6105573688690096  0.0450110039837336
  0.2551644250705657  0.3887499968933196  0.0504246776112099
  0.3539959638944588  0.4440905300432288  0.0543199291578852
  0.3544787593863885  0.5566106578298965  0.0563188826457620
  0.2555547973620187  0.6106777462165346  0.0507865305294490
  0.7606782114895974  0.4453686515261037  0.0579565479075631
  0.8584331440374415  0.3878111754738988  0.0517806401977997
  0.9580617275406311  0.4428557409781411  0.0470027939629059
  0.9597356299402976  0.5536923375423253  0.0454704756144197
  0.8612572197594779  0.6087145205729008  0.0479258657498381
  0.0576730727929367  0.7218921106336683  0.0464094567259909
  0.1561647202232347  0.7779040647928644  0.0494026288194048
  0.1560883750467828  0.8891597975559281  0.0514793805548303
  0.0558600774523119  0.9443091543395771  0.0511312862140840
  0.2548257813086929  0.7218802013853425  0.0522181692170387
  0.3533712668631043  0.7769231151279182  0.0580489996541242
  0.3552328912377430  0.8885771835724343  0.0588783475013520
  0.2560072168078315  0.9446049854035765  0.0550223438782954
  0.4508965513479797  0.7192539993278252  0.0652668869299357
  0.5523827252242524  0.8829501959454413  0.0667308750155095
  0.4557114745327598  0.9433884587159375  0.0629136114613336
  0.7547860911579960  0.8825798394781509  0.0575002544906698
  0.6534660997516955  0.9390742436612781  0.0633369364784901
  0.8605253594803546  0.7211455943295966  0.0483419921565976
  0.9583239219033628  0.7776111444344426  0.0475701213740140
  0.9558261320784044  0.8884971527772059  0.0505389044873412
  0.8543502488130509  0.9418662644285021  0.0543791785671320
  0.7616302686062604  0.5565146879239786  0.0549239568107963
  0.7596564247687903  0.7714770153850139  0.0536272839831785
  0.4505555276316597  0.3915300165956264  0.0588683324328316
  0.4512553301677106  0.6099499755620135  0.0656431427244493
  0.6639429109717835  0.3925399048274558  0.0685182281709897
  0.5466516848976238  0.7731654710236792  0.0717554355224534
  0.6531089920292087  0.6627086779271624  0.0717524421532376
  0.5561190755052345  0.4961067211414755  0.0768856062016780
  0.6180417046866756  0.5692662931530059  0.1268931611436344
 
  0.00000000E+00  0.00000000E+00  0.00000000E+00
  0.00000000E+00  0.00000000E+00  0.00000000E+00
  0.00000000E+00  0.00000000E+00  0.00000000E+00
  0.00000000E+00  0.00000000E+00  0.00000000E+00
  0.00000000E+00  0.00000000E+00  0.00000000E+00
  0.00000000E+00  0.00000000E+00  0.00000000E+00
  0.00000000E+00  0.00000000E+00  0.00000000E+00
  0.00000000E+00  0.00000000E+00  0.00000000E+00
  0.00000000E+00  0.00000000E+00  0.00000000E+00
  0.00000000E+00  0.00000000E+00  0.00000000E+00
  0.00000000E+00  0.00000000E+00  0.00000000E+00
  0.00000000E+00  0.00000000E+00  0.00000000E+00
  0.00000000E+00  0.00000000E+00  0.00000000E+00
  0.00000000E+00  0.00000000E+00  0.00000000E+00
  0.00000000E+00  0.00000000E+00  0.00000000E+00
  0.00000000E+00  0.00000000E+00  0.00000000E+00
  0.00000000E+00  0.00000000E+00  0.00000000E+00
  0.00000000E+00  0.00000000E+00  0.00000000E+00
  0.00000000E+00  0.00000000E+00  0.00000000E+00
  0.00000000E+00  0.00000000E+00  0.00000000E+00
  0.00000000E+00  0.00000000E+00  0.00000000E+00
  0.00000000E+00  0.00000000E+00  0.00000000E+00
  0.00000000E+00  0.00000000E+00  0.00000000E+00
  0.00000000E+00  0.00000000E+00  0.00000000E+00
  0.00000000E+00  0.00000000E+00  0.00000000E+00
  0.00000000E+00  0.00000000E+00  0.00000000E+00
  0.00000000E+00  0.00000000E+00  0.00000000E+00
  0.00000000E+00  0.00000000E+00  0.00000000E+00
  0.00000000E+00  0.00000000E+00  0.00000000E+00
  0.00000000E+00  0.00000000E+00  0.00000000E+00
  0.00000000E+00  0.00000000E+00  0.00000000E+00
  0.00000000E+00  0.00000000E+00  0.00000000E+00
  0.00000000E+00  0.00000000E+00  0.00000000E+00
  0.00000000E+00  0.00000000E+00  0.00000000E+00
  0.00000000E+00  0.00000000E+00  0.00000000E+00
  0.00000000E+00  0.00000000E+00  0.00000000E+00
  0.00000000E+00  0.00000000E+00  0.00000000E+00
  0.00000000E+00  0.00000000E+00  0.00000000E+00
  0.00000000E+00  0.00000000E+00  0.00000000E+00
  0.00000000E+00  0.00000000E+00  0.00000000E+00
  0.00000000E+00  0.00000000E+00  0.00000000E+00
  0.00000000E+00  0.00000000E+00  0.00000000E+00
  0.00000000E+00  0.00000000E+00  0.00000000E+00
  0.00000000E+00  0.00000000E+00  0.00000000E+00
  0.00000000E+00  0.00000000E+00  0.00000000E+00
  0.00000000E+00  0.00000000E+00  0.00000000E+00
  0.00000000E+00  0.00000000E+00  0.00000000E+00
  0.00000000E+00  0.00000000E+00  0.00000000E+00
  0.00000000E+00  0.00000000E+00  0.00000000E+00
  0.00000000E+00  0.00000000E+00  0.00000000E+00
  0.00000000E+00  0.00000000E+00  0.00000000E+00
  0.00000000E+00  0.00000000E+00  0.00000000E+00
  0.00000000E+00  0.00000000E+00  0.00000000E+00
  0.00000000E+00  0.00000000E+00  0.00000000E+00
  0.00000000E+00  0.00000000E+00  0.00000000E+00
  0.00000000E+00  0.00000000E+00  0.00000000E+00
  0.00000000E+00  0.00000000E+00  0.00000000E+00
  0.00000000E+00  0.00000000E+00  0.00000000E+00
  0.00000000E+00  0.00000000E+00  0.00000000E+00
