34                                      
   1.00000000000000     
    12.3312997818000003    0.0000000000000000    0.0000000000000000
     0.0001127485000000   12.8291997905000006    0.0000000000000000
     0.0005937186000000    0.0011528207000000   19.9943999824000009
   C    N    Fe   Ni   O    H 
    54     2     1     1     1     1
Direct
  0.0562653612546395  0.0551780015043788  0.0507354432114414
  0.1564580453070098  0.1106432633425547  0.0507671343320640
  0.1568418239101914  0.2215433058690880  0.0503549714344015
  0.0565596069165019  0.2763827710631504  0.0500459981045762
  0.2566720549570024  0.0555798675754385  0.0520295232172333
  0.3572227731323949  0.1107382365794622  0.0553104152203353
  0.3577938177480885  0.2224830572926643  0.0553330214593419
  0.2572071651460403  0.2769200890366987  0.0513405176147236
  0.4566652870531659  0.0542224555412344  0.0588410199169741
  0.5570583159313047  0.1095263854828668  0.0627088916434172
  0.5572673017118629  0.2213890644452867  0.0644633694831458
  0.4578057444511114  0.2795185850985897  0.0601360682536839
  0.6564706668093268  0.0503552395871571  0.0629022266686327
  0.7558423108705817  0.1082407628015551  0.0601975055255878
  0.7566183523888426  0.2206514265704940  0.0610973377529605
  0.6576706312067648  0.2784533650252201  0.0667809215427160
  0.8555726889219956  0.0529877591294824  0.0560240619580484
  0.9557235691833633  0.1094616005330609  0.0529407339116884
  0.9562692071704273  0.2208835959381066  0.0527794371709844
  0.8564447203476271  0.2766091963922669  0.0564484640433252
  0.0571488080513048  0.3876536746929184  0.0484081817636476
  0.1566165197495988  0.4431274044298867  0.0472857078549765
  0.1569165490426187  0.5546286060249556  0.0460411076699491
  0.0575762580384915  0.6100330211429466  0.0456064204889929
  0.2568471253568049  0.3879208819621512  0.0495899873934155
  0.3561817285380375  0.4437807582711210  0.0523999467557223
  0.3567266454534486  0.5570740399456954  0.0515517881711929
  0.2560123575902216  0.6110964560611879  0.0474848493248076
  0.7581663082568112  0.4461331303676649  0.0626397445571116
  0.8574118587021486  0.3884163428301003  0.0553977213981297
  0.9571891697973174  0.4434125135300676  0.0498373994202661
  0.9582738313527254  0.5544308671052933  0.0480979595921198
  0.8588357926156163  0.6102762391260498  0.0524104017745076
  0.0573041280939490  0.7214029129058863  0.0458896395492674
  0.1557144300319150  0.7776084386774986  0.0463700300626516
  0.1559506204347028  0.8888183518674416  0.0482009091664580
  0.0562369070571762  0.9442790042320923  0.0493740876177971
  0.2550187449913278  0.7218495594305855  0.0474994982180292
  0.3534102540110473  0.7777554851020042  0.0518668964710920
  0.3549548475256981  0.8885218041944523  0.0535062601419753
  0.2557102497823858  0.9445447414251046  0.0507563495224171
  0.4517311243596451  0.7215101549363897  0.0587310429124026
  0.5531435965133152  0.8826370697556638  0.0639793489719241
  0.4553307120992141  0.9426538134310924  0.0585376475961562
  0.7574090864105160  0.8813615745668775  0.0600277036485408
  0.6561033042232483  0.9371727809674696  0.0636590925751967
  0.8598168008161221  0.7229682658073008  0.0524778330573071
  0.9581524772598006  0.7776834035928640  0.0485971661163363
  0.9568945089374203  0.8883570305000548  0.0506593250018445
  0.8557973221187892  0.9410879673647143  0.0553045596073129
  0.4560956742800514  0.3911736968919586  0.0596669880032889
  0.4558724147564153  0.6105780516946004  0.0582004060793654
  0.6598564177131844  0.3885423668257001  0.0723509996446980
  0.7599503716322447  0.5581247348809223  0.0613163961734435
  0.5473668313683455  0.7765541626340824  0.0677237378387805
  0.7625815815018259  0.7728698125566369  0.0598458327804269
  0.6537115358876953  0.6672203050685372  0.0839722964050583
  0.5579936982262801  0.4906630293188239  0.0838369025068472
  0.6140284586825894  0.5850172551167792  0.1586370780746608
  0.5487313043216858  0.6128823419556814  0.1798436976265729
 
  0.00000000E+00  0.00000000E+00  0.00000000E+00
  0.00000000E+00  0.00000000E+00  0.00000000E+00
  0.00000000E+00  0.00000000E+00  0.00000000E+00
  0.00000000E+00  0.00000000E+00  0.00000000E+00
  0.00000000E+00  0.00000000E+00  0.00000000E+00
  0.00000000E+00  0.00000000E+00  0.00000000E+00
  0.00000000E+00  0.00000000E+00  0.00000000E+00
  0.00000000E+00  0.00000000E+00  0.00000000E+00
  0.00000000E+00  0.00000000E+00  0.00000000E+00
  0.00000000E+00  0.00000000E+00  0.00000000E+00
  0.00000000E+00  0.00000000E+00  0.00000000E+00
  0.00000000E+00  0.00000000E+00  0.00000000E+00
  0.00000000E+00  0.00000000E+00  0.00000000E+00
  0.00000000E+00  0.00000000E+00  0.00000000E+00
  0.00000000E+00  0.00000000E+00  0.00000000E+00
  0.00000000E+00  0.00000000E+00  0.00000000E+00
  0.00000000E+00  0.00000000E+00  0.00000000E+00
  0.00000000E+00  0.00000000E+00  0.00000000E+00
  0.00000000E+00  0.00000000E+00  0.00000000E+00
  0.00000000E+00  0.00000000E+00  0.00000000E+00
  0.00000000E+00  0.00000000E+00  0.00000000E+00
  0.00000000E+00  0.00000000E+00  0.00000000E+00
  0.00000000E+00  0.00000000E+00  0.00000000E+00
  0.00000000E+00  0.00000000E+00  0.00000000E+00
  0.00000000E+00  0.00000000E+00  0.00000000E+00
  0.00000000E+00  0.00000000E+00  0.00000000E+00
  0.00000000E+00  0.00000000E+00  0.00000000E+00
  0.00000000E+00  0.00000000E+00  0.00000000E+00
  0.00000000E+00  0.00000000E+00  0.00000000E+00
  0.00000000E+00  0.00000000E+00  0.00000000E+00
  0.00000000E+00  0.00000000E+00  0.00000000E+00
  0.00000000E+00  0.00000000E+00  0.00000000E+00
  0.00000000E+00  0.00000000E+00  0.00000000E+00
  0.00000000E+00  0.00000000E+00  0.00000000E+00
  0.00000000E+00  0.00000000E+00  0.00000000E+00
  0.00000000E+00  0.00000000E+00  0.00000000E+00
  0.00000000E+00  0.00000000E+00  0.00000000E+00
  0.00000000E+00  0.00000000E+00  0.00000000E+00
  0.00000000E+00  0.00000000E+00  0.00000000E+00
  0.00000000E+00  0.00000000E+00  0.00000000E+00
  0.00000000E+00  0.00000000E+00  0.00000000E+00
  0.00000000E+00  0.00000000E+00  0.00000000E+00
  0.00000000E+00  0.00000000E+00  0.00000000E+00
  0.00000000E+00  0.00000000E+00  0.00000000E+00
  0.00000000E+00  0.00000000E+00  0.00000000E+00
  0.00000000E+00  0.00000000E+00  0.00000000E+00
  0.00000000E+00  0.00000000E+00  0.00000000E+00
  0.00000000E+00  0.00000000E+00  0.00000000E+00
  0.00000000E+00  0.00000000E+00  0.00000000E+00
  0.00000000E+00  0.00000000E+00  0.00000000E+00
  0.00000000E+00  0.00000000E+00  0.00000000E+00
  0.00000000E+00  0.00000000E+00  0.00000000E+00
  0.00000000E+00  0.00000000E+00  0.00000000E+00
  0.00000000E+00  0.00000000E+00  0.00000000E+00
  0.00000000E+00  0.00000000E+00  0.00000000E+00
  0.00000000E+00  0.00000000E+00  0.00000000E+00
  0.00000000E+00  0.00000000E+00  0.00000000E+00
  0.00000000E+00  0.00000000E+00  0.00000000E+00
  0.00000000E+00  0.00000000E+00  0.00000000E+00
  0.00000000E+00  0.00000000E+00  0.00000000E+00
