CONTCAR\(4)                             
   1.00000000000000     
    12.3312997818000003    0.0000000000000000    0.0000000000000000
     0.0001127485000000   12.8291997905000006    0.0000000000000000
     0.0005937186000000    0.0011528207000000   19.9943999824000009
   C    N    Fe   Ni   O 
    54     2     1     1     2
Direct
  0.0561278467301489  0.0541013059067792  0.0491348209648400
  0.1566147326435552  0.1092104790797450  0.0492129866822874
  0.1568984742938342  0.2202657984624845  0.0485861742890343
  0.0566876961198787  0.2752319106294219  0.0475051293272474
  0.2570415268933128  0.0541309192580608  0.0505658269828525
  0.3574037528589963  0.1098492387524712  0.0535354759116727
  0.3576671891807637  0.2218568405656734  0.0537955686454339
  0.2569834481532410  0.2763441507999003  0.0501543242591720
  0.4570869953483372  0.0536153653153433  0.0566046398281940
  0.5568172971019069  0.1108338139838727  0.0597391133569590
  0.5573658406158377  0.2227268705436655  0.0612755405663416
  0.4573175221379382  0.2796253589745061  0.0581790811427989
  0.6562655533700545  0.0523347580056263  0.0598897589549464
  0.7558423863336606  0.1094261211072287  0.0568271230656517
  0.7563076624555989  0.2218564217659387  0.0565215861863245
  0.6578098508122117  0.2809685704816452  0.0620224165545802
  0.8554629594882758  0.0532295796070870  0.0535240900943603
  0.9557438573885778  0.1091700824788770  0.0504391852540638
  0.9561288390769800  0.2204414547171959  0.0494761434991668
  0.8562256443524420  0.2767203662287076  0.0517146928583165
  0.0572567101699099  0.3863290345772801  0.0458260113108801
  0.1561492999478458  0.4424703663592530  0.0462249133576919
  0.1557509761759985  0.5538270951303880  0.0452865146723898
  0.0567993038500999  0.6094724516781085  0.0440673986400935
  0.2562483364348701  0.3875264783502052  0.0492537664442067
  0.3553535377337818  0.4439012494530241  0.0530376925759576
  0.3539842615342749  0.5569050270700766  0.0533993360809969
  0.2543432918087482  0.6107102776009397  0.0478081148724140
  0.7590361152001033  0.4474819563730277  0.0543701618076903
  0.8573411421225128  0.3882906665890739  0.0494820295280373
  0.9576540163154801  0.4420899652654628  0.0456148953398115
  0.9581352718301768  0.5526839400218828  0.0446164208668786
  0.8582164338911893  0.6068598717714249  0.0470714358846555
  0.0564059694944843  0.7208740677215875  0.0447214090414057
  0.1552480654646772  0.7770409005554073  0.0460224976344168
  0.1560043141404062  0.8880721303671130  0.0474680783169824
  0.0557954683068830  0.9430152644175807  0.0483764689485612
  0.2547653663625400  0.7213005586694725  0.0478225693266148
  0.3549216099063622  0.7751688830279425  0.0513499501022168
  0.3564799553664225  0.8866972534043983  0.0519329583465161
  0.2565784793560966  0.9429337373428839  0.0495679410595505
  0.4527827879470637  0.7159088361302078  0.0579666921936383
  0.5555801405751237  0.8819057787277993  0.0608622037684507
  0.4566726786280984  0.9412076063956771  0.0562032371718551
  0.7556449463699926  0.8834742669293888  0.0594361641910534
  0.6558213527762495  0.9402781037065387  0.0613837236944901
  0.8571227083362998  0.7194950238331324  0.0500373129686049
  0.9563174825007094  0.7758150122003793  0.0469889007990427
  0.9558156951848099  0.8869490700699091  0.0495824321155519
  0.8551514548602324  0.9412820328781811  0.0538946148923038
  0.4552114808875057  0.3910070859905206  0.0586004089071343
  0.6599526132065613  0.3921986128054432  0.0657870684481077
  0.5535366376700884  0.7706716591150267  0.0638157857337524
  0.7575254344549441  0.7717102866947152  0.0610446736366273
  0.7620398861322729  0.5564932968745112  0.0505129234342656
  0.4492382655994068  0.6077453227239077  0.0609267956823144
  0.6581086239031014  0.6694508042831893  0.0908440657416688
  0.5550128509893221  0.4897851090633951  0.0843431934232250
  0.6331986151990395  0.5647967532951197  0.1568736534992769
  0.5994994260108102  0.6694647508721873  0.1728519071164193
 
  0.00000000E+00  0.00000000E+00  0.00000000E+00
  0.00000000E+00  0.00000000E+00  0.00000000E+00
  0.00000000E+00  0.00000000E+00  0.00000000E+00
  0.00000000E+00  0.00000000E+00  0.00000000E+00
  0.00000000E+00  0.00000000E+00  0.00000000E+00
  0.00000000E+00  0.00000000E+00  0.00000000E+00
  0.00000000E+00  0.00000000E+00  0.00000000E+00
  0.00000000E+00  0.00000000E+00  0.00000000E+00
  0.00000000E+00  0.00000000E+00  0.00000000E+00
  0.00000000E+00  0.00000000E+00  0.00000000E+00
  0.00000000E+00  0.00000000E+00  0.00000000E+00
  0.00000000E+00  0.00000000E+00  0.00000000E+00
  0.00000000E+00  0.00000000E+00  0.00000000E+00
  0.00000000E+00  0.00000000E+00  0.00000000E+00
  0.00000000E+00  0.00000000E+00  0.00000000E+00
  0.00000000E+00  0.00000000E+00  0.00000000E+00
  0.00000000E+00  0.00000000E+00  0.00000000E+00
  0.00000000E+00  0.00000000E+00  0.00000000E+00
  0.00000000E+00  0.00000000E+00  0.00000000E+00
  0.00000000E+00  0.00000000E+00  0.00000000E+00
  0.00000000E+00  0.00000000E+00  0.00000000E+00
  0.00000000E+00  0.00000000E+00  0.00000000E+00
  0.00000000E+00  0.00000000E+00  0.00000000E+00
  0.00000000E+00  0.00000000E+00  0.00000000E+00
  0.00000000E+00  0.00000000E+00  0.00000000E+00
  0.00000000E+00  0.00000000E+00  0.00000000E+00
  0.00000000E+00  0.00000000E+00  0.00000000E+00
  0.00000000E+00  0.00000000E+00  0.00000000E+00
  0.00000000E+00  0.00000000E+00  0.00000000E+00
  0.00000000E+00  0.00000000E+00  0.00000000E+00
  0.00000000E+00  0.00000000E+00  0.00000000E+00
  0.00000000E+00  0.00000000E+00  0.00000000E+00
  0.00000000E+00  0.00000000E+00  0.00000000E+00
  0.00000000E+00  0.00000000E+00  0.00000000E+00
  0.00000000E+00  0.00000000E+00  0.00000000E+00
  0.00000000E+00  0.00000000E+00  0.00000000E+00
  0.00000000E+00  0.00000000E+00  0.00000000E+00
  0.00000000E+00  0.00000000E+00  0.00000000E+00
  0.00000000E+00  0.00000000E+00  0.00000000E+00
  0.00000000E+00  0.00000000E+00  0.00000000E+00
  0.00000000E+00  0.00000000E+00  0.00000000E+00
  0.00000000E+00  0.00000000E+00  0.00000000E+00
  0.00000000E+00  0.00000000E+00  0.00000000E+00
  0.00000000E+00  0.00000000E+00  0.00000000E+00
  0.00000000E+00  0.00000000E+00  0.00000000E+00
  0.00000000E+00  0.00000000E+00  0.00000000E+00
  0.00000000E+00  0.00000000E+00  0.00000000E+00
  0.00000000E+00  0.00000000E+00  0.00000000E+00
  0.00000000E+00  0.00000000E+00  0.00000000E+00
  0.00000000E+00  0.00000000E+00  0.00000000E+00
  0.00000000E+00  0.00000000E+00  0.00000000E+00
  0.00000000E+00  0.00000000E+00  0.00000000E+00
  0.00000000E+00  0.00000000E+00  0.00000000E+00
  0.00000000E+00  0.00000000E+00  0.00000000E+00
  0.00000000E+00  0.00000000E+00  0.00000000E+00
  0.00000000E+00  0.00000000E+00  0.00000000E+00
  0.00000000E+00  0.00000000E+00  0.00000000E+00
  0.00000000E+00  0.00000000E+00  0.00000000E+00
  0.00000000E+00  0.00000000E+00  0.00000000E+00
  0.00000000E+00  0.00000000E+00  0.00000000E+00
