CONTCAR                                 
   1.00000000000000     
    12.3312997818000003    0.0000000000000000    0.0000000000000000
     0.0001127485000000   12.8291997905000006    0.0000000000000000
     0.0005937186000000    0.0011528207000000   19.9943999824000009
   C    N    Fe   Ni   O    H 
    52     4     1     1     1     1
Direct
  0.0560838968374662  0.0551833915421605  0.0496564197964372
  0.1563479680696932  0.1106341901983095  0.0495953143781318
  0.1559698561044401  0.2213282718302477  0.0483049211168113
  0.0558997904102322  0.2768041305165236  0.0477212279453958
  0.2570847524914461  0.0559291738757481  0.0516291584905446
  0.3574133988219372  0.1117835765235261  0.0547377172350449
  0.3567906351709680  0.2238639009212889  0.0537218486535747
  0.2556775389306477  0.2769021892527625  0.0491016904761617
  0.4573460706167589  0.0558803394273387  0.0590087017519752
  0.5568251546211831  0.1136611660427383  0.0620827922655104
  0.5568508661204233  0.2278048456717990  0.0628487374934475
  0.4551553852264365  0.2839863189536214  0.0582288322603822
  0.6554955096896342  0.0528055524099266  0.0619650842140076
  0.7549759472817127  0.1101290639250412  0.0585435097540536
  0.7562862186318384  0.2227075931687617  0.0589925286927198
  0.6589100982254061  0.2836913879893187  0.0642806922351297
  0.8549705687022253  0.0542525081389504  0.0544224245241727
  0.9554600430010449  0.1099185121642732  0.0514604959963705
  0.9561289222789814  0.2211895349551495  0.0508468655414053
  0.8566453093337666  0.2773049013308823  0.0542892489339224
  0.0560744911187675  0.3880789962055887  0.0456216181252688
  0.1550402180063371  0.4438340355145504  0.0442758953441783
  0.1554880194843694  0.5549441341914619  0.0435149084529173
  0.0565989557231384  0.6109332766131936  0.0437049216293466
  0.2542849077487983  0.3876151589499424  0.0469173309706742
  0.3526022252135594  0.4424354899522265  0.0507535889305711
  0.3539394844900281  0.5551068005575059  0.0516569540959994
  0.2547126865011722  0.6106050832039176  0.0462628731043162
  0.7592294971384127  0.4452567814820486  0.0604692086980125
  0.8579074348844294  0.3886369542651264  0.0531077202651721
  0.9568358154035381  0.4442503318809938  0.0474347175682609
  0.9573222454389189  0.5553817882862483  0.0462353557773388
  0.8576688041336040  0.6107068223713268  0.0508329499454817
  0.0572804684410149  0.7221075223329321  0.0446441169901813
  0.1562330891355951  0.7778527437068307  0.0459941687938549
  0.1564819390099901  0.8889726366350704  0.0480890605582120
  0.0563675148049602  0.9444076684372986  0.0486016427790206
  0.2554740806501331  0.7215569920470183  0.0477497655196046
  0.3545878295968383  0.7766405521967260  0.0538925677692084
  0.3558581442191942  0.8883547290912219  0.0549538622967346
  0.2564366993598790  0.9445390557152331  0.0511908017527664
  0.4529721851603435  0.7195429422765309  0.0620683210131818
  0.5536052367113454  0.8822563334617209  0.0651610908030947
  0.4560904136441762  0.9432741256384085  0.0597818980636731
  0.7570951036873682  0.8828398744148089  0.0579224205683798
  0.6554833990381645  0.9384796108896123  0.0629443605615172
  0.8595599751678323  0.7235070189488791  0.0503178199675822
  0.9579724808555659  0.7782094162733701  0.0471357401269254
  0.9566806978442224  0.8890024956293938  0.0492573230956982
  0.8555543998926850  0.9424229317996428  0.0534279306146148
  0.4532746598813525  0.6071080611125665  0.0614445663367563
  0.7582489543115297  0.5577125341268716  0.0598443667147066
  0.4497447803261062  0.3921742848955093  0.0572089143379000
  0.6638312381273281  0.3908929238701015  0.0684721407878393
  0.5487325234692902  0.7749315644359855  0.0702150930917944
  0.7622961990101694  0.7745727802663839  0.0571255494758279
  0.6613164359476330  0.6693710989889575  0.0870818363990328
  0.5554878970021755  0.4976532244667389  0.0773325802619897
  0.6084660866367593  0.5823929541356326  0.1544125924182622
  0.5439148592170119  0.6137578728940581  0.1745732312388955
 
  0.00000000E+00  0.00000000E+00  0.00000000E+00
  0.00000000E+00  0.00000000E+00  0.00000000E+00
  0.00000000E+00  0.00000000E+00  0.00000000E+00
  0.00000000E+00  0.00000000E+00  0.00000000E+00
  0.00000000E+00  0.00000000E+00  0.00000000E+00
  0.00000000E+00  0.00000000E+00  0.00000000E+00
  0.00000000E+00  0.00000000E+00  0.00000000E+00
  0.00000000E+00  0.00000000E+00  0.00000000E+00
  0.00000000E+00  0.00000000E+00  0.00000000E+00
  0.00000000E+00  0.00000000E+00  0.00000000E+00
  0.00000000E+00  0.00000000E+00  0.00000000E+00
  0.00000000E+00  0.00000000E+00  0.00000000E+00
  0.00000000E+00  0.00000000E+00  0.00000000E+00
  0.00000000E+00  0.00000000E+00  0.00000000E+00
  0.00000000E+00  0.00000000E+00  0.00000000E+00
  0.00000000E+00  0.00000000E+00  0.00000000E+00
  0.00000000E+00  0.00000000E+00  0.00000000E+00
  0.00000000E+00  0.00000000E+00  0.00000000E+00
  0.00000000E+00  0.00000000E+00  0.00000000E+00
  0.00000000E+00  0.00000000E+00  0.00000000E+00
  0.00000000E+00  0.00000000E+00  0.00000000E+00
  0.00000000E+00  0.00000000E+00  0.00000000E+00
  0.00000000E+00  0.00000000E+00  0.00000000E+00
  0.00000000E+00  0.00000000E+00  0.00000000E+00
  0.00000000E+00  0.00000000E+00  0.00000000E+00
  0.00000000E+00  0.00000000E+00  0.00000000E+00
  0.00000000E+00  0.00000000E+00  0.00000000E+00
  0.00000000E+00  0.00000000E+00  0.00000000E+00
  0.00000000E+00  0.00000000E+00  0.00000000E+00
  0.00000000E+00  0.00000000E+00  0.00000000E+00
  0.00000000E+00  0.00000000E+00  0.00000000E+00
  0.00000000E+00  0.00000000E+00  0.00000000E+00
  0.00000000E+00  0.00000000E+00  0.00000000E+00
  0.00000000E+00  0.00000000E+00  0.00000000E+00
  0.00000000E+00  0.00000000E+00  0.00000000E+00
  0.00000000E+00  0.00000000E+00  0.00000000E+00
  0.00000000E+00  0.00000000E+00  0.00000000E+00
  0.00000000E+00  0.00000000E+00  0.00000000E+00
  0.00000000E+00  0.00000000E+00  0.00000000E+00
  0.00000000E+00  0.00000000E+00  0.00000000E+00
  0.00000000E+00  0.00000000E+00  0.00000000E+00
  0.00000000E+00  0.00000000E+00  0.00000000E+00
  0.00000000E+00  0.00000000E+00  0.00000000E+00
  0.00000000E+00  0.00000000E+00  0.00000000E+00
  0.00000000E+00  0.00000000E+00  0.00000000E+00
  0.00000000E+00  0.00000000E+00  0.00000000E+00
  0.00000000E+00  0.00000000E+00  0.00000000E+00
  0.00000000E+00  0.00000000E+00  0.00000000E+00
  0.00000000E+00  0.00000000E+00  0.00000000E+00
  0.00000000E+00  0.00000000E+00  0.00000000E+00
  0.00000000E+00  0.00000000E+00  0.00000000E+00
  0.00000000E+00  0.00000000E+00  0.00000000E+00
  0.00000000E+00  0.00000000E+00  0.00000000E+00
  0.00000000E+00  0.00000000E+00  0.00000000E+00
  0.00000000E+00  0.00000000E+00  0.00000000E+00
  0.00000000E+00  0.00000000E+00  0.00000000E+00
  0.00000000E+00  0.00000000E+00  0.00000000E+00
  0.00000000E+00  0.00000000E+00  0.00000000E+00
  0.00000000E+00  0.00000000E+00  0.00000000E+00
  0.00000000E+00  0.00000000E+00  0.00000000E+00
