235                                     
   1.00000000000000     
    12.3312997818000003    0.0000000000000000    0.0000000000000000
     0.0001127485000000   12.8291997905000006    0.0000000000000000
     0.0005937186000000    0.0011528207000000   19.9943999824000009
   C    N    Fe   Ni   O    H 
    53     3     1     1     1     1
Direct
  0.0553964167225983  0.0554076493309593  0.0493667305972442
  0.1560155063031226  0.1110394734455467  0.0496183984534570
  0.1567376072788493  0.2220643262953176  0.0488033603467617
  0.0563456301340732  0.2764057469038330  0.0481094097903107
  0.2562242511447191  0.0562670534294585  0.0515192232145155
  0.3568526673998381  0.1115978566290597  0.0546843867998513
  0.3575400849544671  0.2235790333727641  0.0541380200000142
  0.2571747140573695  0.2782254120342495  0.0499003779870174
  0.4563475007919571  0.0552565852535403  0.0584712488968610
  0.5563745480151243  0.1114810380606790  0.0615229062105317
  0.5572140991346790  0.2238006874224922  0.0629254716755088
  0.4574731737325012  0.2809777661424860  0.0587714939232258
  0.6547813557856075  0.0518667875950987  0.0610516820916925
  0.7546936940714765  0.1092603641101693  0.0579988225327622
  0.7557044591639852  0.2219786274764611  0.0588739739983218
  0.6577322344107757  0.2814271432618897  0.0646533703503677
  0.8544728764294214  0.0535162113552318  0.0537354008930612
  0.9548748837873766  0.1099182048709469  0.0510675279461266
  0.9556256975752995  0.2213175508410417  0.0507005747932570
  0.8558094771406035  0.2772834163798822  0.0539072925445649
  0.0572380558329058  0.3873733936559067  0.0463366350966506
  0.1566040972273033  0.4437964923585465  0.0455556454154663
  0.1560420156820211  0.5549967552157643  0.0446363477615412
  0.0572960426891301  0.6104659424602068  0.0439852261310059
  0.2569331148289304  0.3896965210194651  0.0481822695409715
  0.3566035792351230  0.4465948383221227  0.0517198487459788
  0.3547179334874037  0.5598016315616871  0.0520552224715372
  0.2547522157245672  0.6122580702499060  0.0471213378148462
  0.7594277642571771  0.4485216644669587  0.0586225348838249
  0.8573456613763675  0.3890818020773530  0.0522355264620901
  0.9578871205629986  0.4426426025680810  0.0472700811322770
  0.9585924743061849  0.5533876434249136  0.0456696634182687
  0.8597774553389461  0.6075986914820496  0.0489572350129992
  0.0565983075910683  0.7218569123213102  0.0445844514938813
  0.1549058165461287  0.7785664505953406  0.0461025781435686
  0.1550540128508172  0.8895799046067845  0.0478591201251727
  0.0549689064901411  0.9443504005319167  0.0481717501208349
  0.2538443895463058  0.7230129506593909  0.0480195565328605
  0.3525190941818521  0.7783338921525657  0.0529718845278032
  0.3542874780241211  0.8893097588505809  0.0541783865294010
  0.2551891182246843  0.9451570019749046  0.0508561300571694
  0.4498412868197603  0.7207938691857004  0.0597065689178739
  0.5522385119613495  0.8825671393991157  0.0630950414853408
  0.4550599150404023  0.9429312909778262  0.0588283762923019
  0.7544725739802649  0.8824506407326560  0.0564781734546641
  0.6538297917936702  0.9386488655984947  0.0613748148020199
  0.8586820596216458  0.7198305673071194  0.0483358130046488
  0.9571027337313980  0.7766675181280773  0.0461588115628092
  0.9551592601417529  0.8877543866800804  0.0483819661051191
  0.8540047515395414  0.9414321486604371  0.0524443276915130
  0.4560426473417282  0.3924806729683323  0.0585954981765241
  0.6604508006366893  0.3928458097186375  0.0690516095891510
  0.7584188846280230  0.7709118939903457  0.0547754587878143
  0.7627671820244573  0.5579658449182503  0.0561289573723079
  0.5472099810241400  0.7736307385269141  0.0669034973143831
  0.4499626551281281  0.6136421425119337  0.0598433167693643
  0.6557980037386451  0.6689020021070498  0.0806537790137582
  0.5551344957094074  0.4895189748561305  0.0849248332693776
  0.6142561379328669  0.5827771542833839  0.1547708897220890
  0.5541526521680807  0.6119741346826255  0.1803271862053303
 
  0.00000000E+00  0.00000000E+00  0.00000000E+00
  0.00000000E+00  0.00000000E+00  0.00000000E+00
  0.00000000E+00  0.00000000E+00  0.00000000E+00
  0.00000000E+00  0.00000000E+00  0.00000000E+00
  0.00000000E+00  0.00000000E+00  0.00000000E+00
  0.00000000E+00  0.00000000E+00  0.00000000E+00
  0.00000000E+00  0.00000000E+00  0.00000000E+00
  0.00000000E+00  0.00000000E+00  0.00000000E+00
  0.00000000E+00  0.00000000E+00  0.00000000E+00
  0.00000000E+00  0.00000000E+00  0.00000000E+00
  0.00000000E+00  0.00000000E+00  0.00000000E+00
  0.00000000E+00  0.00000000E+00  0.00000000E+00
  0.00000000E+00  0.00000000E+00  0.00000000E+00
  0.00000000E+00  0.00000000E+00  0.00000000E+00
  0.00000000E+00  0.00000000E+00  0.00000000E+00
  0.00000000E+00  0.00000000E+00  0.00000000E+00
  0.00000000E+00  0.00000000E+00  0.00000000E+00
  0.00000000E+00  0.00000000E+00  0.00000000E+00
  0.00000000E+00  0.00000000E+00  0.00000000E+00
  0.00000000E+00  0.00000000E+00  0.00000000E+00
  0.00000000E+00  0.00000000E+00  0.00000000E+00
  0.00000000E+00  0.00000000E+00  0.00000000E+00
  0.00000000E+00  0.00000000E+00  0.00000000E+00
  0.00000000E+00  0.00000000E+00  0.00000000E+00
  0.00000000E+00  0.00000000E+00  0.00000000E+00
  0.00000000E+00  0.00000000E+00  0.00000000E+00
  0.00000000E+00  0.00000000E+00  0.00000000E+00
  0.00000000E+00  0.00000000E+00  0.00000000E+00
  0.00000000E+00  0.00000000E+00  0.00000000E+00
  0.00000000E+00  0.00000000E+00  0.00000000E+00
  0.00000000E+00  0.00000000E+00  0.00000000E+00
  0.00000000E+00  0.00000000E+00  0.00000000E+00
  0.00000000E+00  0.00000000E+00  0.00000000E+00
  0.00000000E+00  0.00000000E+00  0.00000000E+00
  0.00000000E+00  0.00000000E+00  0.00000000E+00
  0.00000000E+00  0.00000000E+00  0.00000000E+00
  0.00000000E+00  0.00000000E+00  0.00000000E+00
  0.00000000E+00  0.00000000E+00  0.00000000E+00
  0.00000000E+00  0.00000000E+00  0.00000000E+00
  0.00000000E+00  0.00000000E+00  0.00000000E+00
  0.00000000E+00  0.00000000E+00  0.00000000E+00
  0.00000000E+00  0.00000000E+00  0.00000000E+00
  0.00000000E+00  0.00000000E+00  0.00000000E+00
  0.00000000E+00  0.00000000E+00  0.00000000E+00
  0.00000000E+00  0.00000000E+00  0.00000000E+00
  0.00000000E+00  0.00000000E+00  0.00000000E+00
  0.00000000E+00  0.00000000E+00  0.00000000E+00
  0.00000000E+00  0.00000000E+00  0.00000000E+00
  0.00000000E+00  0.00000000E+00  0.00000000E+00
  0.00000000E+00  0.00000000E+00  0.00000000E+00
  0.00000000E+00  0.00000000E+00  0.00000000E+00
  0.00000000E+00  0.00000000E+00  0.00000000E+00
  0.00000000E+00  0.00000000E+00  0.00000000E+00
  0.00000000E+00  0.00000000E+00  0.00000000E+00
  0.00000000E+00  0.00000000E+00  0.00000000E+00
  0.00000000E+00  0.00000000E+00  0.00000000E+00
  0.00000000E+00  0.00000000E+00  0.00000000E+00
  0.00000000E+00  0.00000000E+00  0.00000000E+00
  0.00000000E+00  0.00000000E+00  0.00000000E+00
  0.00000000E+00  0.00000000E+00  0.00000000E+00
