POSCAR                                  
   1.00000000000000     
    12.3312997818000003    0.0000000000000000    0.0000000000000000
     0.0001127485000000   12.8291997905000006    0.0000000000000000
     0.0005937186000000    0.0011528207000000   19.9943999824000009
   C    N    Fe   Ni   O    H 
    52     4     1     1     1     1
Direct
  0.0552160782990924  0.0565883187776033  0.0485247688244353
  0.1557241650622286  0.1115324022417292  0.0485034648141344
  0.1552872348044694  0.2223592278499851  0.0471078313501967
  0.0550160059080479  0.2779469955834357  0.0463214549519504
  0.2563033223311932  0.0564142152054060  0.0511344661537874
  0.3565658290286410  0.1121478012506048  0.0550051046643133
  0.3558787037157624  0.2242511271421371  0.0539756283947198
  0.2550971513184628  0.2779117432789953  0.0485159074472264
  0.4562610981952215  0.0557502598835641  0.0600428802643402
  0.5555773297329125  0.1138933171538111  0.0634663897630098
  0.5555119739836719  0.2270713514684518  0.0645266084562300
  0.4545028580827655  0.2835519761840806  0.0594049652738132
  0.6551813020785654  0.0542023909258206  0.0632470462857693
  0.7544219384912992  0.1122608191154691  0.0592566612532613
  0.7547584175012750  0.2247388288575962  0.0598393025798231
  0.6564164961546987  0.2849583227690966  0.0663660807045636
  0.8543379607806447  0.0561048304710608  0.0544724317226301
  0.9546801311616991  0.1117494714448349  0.0507568515187718
  0.9547549423147502  0.2231634031691557  0.0500202879339586
  0.8550136980094152  0.2796802919090609  0.0541567312792507
  0.0556386813161627  0.3889921418847013  0.0438789947779731
  0.1548285520976285  0.4448928002453807  0.0427577503403749
  0.1546552505173472  0.5557202015812814  0.0418447168123386
  0.0559644235947148  0.6123396039876189  0.0415913557047844
  0.2544029748296727  0.3890633905406699  0.0464433989544305
  0.3531904878237115  0.4437977937359078  0.0517268673781721
  0.3521359063467597  0.5566531448695655  0.0536229463998404
  0.2533411580341368  0.6114612098063031  0.0461185876682989
  0.7595574642390267  0.4510154280808896  0.0605952811543360
  0.8569396040440087  0.3911927223506164  0.0525584235965606
  0.9565251680053327  0.4452821185869225  0.0458471682707042
  0.9571495202345023  0.5565747679291397  0.0443386573153123
  0.8578391203506524  0.6112907363644189  0.0494877298167346
  0.0559877429762034  0.7232171700132476  0.0428653652553571
  0.1550288709528895  0.7791399110151900  0.0448358249435719
  0.1558490214101738  0.8901186460336856  0.0470692018279567
  0.0556043458398603  0.9457259391414521  0.0474407173188683
  0.2538532144520750  0.7226522808698838  0.0478888581507929
  0.3532636626579897  0.7764990735267872  0.0552603483636487
  0.3556989416315938  0.8882532191329278  0.0557972526313969
  0.2561903721443582  0.9449097260806625  0.0508580685144337
  0.4499044399257162  0.7165100537517995  0.0652101755128210
  0.5542839382005543  0.8828675316582663  0.0675982797736427
  0.4559821802082556  0.9432977025479883  0.0613167600309504
  0.7565714975652487  0.8851391371298087  0.0588293187034908
  0.6552826917337832  0.9407912459036181  0.0645868590757963
  0.8576680105287243  0.7243807821076943  0.0497009014232835
  0.9565717528260260  0.7790506628376547  0.0460452964458872
  0.9558545390406207  0.8902115359665763  0.0485034833400894
  0.8550476967695900  0.9442078941597072  0.0534700026455274
  0.6609190996983385  0.3958845636415490  0.0718000699951957
  0.5496084337625031  0.7715338229186294  0.0741820542940215
  0.4504427893334536  0.3917972097636140  0.0588933346853296
  0.4464207353444142  0.6079377776239645  0.0660258588211613
  0.7624647628395459  0.5594610593130815  0.0578590377928777
  0.7606577919307215  0.7768727489452406  0.0579514308483585
  0.6626916024802880  0.6739887400040743  0.0882069946210607
  0.5509483321568452  0.4914988972748859  0.0844949081630037
  0.6155309916828019  0.5795555523942609  0.1538564408569888
  0.5538275325189568  0.6068940525984194  0.1789464051384203
 
  0.00000000E+00  0.00000000E+00  0.00000000E+00
  0.00000000E+00  0.00000000E+00  0.00000000E+00
  0.00000000E+00  0.00000000E+00  0.00000000E+00
  0.00000000E+00  0.00000000E+00  0.00000000E+00
  0.00000000E+00  0.00000000E+00  0.00000000E+00
  0.00000000E+00  0.00000000E+00  0.00000000E+00
  0.00000000E+00  0.00000000E+00  0.00000000E+00
  0.00000000E+00  0.00000000E+00  0.00000000E+00
  0.00000000E+00  0.00000000E+00  0.00000000E+00
  0.00000000E+00  0.00000000E+00  0.00000000E+00
  0.00000000E+00  0.00000000E+00  0.00000000E+00
  0.00000000E+00  0.00000000E+00  0.00000000E+00
  0.00000000E+00  0.00000000E+00  0.00000000E+00
  0.00000000E+00  0.00000000E+00  0.00000000E+00
  0.00000000E+00  0.00000000E+00  0.00000000E+00
  0.00000000E+00  0.00000000E+00  0.00000000E+00
  0.00000000E+00  0.00000000E+00  0.00000000E+00
  0.00000000E+00  0.00000000E+00  0.00000000E+00
  0.00000000E+00  0.00000000E+00  0.00000000E+00
  0.00000000E+00  0.00000000E+00  0.00000000E+00
  0.00000000E+00  0.00000000E+00  0.00000000E+00
  0.00000000E+00  0.00000000E+00  0.00000000E+00
  0.00000000E+00  0.00000000E+00  0.00000000E+00
  0.00000000E+00  0.00000000E+00  0.00000000E+00
  0.00000000E+00  0.00000000E+00  0.00000000E+00
  0.00000000E+00  0.00000000E+00  0.00000000E+00
  0.00000000E+00  0.00000000E+00  0.00000000E+00
  0.00000000E+00  0.00000000E+00  0.00000000E+00
  0.00000000E+00  0.00000000E+00  0.00000000E+00
  0.00000000E+00  0.00000000E+00  0.00000000E+00
  0.00000000E+00  0.00000000E+00  0.00000000E+00
  0.00000000E+00  0.00000000E+00  0.00000000E+00
  0.00000000E+00  0.00000000E+00  0.00000000E+00
  0.00000000E+00  0.00000000E+00  0.00000000E+00
  0.00000000E+00  0.00000000E+00  0.00000000E+00
  0.00000000E+00  0.00000000E+00  0.00000000E+00
  0.00000000E+00  0.00000000E+00  0.00000000E+00
  0.00000000E+00  0.00000000E+00  0.00000000E+00
  0.00000000E+00  0.00000000E+00  0.00000000E+00
  0.00000000E+00  0.00000000E+00  0.00000000E+00
  0.00000000E+00  0.00000000E+00  0.00000000E+00
  0.00000000E+00  0.00000000E+00  0.00000000E+00
  0.00000000E+00  0.00000000E+00  0.00000000E+00
  0.00000000E+00  0.00000000E+00  0.00000000E+00
  0.00000000E+00  0.00000000E+00  0.00000000E+00
  0.00000000E+00  0.00000000E+00  0.00000000E+00
  0.00000000E+00  0.00000000E+00  0.00000000E+00
  0.00000000E+00  0.00000000E+00  0.00000000E+00
  0.00000000E+00  0.00000000E+00  0.00000000E+00
  0.00000000E+00  0.00000000E+00  0.00000000E+00
  0.00000000E+00  0.00000000E+00  0.00000000E+00
  0.00000000E+00  0.00000000E+00  0.00000000E+00
  0.00000000E+00  0.00000000E+00  0.00000000E+00
  0.00000000E+00  0.00000000E+00  0.00000000E+00
  0.00000000E+00  0.00000000E+00  0.00000000E+00
  0.00000000E+00  0.00000000E+00  0.00000000E+00
  0.00000000E+00  0.00000000E+00  0.00000000E+00
  0.00000000E+00  0.00000000E+00  0.00000000E+00
  0.00000000E+00  0.00000000E+00  0.00000000E+00
  0.00000000E+00  0.00000000E+00  0.00000000E+00
