123456                                  
   1.00000000000000     
    12.3312997818000003    0.0000000000000000    0.0000000000000000
     0.0001127485000000   12.8291997905000006    0.0000000000000000
     0.0005937186000000    0.0011528207000000   19.9943999824000009
   C    N    Fe   Ni   O    H 
    50     6     1     1     1     1
Direct
  0.0551348914378615  0.0533893586318530  0.0526729800734274
  0.1556284312799295  0.1092744675068865  0.0514768745116551
  0.1554846391597128  0.2201703004453724  0.0512795941900780
  0.0552907222189796  0.2753079294132099  0.0524803183803286
  0.2562580459221899  0.0546648517106710  0.0509988709173531
  0.3567255689235475  0.1105628231021799  0.0524556734939499
  0.3560506578150473  0.2225900209665181  0.0523957006313989
  0.2552093482635506  0.2762833561756686  0.0507088976783671
  0.4569859257348171  0.0544183130738515  0.0544558113474711
  0.5563817824459372  0.1122040452675164  0.0576635943997153
  0.5568370668322414  0.2274475782572061  0.0579407300212468
  0.4546569416542507  0.2831989544908325  0.0542031695678979
  0.6540619597136682  0.0507292526733996  0.0599244198362867
  0.7536398219510765  0.1086719518769053  0.0597723200543701
  0.7548744822452450  0.2215239203070385  0.0601919377525262
  0.6578136460436800  0.2836894573375642  0.0609941185168837
  0.8540923916023971  0.0525683905116005  0.0576777856527682
  0.9546420090621275  0.1081119318391100  0.0552326759975254
  0.9553962759739622  0.2195565282601945  0.0552727974446249
  0.8561128330699418  0.2754848226127305  0.0580602355145354
  0.0558126068417456  0.3863360387823963  0.0514198843290894
  0.1547322522872384  0.4427593824077236  0.0489737222026786
  0.1546299991511154  0.5534161692855192  0.0478141591454155
  0.0556219923472762  0.6095956640358037  0.0493225094699530
  0.2540482621360894  0.3876636823750922  0.0493482946097332
  0.3531775774433561  0.4429164027589901  0.0496937960301627
  0.3537953697923166  0.5556252789376139  0.0491498137772528
  0.2540848428078039  0.6093216843400387  0.0473087046540017
  0.7611154214276695  0.4444644774584146  0.0616485308263353
  0.8586662352554180  0.3866940932607015  0.0578391132749926
  0.9572406569018773  0.4421855226128995  0.0538960966529003
  0.9563982451767018  0.5536731855614991  0.0529845748754411
  0.8566719073702995  0.6071972140538145  0.0577576464786923
  0.0554145429028299  0.7202520076389402  0.0492465341077244
  0.1546215981342662  0.7765165273251757  0.0478821763035758
  0.1553807299824179  0.8874758281347891  0.0492720294857129
  0.0551492520567849  0.9425639538871412  0.0517313755432444
  0.2533809247860065  0.7206601349294021  0.0472092459945385
  0.3525427486074073  0.7754780572856746  0.0486437935604839
  0.3549917221265364  0.8869182620748890  0.0501625265709982
  0.2555442224057826  0.9430873626223499  0.0497347565782481
  0.4509536554960492  0.7177885397892432  0.0517825718012217
  0.5523875071523444  0.8794332615871020  0.0573866875053178
  0.4558082545275024  0.9415756387844199  0.0535790642950131
  0.7564315177543272  0.8801211752970576  0.0616936377493896
  0.6536508488425585  0.9356267662095948  0.0607998749815588
  0.8566709505955358  0.7204558293134408  0.0581312679949728
  0.9561820475733033  0.7751828673049803  0.0530175050274642
  0.9553457423763921  0.8865437818848875  0.0541523909305424
  0.8547628016172860  0.9406204481844044  0.0577173352374349
  0.4498013964841426  0.3904497794876161  0.0522281255357531
  0.4517429134577335  0.6088416753980799  0.0520119083161763
  0.6639494558875271  0.3932569101410611  0.0632382614738801
  0.7604757608452886  0.5522041257337577  0.0628868701548699
  0.5462483226465509  0.7703070392578429  0.0574414188038182
  0.7611266432326345  0.7732503806514415  0.0646579386772715
  0.6490858032990953  0.6583940011574793  0.0928933727977813
  0.5571965261079679  0.4978354223529189  0.0598487896085135
  0.6294085076695264  0.6559558912956450  0.1835517518829117
  0.6077127191431291  0.5911372839398512  0.2049334397724742
 
  0.00000000E+00  0.00000000E+00  0.00000000E+00
  0.00000000E+00  0.00000000E+00  0.00000000E+00
  0.00000000E+00  0.00000000E+00  0.00000000E+00
  0.00000000E+00  0.00000000E+00  0.00000000E+00
  0.00000000E+00  0.00000000E+00  0.00000000E+00
  0.00000000E+00  0.00000000E+00  0.00000000E+00
  0.00000000E+00  0.00000000E+00  0.00000000E+00
  0.00000000E+00  0.00000000E+00  0.00000000E+00
  0.00000000E+00  0.00000000E+00  0.00000000E+00
  0.00000000E+00  0.00000000E+00  0.00000000E+00
  0.00000000E+00  0.00000000E+00  0.00000000E+00
  0.00000000E+00  0.00000000E+00  0.00000000E+00
  0.00000000E+00  0.00000000E+00  0.00000000E+00
  0.00000000E+00  0.00000000E+00  0.00000000E+00
  0.00000000E+00  0.00000000E+00  0.00000000E+00
  0.00000000E+00  0.00000000E+00  0.00000000E+00
  0.00000000E+00  0.00000000E+00  0.00000000E+00
  0.00000000E+00  0.00000000E+00  0.00000000E+00
  0.00000000E+00  0.00000000E+00  0.00000000E+00
  0.00000000E+00  0.00000000E+00  0.00000000E+00
  0.00000000E+00  0.00000000E+00  0.00000000E+00
  0.00000000E+00  0.00000000E+00  0.00000000E+00
  0.00000000E+00  0.00000000E+00  0.00000000E+00
  0.00000000E+00  0.00000000E+00  0.00000000E+00
  0.00000000E+00  0.00000000E+00  0.00000000E+00
  0.00000000E+00  0.00000000E+00  0.00000000E+00
  0.00000000E+00  0.00000000E+00  0.00000000E+00
  0.00000000E+00  0.00000000E+00  0.00000000E+00
  0.00000000E+00  0.00000000E+00  0.00000000E+00
  0.00000000E+00  0.00000000E+00  0.00000000E+00
  0.00000000E+00  0.00000000E+00  0.00000000E+00
  0.00000000E+00  0.00000000E+00  0.00000000E+00
  0.00000000E+00  0.00000000E+00  0.00000000E+00
  0.00000000E+00  0.00000000E+00  0.00000000E+00
  0.00000000E+00  0.00000000E+00  0.00000000E+00
  0.00000000E+00  0.00000000E+00  0.00000000E+00
  0.00000000E+00  0.00000000E+00  0.00000000E+00
  0.00000000E+00  0.00000000E+00  0.00000000E+00
  0.00000000E+00  0.00000000E+00  0.00000000E+00
  0.00000000E+00  0.00000000E+00  0.00000000E+00
  0.00000000E+00  0.00000000E+00  0.00000000E+00
  0.00000000E+00  0.00000000E+00  0.00000000E+00
  0.00000000E+00  0.00000000E+00  0.00000000E+00
  0.00000000E+00  0.00000000E+00  0.00000000E+00
  0.00000000E+00  0.00000000E+00  0.00000000E+00
  0.00000000E+00  0.00000000E+00  0.00000000E+00
  0.00000000E+00  0.00000000E+00  0.00000000E+00
  0.00000000E+00  0.00000000E+00  0.00000000E+00
  0.00000000E+00  0.00000000E+00  0.00000000E+00
  0.00000000E+00  0.00000000E+00  0.00000000E+00
  0.00000000E+00  0.00000000E+00  0.00000000E+00
  0.00000000E+00  0.00000000E+00  0.00000000E+00
  0.00000000E+00  0.00000000E+00  0.00000000E+00
  0.00000000E+00  0.00000000E+00  0.00000000E+00
  0.00000000E+00  0.00000000E+00  0.00000000E+00
  0.00000000E+00  0.00000000E+00  0.00000000E+00
  0.00000000E+00  0.00000000E+00  0.00000000E+00
  0.00000000E+00  0.00000000E+00  0.00000000E+00
  0.00000000E+00  0.00000000E+00  0.00000000E+00
  0.00000000E+00  0.00000000E+00  0.00000000E+00
