CONTCAR\(4)                             
   1.00000000000000     
    12.3312997818000003    0.0000000000000000    0.0000000000000000
     0.0001127485000000   12.8291997905000006    0.0000000000000000
     0.0005937186000000    0.0011528207000000   19.9943999824000009
   C    N    Fe   Ni   H 
    53     3     1     1     1
Direct
  0.0566307443144967  0.0552480880054435  0.0507906746103341
  0.1569911202319149  0.1104776481539224  0.0507545037046828
  0.1568231043392159  0.2214453840877008  0.0494930235198199
  0.0564880417550000  0.2763888348946353  0.0484028438547521
  0.2575159570708049  0.0553722537044853  0.0527139311023376
  0.3578246686781339  0.1112766527552557  0.0558973348297502
  0.3578664796326786  0.2234884687389841  0.0550998914726176
  0.2568022240619579  0.2773348670741043  0.0504859004038097
  0.4575719867799952  0.0547962953747225  0.0600310012269143
  0.5576542439092824  0.1118070834289583  0.0630628865772159
  0.5578232505039145  0.2248999564481571  0.0633799623377393
  0.4575391405962121  0.2821522708431400  0.0591223284877246
  0.6566508581953520  0.0517766627977917  0.0633319311206722
  0.7557715740410883  0.1097242765085348  0.0597377467870616
  0.7567189756775642  0.2221810981672945  0.0596132858100989
  0.6585597999833324  0.2823173635213551  0.0645639054051574
  0.8557372624667026  0.0542404133560428  0.0558251966647875
  0.9561033548341096  0.1097381103503336  0.0523997139404177
  0.9566114420961955  0.2207039599831868  0.0511878806211750
  0.8570101027956605  0.2763070412952275  0.0541635148172119
  0.0560260223273137  0.3876394922416020  0.0463851152171548
  0.1549005142435506  0.4433218749755281  0.0455989055614597
  0.1544884203201659  0.5547046365162570  0.0447432406811049
  0.0558220024719740  0.6105232755511577  0.0447050666151909
  0.2547039380226950  0.3882213331808885  0.0482821880028095
  0.3532529382749072  0.4446028248966727  0.0514812094997229
  0.3517286961461158  0.5568953818516764  0.0523294086900636
  0.2528677898604801  0.6114917845531013  0.0473676208228814
  0.7591909323504101  0.4438701086571800  0.0596726590211454
  0.8576207433347112  0.3875376303905559  0.0524026660986198
  0.9563830708388821  0.4436913545056977  0.0474966793401696
  0.9564834083373154  0.5548185522604501  0.0467357630518211
  0.8566993839941918  0.6097774728450367  0.0515532772717204
  0.0563857444214522  0.7218032837016265  0.0457844245054586
  0.1549940836264695  0.7780934011422038  0.0469784447414382
  0.1565225027459896  0.8891477009588835  0.0490415278941503
  0.0566348435853008  0.9445282173554000  0.0498454977491947
  0.2537379037032238  0.7220153408548624  0.0484800731144927
  0.3535572661138550  0.7754238731020772  0.0538409048831501
  0.3564733732847245  0.8872051552023899  0.0554634942905574
  0.2569659412266119  0.9438743710273464  0.0519900118886792
  0.4502792952644842  0.7156840559680858  0.0619176573555865
  0.5546092630518596  0.8814888869588611  0.0671333119703217
  0.4567859941404919  0.9421033045264265  0.0608494030169028
  0.7579031287155474  0.8833252982345736  0.0607209511852693
  0.6562929170683036  0.9386140205505181  0.0651460755153399
  0.8586703577335193  0.7234010510317452  0.0522434575933388
  0.9572942931894950  0.7779758985013522  0.0486686805589559
  0.9569746221041017  0.8889500378456332  0.0509733806403729
  0.8561924660542286  0.9424941099276815  0.0555422067434321
  0.4533346933231061  0.3936034776407538  0.0575174128406663
  0.7579856240244917  0.5552157573517387  0.0600277629069591
  0.5486253420805119  0.7703554603156407  0.0730162833424156
  0.6625787630902717  0.3899481154349005  0.0681260656430625
  0.7624687492749397  0.7752052259010501  0.0602015534266103
  0.4473844301630490  0.6064662275870534  0.0606769289959539
  0.6587607832736754  0.6676932104529641  0.0875746602486085
  0.5584112434264523  0.4959159037364264  0.0736347382566013
  0.6050642468275041  0.5787361767747423  0.1344638295243477
 
  0.00000000E+00  0.00000000E+00  0.00000000E+00
  0.00000000E+00  0.00000000E+00  0.00000000E+00
  0.00000000E+00  0.00000000E+00  0.00000000E+00
  0.00000000E+00  0.00000000E+00  0.00000000E+00
  0.00000000E+00  0.00000000E+00  0.00000000E+00
  0.00000000E+00  0.00000000E+00  0.00000000E+00
  0.00000000E+00  0.00000000E+00  0.00000000E+00
  0.00000000E+00  0.00000000E+00  0.00000000E+00
  0.00000000E+00  0.00000000E+00  0.00000000E+00
  0.00000000E+00  0.00000000E+00  0.00000000E+00
  0.00000000E+00  0.00000000E+00  0.00000000E+00
  0.00000000E+00  0.00000000E+00  0.00000000E+00
  0.00000000E+00  0.00000000E+00  0.00000000E+00
  0.00000000E+00  0.00000000E+00  0.00000000E+00
  0.00000000E+00  0.00000000E+00  0.00000000E+00
  0.00000000E+00  0.00000000E+00  0.00000000E+00
  0.00000000E+00  0.00000000E+00  0.00000000E+00
  0.00000000E+00  0.00000000E+00  0.00000000E+00
  0.00000000E+00  0.00000000E+00  0.00000000E+00
  0.00000000E+00  0.00000000E+00  0.00000000E+00
  0.00000000E+00  0.00000000E+00  0.00000000E+00
  0.00000000E+00  0.00000000E+00  0.00000000E+00
  0.00000000E+00  0.00000000E+00  0.00000000E+00
  0.00000000E+00  0.00000000E+00  0.00000000E+00
  0.00000000E+00  0.00000000E+00  0.00000000E+00
  0.00000000E+00  0.00000000E+00  0.00000000E+00
  0.00000000E+00  0.00000000E+00  0.00000000E+00
  0.00000000E+00  0.00000000E+00  0.00000000E+00
  0.00000000E+00  0.00000000E+00  0.00000000E+00
  0.00000000E+00  0.00000000E+00  0.00000000E+00
  0.00000000E+00  0.00000000E+00  0.00000000E+00
  0.00000000E+00  0.00000000E+00  0.00000000E+00
  0.00000000E+00  0.00000000E+00  0.00000000E+00
  0.00000000E+00  0.00000000E+00  0.00000000E+00
  0.00000000E+00  0.00000000E+00  0.00000000E+00
  0.00000000E+00  0.00000000E+00  0.00000000E+00
  0.00000000E+00  0.00000000E+00  0.00000000E+00
  0.00000000E+00  0.00000000E+00  0.00000000E+00
  0.00000000E+00  0.00000000E+00  0.00000000E+00
  0.00000000E+00  0.00000000E+00  0.00000000E+00
  0.00000000E+00  0.00000000E+00  0.00000000E+00
  0.00000000E+00  0.00000000E+00  0.00000000E+00
  0.00000000E+00  0.00000000E+00  0.00000000E+00
  0.00000000E+00  0.00000000E+00  0.00000000E+00
  0.00000000E+00  0.00000000E+00  0.00000000E+00
  0.00000000E+00  0.00000000E+00  0.00000000E+00
  0.00000000E+00  0.00000000E+00  0.00000000E+00
  0.00000000E+00  0.00000000E+00  0.00000000E+00
  0.00000000E+00  0.00000000E+00  0.00000000E+00
  0.00000000E+00  0.00000000E+00  0.00000000E+00
  0.00000000E+00  0.00000000E+00  0.00000000E+00
  0.00000000E+00  0.00000000E+00  0.00000000E+00
  0.00000000E+00  0.00000000E+00  0.00000000E+00
  0.00000000E+00  0.00000000E+00  0.00000000E+00
  0.00000000E+00  0.00000000E+00  0.00000000E+00
  0.00000000E+00  0.00000000E+00  0.00000000E+00
  0.00000000E+00  0.00000000E+00  0.00000000E+00
  0.00000000E+00  0.00000000E+00  0.00000000E+00
  0.00000000E+00  0.00000000E+00  0.00000000E+00
