CONTCAR\(4)                             
   1.00000000000000     
    12.3312997818000003    0.0000000000000000    0.0000000000000000
     0.0001127485000000   12.8291997905000006    0.0000000000000000
     0.0005937186000000    0.0011528207000000   19.9943999824000009
   C    N    Fe   Ni   O 
    54     2     1     1     1
Direct
  0.0553124475333146  0.0541725228220142  0.0513790858097367
  0.1555936393492808  0.1092839471784096  0.0521364250012015
  0.1555023023488956  0.2201213769303879  0.0505816101677969
  0.0559232811637295  0.2757082546400313  0.0479936920264562
  0.2560778735956596  0.0547932518793521  0.0546609189914377
  0.3562314263709987  0.1109654793021808  0.0579427163403544
  0.3557553395495892  0.2225666519993989  0.0577477302224827
  0.2550785737663874  0.2757705395241885  0.0526083834405898
  0.4560741402809965  0.0560179436001037  0.0615396299371127
  0.5554844647556021  0.1138459543821472  0.0634151241294048
  0.5555258635810171  0.2264808369377792  0.0647261254777768
  0.4541571564026346  0.2815626011116212  0.0631640341377046
  0.6552599960703726  0.0551705771829025  0.0618139884128114
  0.7550525436850043  0.1115522268050174  0.0576049608334574
  0.7553816624597034  0.2238317544772882  0.0566034000869535
  0.6567067266620388  0.2841169858457122  0.0625131752890453
  0.8544681355186713  0.0543691404662296  0.0544629295560181
  0.9549778237630107  0.1096619489120066  0.0517020300812433
  0.9554252894519401  0.2209635480982401  0.0499338801270953
  0.8558541329009033  0.2777467519858947  0.0514589690578517
  0.0573504415206564  0.3867780808772998  0.0453613942565293
  0.1561994228139974  0.4428775306386540  0.0459243403768431
  0.1569253933343686  0.5543040801599811  0.0456815300807064
  0.0580208415568889  0.6101730934123455  0.0444746038471833
  0.2550543381848357  0.3864093621136167  0.0500074424983248
  0.3540837457231446  0.4406486136484802  0.0553505383755085
  0.3561344993373830  0.5533431241864099  0.0540850031418934
  0.2564537730313003  0.6095586124829714  0.0491259724466978
  0.7606726211485044  0.4488744066810559  0.0522233590454422
  0.8583268215752858  0.3890371494576502  0.0484482648643157
  0.9583121645455935  0.4428452536260514  0.0447050800128984
  0.9594059565721230  0.5535058888699108  0.0439752994498189
  0.8596758757867454  0.6075089198957953  0.0454360110422321
  0.0567940723717607  0.7214699917834257  0.0460882261084338
  0.1559720793942597  0.7768492826189283  0.0487527769342375
  0.1558500772465236  0.8881338677289516  0.0508847665313754
  0.0554379901628345  0.9431502173780894  0.0507705531282775
  0.2558761191087995  0.7208100055118210  0.0508088495230748
  0.3548017928365689  0.7762317264448646  0.0566794210930014
  0.3558790905880689  0.8878817570450884  0.0576324268081592
  0.2559498152248040  0.9435982030233486  0.0541004316325679
  0.4540804828808760  0.7188232892153102  0.0637141951364135
  0.5550632276198153  0.8865126246462723  0.0659582580679179
  0.4557128023762004  0.9438826834700161  0.0620746411934609
  0.7546115535169317  0.8843785316621645  0.0583623813028763
  0.6554420876627141  0.9431519612081365  0.0629011316972097
  0.8567733857212249  0.7204667309833541  0.0488870745839647
  0.9563741515898518  0.7764291076839087  0.0479352527221425
  0.9552018983541062  0.8875138175681334  0.0507919414956644
  0.8543419061914294  0.9420699686044888  0.0543781557674147
  0.6621682727111540  0.3948708423807932  0.0651802901317460
  0.5522711964001559  0.7765323911415591  0.0702188117394214
  0.7560780055971369  0.7722134901867939  0.0563777761916261
  0.4545436831481276  0.6065574962949093  0.0630521444723876
  0.4498073598931961  0.3895814529223059  0.0652161526358969
  0.7645156298799705  0.5560172329577597  0.0472509243532247
  0.6487018662229816  0.6643734928663886  0.0750862549694708
  0.5539986175684708  0.4900637048024623  0.0927139723200925
  0.6229841743914361  0.5818495797395994  0.1441355398950036
 
  0.00000000E+00  0.00000000E+00  0.00000000E+00
  0.00000000E+00  0.00000000E+00  0.00000000E+00
  0.00000000E+00  0.00000000E+00  0.00000000E+00
  0.00000000E+00  0.00000000E+00  0.00000000E+00
  0.00000000E+00  0.00000000E+00  0.00000000E+00
  0.00000000E+00  0.00000000E+00  0.00000000E+00
  0.00000000E+00  0.00000000E+00  0.00000000E+00
  0.00000000E+00  0.00000000E+00  0.00000000E+00
  0.00000000E+00  0.00000000E+00  0.00000000E+00
  0.00000000E+00  0.00000000E+00  0.00000000E+00
  0.00000000E+00  0.00000000E+00  0.00000000E+00
  0.00000000E+00  0.00000000E+00  0.00000000E+00
  0.00000000E+00  0.00000000E+00  0.00000000E+00
  0.00000000E+00  0.00000000E+00  0.00000000E+00
  0.00000000E+00  0.00000000E+00  0.00000000E+00
  0.00000000E+00  0.00000000E+00  0.00000000E+00
  0.00000000E+00  0.00000000E+00  0.00000000E+00
  0.00000000E+00  0.00000000E+00  0.00000000E+00
  0.00000000E+00  0.00000000E+00  0.00000000E+00
  0.00000000E+00  0.00000000E+00  0.00000000E+00
  0.00000000E+00  0.00000000E+00  0.00000000E+00
  0.00000000E+00  0.00000000E+00  0.00000000E+00
  0.00000000E+00  0.00000000E+00  0.00000000E+00
  0.00000000E+00  0.00000000E+00  0.00000000E+00
  0.00000000E+00  0.00000000E+00  0.00000000E+00
  0.00000000E+00  0.00000000E+00  0.00000000E+00
  0.00000000E+00  0.00000000E+00  0.00000000E+00
  0.00000000E+00  0.00000000E+00  0.00000000E+00
  0.00000000E+00  0.00000000E+00  0.00000000E+00
  0.00000000E+00  0.00000000E+00  0.00000000E+00
  0.00000000E+00  0.00000000E+00  0.00000000E+00
  0.00000000E+00  0.00000000E+00  0.00000000E+00
  0.00000000E+00  0.00000000E+00  0.00000000E+00
  0.00000000E+00  0.00000000E+00  0.00000000E+00
  0.00000000E+00  0.00000000E+00  0.00000000E+00
  0.00000000E+00  0.00000000E+00  0.00000000E+00
  0.00000000E+00  0.00000000E+00  0.00000000E+00
  0.00000000E+00  0.00000000E+00  0.00000000E+00
  0.00000000E+00  0.00000000E+00  0.00000000E+00
  0.00000000E+00  0.00000000E+00  0.00000000E+00
  0.00000000E+00  0.00000000E+00  0.00000000E+00
  0.00000000E+00  0.00000000E+00  0.00000000E+00
  0.00000000E+00  0.00000000E+00  0.00000000E+00
  0.00000000E+00  0.00000000E+00  0.00000000E+00
  0.00000000E+00  0.00000000E+00  0.00000000E+00
  0.00000000E+00  0.00000000E+00  0.00000000E+00
  0.00000000E+00  0.00000000E+00  0.00000000E+00
  0.00000000E+00  0.00000000E+00  0.00000000E+00
  0.00000000E+00  0.00000000E+00  0.00000000E+00
  0.00000000E+00  0.00000000E+00  0.00000000E+00
  0.00000000E+00  0.00000000E+00  0.00000000E+00
  0.00000000E+00  0.00000000E+00  0.00000000E+00
  0.00000000E+00  0.00000000E+00  0.00000000E+00
  0.00000000E+00  0.00000000E+00  0.00000000E+00
  0.00000000E+00  0.00000000E+00  0.00000000E+00
  0.00000000E+00  0.00000000E+00  0.00000000E+00
  0.00000000E+00  0.00000000E+00  0.00000000E+00
  0.00000000E+00  0.00000000E+00  0.00000000E+00
  0.00000000E+00  0.00000000E+00  0.00000000E+00
