an23456                                 
   1.00000000000000     
    12.3312997818000003    0.0000000000000000    0.0000000000000000
     0.0001127485000000   12.8291997905000006    0.0000000000000000
     0.0005937186000000    0.0011528207000000   19.9943999824000009
   C    N    Fe   Ni
    52     4     1     1
Direct
  0.0561097580063913  0.0552721659467412  0.0557832302739155
  0.1564391501516744  0.1111240589667320  0.0557904763025422
  0.1568532734235111  0.2218424992257041  0.0557757384971687
  0.0565674474534611  0.2764761707706326  0.0557595448706528
  0.2566681220702931  0.0560960724420007  0.0557966569739830
  0.3572398657259552  0.1112381499130799  0.0557664450878291
  0.3576282366356207  0.2231967807779621  0.0557425148449573
  0.2571285139968546  0.2778752223068200  0.0557639783423989
  0.4569742238565447  0.0543855507617377  0.0557403017693397
  0.5573935082711240  0.1104596098880130  0.0556992497645219
  0.5579081549133504  0.2230485858514606  0.0556823032358947
  0.4576442283108992  0.2810590404204091  0.0556891433737771
  0.6559116727838342  0.0501479852854736  0.0556635127854871
  0.7552054629356966  0.1085827337553675  0.0556863326500989
  0.7559950737919635  0.2212062203229554  0.0556952477790165
  0.6577994255417181  0.2809924573478765  0.0556552632183733
  0.8554109574420277  0.0531257939717540  0.0557116761285925
  0.9556928469896111  0.1095511613857484  0.0557478195071546
  0.9563748330760710  0.2209317669663825  0.0557434625443716
  0.8565803296798211  0.2766297997102375  0.0557207956973148
  0.0572802442091805  0.3875825588050369  0.0557603352539705
  0.1563574021553938  0.4438728765465990  0.0557737712847824
  0.1557023190648320  0.5545200158591264  0.0557763366483626
  0.0570320825968838  0.6106065270632444  0.0557692573146488
  0.2562908802448590  0.3892577135562394  0.0557581840692062
  0.3555341057544048  0.4458686359636225  0.0557150855287305
  0.3538451705459852  0.5587334552495766  0.0557108708188357
  0.2542076755232753  0.6117171003617381  0.0557618395031049
  0.7612613654784168  0.4466583549111409  0.0556484632042041
  0.8590669611481027  0.3880910252273118  0.0557042904753502
  0.9585039169477205  0.4430910722025908  0.0557317532501364
  0.9582008366817710  0.5544548663725127  0.0557288197021371
  0.8590756010412270  0.6092385674534094  0.0556737594001737
  0.0567044602336684  0.7214390966118633  0.0557836696403688
  0.1547669108774909  0.7784067645711539  0.0558030434181877
  0.1557234083590111  0.8891677553437830  0.0558118754376894
  0.0559980638980895  0.9444061221210240  0.0557939664315818
  0.2529406928982426  0.7225401057653138  0.0557750820788345
  0.3511909702243138  0.7779537569846287  0.0557423655207852
  0.3544678710586089  0.8888288995532820  0.0557663358817709
  0.2555950003930885  0.9449192130673847  0.0558054396703402
  0.4482406331018328  0.7204631694641745  0.0556814226214762
  0.5526625138457653  0.8809131218598298  0.0556572375788378
  0.4556033361117711  0.9425268737917798  0.0557294365091113
  0.7576616649658178  0.8806432040025038  0.0556437833099367
  0.6551664437801380  0.9358550329035907  0.0556442580133140
  0.8593893258819748  0.7217963666025511  0.0556750095143957
  0.9580019396520019  0.7768806395842340  0.0557436007215102
  0.9568028303809140  0.8880228482193767  0.0557523443266711
  0.8558196476994619  0.9414737593515167  0.0557000906332145
  0.4552150248805372  0.3920101596508019  0.0556715349383790
  0.6609995890824900  0.3929422139701784  0.0556206952703362
  0.4501341661326258  0.6130905761140916  0.0556702268176146
  0.7619646019711422  0.5563117952682861  0.0556286993577440
  0.5451891047157444  0.7724567589194311  0.0556228128492696
  0.7625909265993684  0.7733514312954103  0.0556082868912404
  0.6483954918321622  0.6591507262543645  0.0556023556465269
  0.5602217779752777  0.4960549611401880  0.0556299788197959
 
  0.00000000E+00  0.00000000E+00  0.00000000E+00
  0.00000000E+00  0.00000000E+00  0.00000000E+00
  0.00000000E+00  0.00000000E+00  0.00000000E+00
  0.00000000E+00  0.00000000E+00  0.00000000E+00
  0.00000000E+00  0.00000000E+00  0.00000000E+00
  0.00000000E+00  0.00000000E+00  0.00000000E+00
  0.00000000E+00  0.00000000E+00  0.00000000E+00
  0.00000000E+00  0.00000000E+00  0.00000000E+00
  0.00000000E+00  0.00000000E+00  0.00000000E+00
  0.00000000E+00  0.00000000E+00  0.00000000E+00
  0.00000000E+00  0.00000000E+00  0.00000000E+00
  0.00000000E+00  0.00000000E+00  0.00000000E+00
  0.00000000E+00  0.00000000E+00  0.00000000E+00
  0.00000000E+00  0.00000000E+00  0.00000000E+00
  0.00000000E+00  0.00000000E+00  0.00000000E+00
  0.00000000E+00  0.00000000E+00  0.00000000E+00
  0.00000000E+00  0.00000000E+00  0.00000000E+00
  0.00000000E+00  0.00000000E+00  0.00000000E+00
  0.00000000E+00  0.00000000E+00  0.00000000E+00
  0.00000000E+00  0.00000000E+00  0.00000000E+00
  0.00000000E+00  0.00000000E+00  0.00000000E+00
  0.00000000E+00  0.00000000E+00  0.00000000E+00
  0.00000000E+00  0.00000000E+00  0.00000000E+00
  0.00000000E+00  0.00000000E+00  0.00000000E+00
  0.00000000E+00  0.00000000E+00  0.00000000E+00
  0.00000000E+00  0.00000000E+00  0.00000000E+00
  0.00000000E+00  0.00000000E+00  0.00000000E+00
  0.00000000E+00  0.00000000E+00  0.00000000E+00
  0.00000000E+00  0.00000000E+00  0.00000000E+00
  0.00000000E+00  0.00000000E+00  0.00000000E+00
  0.00000000E+00  0.00000000E+00  0.00000000E+00
  0.00000000E+00  0.00000000E+00  0.00000000E+00
  0.00000000E+00  0.00000000E+00  0.00000000E+00
  0.00000000E+00  0.00000000E+00  0.00000000E+00
  0.00000000E+00  0.00000000E+00  0.00000000E+00
  0.00000000E+00  0.00000000E+00  0.00000000E+00
  0.00000000E+00  0.00000000E+00  0.00000000E+00
  0.00000000E+00  0.00000000E+00  0.00000000E+00
  0.00000000E+00  0.00000000E+00  0.00000000E+00
  0.00000000E+00  0.00000000E+00  0.00000000E+00
  0.00000000E+00  0.00000000E+00  0.00000000E+00
  0.00000000E+00  0.00000000E+00  0.00000000E+00
  0.00000000E+00  0.00000000E+00  0.00000000E+00
  0.00000000E+00  0.00000000E+00  0.00000000E+00
  0.00000000E+00  0.00000000E+00  0.00000000E+00
  0.00000000E+00  0.00000000E+00  0.00000000E+00
  0.00000000E+00  0.00000000E+00  0.00000000E+00
  0.00000000E+00  0.00000000E+00  0.00000000E+00
  0.00000000E+00  0.00000000E+00  0.00000000E+00
  0.00000000E+00  0.00000000E+00  0.00000000E+00
  0.00000000E+00  0.00000000E+00  0.00000000E+00
  0.00000000E+00  0.00000000E+00  0.00000000E+00
  0.00000000E+00  0.00000000E+00  0.00000000E+00
  0.00000000E+00  0.00000000E+00  0.00000000E+00
  0.00000000E+00  0.00000000E+00  0.00000000E+00
  0.00000000E+00  0.00000000E+00  0.00000000E+00
  0.00000000E+00  0.00000000E+00  0.00000000E+00
  0.00000000E+00  0.00000000E+00  0.00000000E+00
