CONTCAR\(5)                             
   1.00000000000000     
    12.3312997818000003    0.0000000000000000    0.0000000000000000
     0.0001127485000000   12.8291997905000006    0.0000000000000000
     0.0005937186000000    0.0011528207000000   19.9943999824000009
   C    N    Fe   Ni   H 
    51     5     1     1     1
Direct
  0.0557380972119948  0.0550085450859417  0.0512909540065128
  0.1563100026928484  0.1102695048701061  0.0512669156170361
  0.1562547940702682  0.2210396771669143  0.0495350576750778
  0.0558361961931389  0.2760949188881191  0.0483439979730236
  0.2567802072474478  0.0554022701080571  0.0535491654615889
  0.3573471836404758  0.1107329312009487  0.0566718904521549
  0.3569050132427655  0.2229555822720357  0.0555233572283212
  0.2561258565572713  0.2767182956815140  0.0505021874887180
  0.4571476959806357  0.0541254281032313  0.0607624469770719
  0.5563888394924391  0.1119345479032167  0.0636026467596028
  0.5564849213364583  0.2261027602696390  0.0644934072105881
  0.4554568415741848  0.2826886919742898  0.0598480870507365
  0.6550340754125351  0.0510622987852318  0.0632994899660743
  0.7542631166239110  0.1096566270395119  0.0603406754220846
  0.7549219530193602  0.2229608354811889  0.0610171099926351
  0.6569347087621528  0.2842227664111762  0.0664564955666288
  0.8544641422182899  0.0534976560100561  0.0561741801242216
  0.9549065182194236  0.1095797541636961  0.0530694204544624
  0.9553447848057969  0.2211633529477176  0.0519617135989895
  0.8556426583863793  0.2777167656626773  0.0554055341591024
  0.0569698653804513  0.3870123486398105  0.0454771985019555
  0.1560867030911930  0.4432991457721798  0.0441745904451433
  0.1560518296044379  0.5539121928462490  0.0429796575899036
  0.0577489707765103  0.6105444909340443  0.0427255913663917
  0.2557369022784165  0.3880356927329310  0.0478829814713379
  0.3545975948402736  0.4432255022406123  0.0521015534811801
  0.3535755940207326  0.5559122087237359  0.0526332382260897
  0.2548108082717944  0.6099554922321183  0.0467287100800236
  0.7618931437796324  0.4494712929839975  0.0613399890342973
  0.8585615336780600  0.3894387125447239  0.0533529592064431
  0.9582916128952171  0.4431862421015486  0.0470374621930818
  0.9593586207269000  0.5544094798342909  0.0455016513039058
  0.8611641216450681  0.6097315935568959  0.0510959754741257
  0.0572972017187585  0.7214294628728826  0.0443267069202389
  0.1557894682826188  0.7776550119083375  0.0464569510585070
  0.1562384893768284  0.8886536978340309  0.0493013251899171
  0.0560733834610036  0.9441424680368771  0.0500058234974478
  0.2543224106282554  0.7212222778076657  0.0485828035076003
  0.3527788132916990  0.7761859231226679  0.0549197384219082
  0.3553066951401910  0.8875134683601886  0.0565206681182797
  0.2562337607329224  0.9439434653523894  0.0529257213233096
  0.4495063171131158  0.7175842713889300  0.0618728423990022
  0.5531004558367539  0.8796444488114731  0.0654686425465967
  0.4562340537423312  0.9412841473168831  0.0613394226175878
  0.7569380386532817  0.8804461810505966  0.0592382622610021
  0.6546364769681038  0.9357809030712861  0.0636952548984137
  0.8601502024797220  0.7218912240895436  0.0511227867876333
  0.9582262881933920  0.7771672516769569  0.0477315664733277
  0.9565312780557644  0.8882227993477163  0.0506112873398530
  0.8551104968678435  0.9412661132334560  0.0551652228048087
  0.6622847086084018  0.3965156220256774  0.0710889852005681
  0.4516966824048016  0.3908347524845641  0.0587064075858560
  0.4491833347940616  0.6098972116800997  0.0619566763098043
  0.7654976825842457  0.5586884204081718  0.0599376333558118
  0.5467029041568674  0.7696509181977645  0.0688221363307406
  0.7623889590720589  0.7721964264917121  0.0577874364929765
  0.6540464459242926  0.6623868320448446  0.0696877814750293
  0.5549543094162831  0.4966075921964447  0.0760049465015456
  0.6134762928199262  0.5745514990204326  0.1261566600237046
 
  0.00000000E+00  0.00000000E+00  0.00000000E+00
  0.00000000E+00  0.00000000E+00  0.00000000E+00
  0.00000000E+00  0.00000000E+00  0.00000000E+00
  0.00000000E+00  0.00000000E+00  0.00000000E+00
  0.00000000E+00  0.00000000E+00  0.00000000E+00
  0.00000000E+00  0.00000000E+00  0.00000000E+00
  0.00000000E+00  0.00000000E+00  0.00000000E+00
  0.00000000E+00  0.00000000E+00  0.00000000E+00
  0.00000000E+00  0.00000000E+00  0.00000000E+00
  0.00000000E+00  0.00000000E+00  0.00000000E+00
  0.00000000E+00  0.00000000E+00  0.00000000E+00
  0.00000000E+00  0.00000000E+00  0.00000000E+00
  0.00000000E+00  0.00000000E+00  0.00000000E+00
  0.00000000E+00  0.00000000E+00  0.00000000E+00
  0.00000000E+00  0.00000000E+00  0.00000000E+00
  0.00000000E+00  0.00000000E+00  0.00000000E+00
  0.00000000E+00  0.00000000E+00  0.00000000E+00
  0.00000000E+00  0.00000000E+00  0.00000000E+00
  0.00000000E+00  0.00000000E+00  0.00000000E+00
  0.00000000E+00  0.00000000E+00  0.00000000E+00
  0.00000000E+00  0.00000000E+00  0.00000000E+00
  0.00000000E+00  0.00000000E+00  0.00000000E+00
  0.00000000E+00  0.00000000E+00  0.00000000E+00
  0.00000000E+00  0.00000000E+00  0.00000000E+00
  0.00000000E+00  0.00000000E+00  0.00000000E+00
  0.00000000E+00  0.00000000E+00  0.00000000E+00
  0.00000000E+00  0.00000000E+00  0.00000000E+00
  0.00000000E+00  0.00000000E+00  0.00000000E+00
  0.00000000E+00  0.00000000E+00  0.00000000E+00
  0.00000000E+00  0.00000000E+00  0.00000000E+00
  0.00000000E+00  0.00000000E+00  0.00000000E+00
  0.00000000E+00  0.00000000E+00  0.00000000E+00
  0.00000000E+00  0.00000000E+00  0.00000000E+00
  0.00000000E+00  0.00000000E+00  0.00000000E+00
  0.00000000E+00  0.00000000E+00  0.00000000E+00
  0.00000000E+00  0.00000000E+00  0.00000000E+00
  0.00000000E+00  0.00000000E+00  0.00000000E+00
  0.00000000E+00  0.00000000E+00  0.00000000E+00
  0.00000000E+00  0.00000000E+00  0.00000000E+00
  0.00000000E+00  0.00000000E+00  0.00000000E+00
  0.00000000E+00  0.00000000E+00  0.00000000E+00
  0.00000000E+00  0.00000000E+00  0.00000000E+00
  0.00000000E+00  0.00000000E+00  0.00000000E+00
  0.00000000E+00  0.00000000E+00  0.00000000E+00
  0.00000000E+00  0.00000000E+00  0.00000000E+00
  0.00000000E+00  0.00000000E+00  0.00000000E+00
  0.00000000E+00  0.00000000E+00  0.00000000E+00
  0.00000000E+00  0.00000000E+00  0.00000000E+00
  0.00000000E+00  0.00000000E+00  0.00000000E+00
  0.00000000E+00  0.00000000E+00  0.00000000E+00
  0.00000000E+00  0.00000000E+00  0.00000000E+00
  0.00000000E+00  0.00000000E+00  0.00000000E+00
  0.00000000E+00  0.00000000E+00  0.00000000E+00
  0.00000000E+00  0.00000000E+00  0.00000000E+00
  0.00000000E+00  0.00000000E+00  0.00000000E+00
  0.00000000E+00  0.00000000E+00  0.00000000E+00
  0.00000000E+00  0.00000000E+00  0.00000000E+00
  0.00000000E+00  0.00000000E+00  0.00000000E+00
  0.00000000E+00  0.00000000E+00  0.00000000E+00
