CONTCAR\(4)                             
   1.00000000000000     
    12.3312997818000003    0.0000000000000000    0.0000000000000000
     0.0001127485000000   12.8291997905000006    0.0000000000000000
     0.0005937186000000    0.0011528207000000   19.9943999824000009
   C    N    Fe   Ni   H 
    54     2     1     1     1
Direct
  0.0555142501198466  0.0544715482617170  0.0498983268294122
  0.1557903058977311  0.1097096915452588  0.0499596017767993
  0.1558585566383061  0.2204425559858023  0.0482794772253820
  0.0563649887216516  0.2757977430127952  0.0468694898313375
  0.2562813301008360  0.0554451716005022  0.0526981342006978
  0.3564705709571249  0.1116051552271916  0.0562440333553177
  0.3562667967674763  0.2233281964678434  0.0553592919186510
  0.2555115902483635  0.2763292502723751  0.0499748116100686
  0.4561534919183199  0.0565843034516769  0.0607173205980994
  0.5556663292231906  0.1145416424584064  0.0636587194854496
  0.5562071787197016  0.2272463400084956  0.0650826858751899
  0.4545351907234381  0.2827499513609432  0.0604945574126536
  0.6554021347077930  0.0551067383144031  0.0629485749530845
  0.7555253461776700  0.1112978521434193  0.0588726902231353
  0.7562574204466651  0.2236032660660476  0.0591674599909531
  0.6583811577445449  0.2841454214852639  0.0665241046207717
  0.8546608564625557  0.0541244960516363  0.0547913324821720
  0.9552400556050282  0.1096180840556945  0.0512322072480157
  0.9559649917521579  0.2208438211643559  0.0498416332259915
  0.8567244876980946  0.2774277669853031  0.0531044880550308
  0.0576545840875844  0.3870262993465582  0.0448473765930914
  0.1561167732845632  0.4433752895216082  0.0448660135863067
  0.1565131894728488  0.5549307047280823  0.0445758950870114
  0.0577358408538200  0.6106404650540975  0.0441046376675463
  0.2549109241112926  0.3869708760030687  0.0481789252934830
  0.3536625563070769  0.4415680894324724  0.0533650528120234
  0.3548326030630217  0.5549034763807161  0.0550826910120083
  0.2556597722521073  0.6105192237709322  0.0485751762468549
  0.7629225935857670  0.4475323740877684  0.0594651121075408
  0.8594767531684855  0.3887937937583631  0.0509953982912352
  0.9588838672937027  0.4428742882711713  0.0457958049814092
  0.9595042476507532  0.5536190303977084  0.0454140884863538
  0.8603392058182798  0.6076394876049808  0.0499446758302572
  0.0564982662262454  0.7219760902336626  0.0456332938642520
  0.1554884286148696  0.7775322711883084  0.0475996054856935
  0.1556252202393541  0.8887642345990345  0.0493598295337964
  0.0553056918504060  0.9435075465134991  0.0494390209695987
  0.2550139462561463  0.7217031724988368  0.0500397634147327
  0.3538224633182049  0.7771119124637222  0.0563978137882824
  0.3554638598293713  0.8887381999642850  0.0568198410331210
  0.2558106684723740  0.9443776597518780  0.0525538615973676
  0.4516355535028323  0.7196598803244626  0.0662669430952875
  0.5544689677653406  0.8862778248913502  0.0670613933248885
  0.4554608189628003  0.9443988325003376  0.0618475330804151
  0.7544769063957092  0.8840134413628254  0.0591226381992849
  0.6552782959839298  0.9430125707796606  0.0639478077296998
  0.8571523624737033  0.7204968947468556  0.0509766850912684
  0.9562851576084929  0.7768092437925950  0.0481607658709157
  0.9550828995286204  0.8877508176795489  0.0502942262794422
  0.8541728027436132  0.9418486866573883  0.0545740881759248
  0.6639853257196707  0.3948335958566220  0.0726928477502320
  0.5507234761430172  0.7763414959150384  0.0727179217654255
  0.7558955300124952  0.7713889003425269  0.0576979166478168
  0.4529768990004568  0.6070743967497180  0.0677793204398462
  0.4499063410261627  0.3909352378001578  0.0598304134299607
  0.7656943761124982  0.5560684643335368  0.0569324860706913
  0.6477090400804396  0.6630536085217543  0.0740463520645648
  0.5552790192213301  0.4936117777502041  0.0838141714920874
  0.6194877943320976  0.5618807085055315  0.1322036698920563
 
  0.00000000E+00  0.00000000E+00  0.00000000E+00
  0.00000000E+00  0.00000000E+00  0.00000000E+00
  0.00000000E+00  0.00000000E+00  0.00000000E+00
  0.00000000E+00  0.00000000E+00  0.00000000E+00
  0.00000000E+00  0.00000000E+00  0.00000000E+00
  0.00000000E+00  0.00000000E+00  0.00000000E+00
  0.00000000E+00  0.00000000E+00  0.00000000E+00
  0.00000000E+00  0.00000000E+00  0.00000000E+00
  0.00000000E+00  0.00000000E+00  0.00000000E+00
  0.00000000E+00  0.00000000E+00  0.00000000E+00
  0.00000000E+00  0.00000000E+00  0.00000000E+00
  0.00000000E+00  0.00000000E+00  0.00000000E+00
  0.00000000E+00  0.00000000E+00  0.00000000E+00
  0.00000000E+00  0.00000000E+00  0.00000000E+00
  0.00000000E+00  0.00000000E+00  0.00000000E+00
  0.00000000E+00  0.00000000E+00  0.00000000E+00
  0.00000000E+00  0.00000000E+00  0.00000000E+00
  0.00000000E+00  0.00000000E+00  0.00000000E+00
  0.00000000E+00  0.00000000E+00  0.00000000E+00
  0.00000000E+00  0.00000000E+00  0.00000000E+00
  0.00000000E+00  0.00000000E+00  0.00000000E+00
  0.00000000E+00  0.00000000E+00  0.00000000E+00
  0.00000000E+00  0.00000000E+00  0.00000000E+00
  0.00000000E+00  0.00000000E+00  0.00000000E+00
  0.00000000E+00  0.00000000E+00  0.00000000E+00
  0.00000000E+00  0.00000000E+00  0.00000000E+00
  0.00000000E+00  0.00000000E+00  0.00000000E+00
  0.00000000E+00  0.00000000E+00  0.00000000E+00
  0.00000000E+00  0.00000000E+00  0.00000000E+00
  0.00000000E+00  0.00000000E+00  0.00000000E+00
  0.00000000E+00  0.00000000E+00  0.00000000E+00
  0.00000000E+00  0.00000000E+00  0.00000000E+00
  0.00000000E+00  0.00000000E+00  0.00000000E+00
  0.00000000E+00  0.00000000E+00  0.00000000E+00
  0.00000000E+00  0.00000000E+00  0.00000000E+00
  0.00000000E+00  0.00000000E+00  0.00000000E+00
  0.00000000E+00  0.00000000E+00  0.00000000E+00
  0.00000000E+00  0.00000000E+00  0.00000000E+00
  0.00000000E+00  0.00000000E+00  0.00000000E+00
  0.00000000E+00  0.00000000E+00  0.00000000E+00
  0.00000000E+00  0.00000000E+00  0.00000000E+00
  0.00000000E+00  0.00000000E+00  0.00000000E+00
  0.00000000E+00  0.00000000E+00  0.00000000E+00
  0.00000000E+00  0.00000000E+00  0.00000000E+00
  0.00000000E+00  0.00000000E+00  0.00000000E+00
  0.00000000E+00  0.00000000E+00  0.00000000E+00
  0.00000000E+00  0.00000000E+00  0.00000000E+00
  0.00000000E+00  0.00000000E+00  0.00000000E+00
  0.00000000E+00  0.00000000E+00  0.00000000E+00
  0.00000000E+00  0.00000000E+00  0.00000000E+00
  0.00000000E+00  0.00000000E+00  0.00000000E+00
  0.00000000E+00  0.00000000E+00  0.00000000E+00
  0.00000000E+00  0.00000000E+00  0.00000000E+00
  0.00000000E+00  0.00000000E+00  0.00000000E+00
  0.00000000E+00  0.00000000E+00  0.00000000E+00
  0.00000000E+00  0.00000000E+00  0.00000000E+00
  0.00000000E+00  0.00000000E+00  0.00000000E+00
  0.00000000E+00  0.00000000E+00  0.00000000E+00
  0.00000000E+00  0.00000000E+00  0.00000000E+00
