14                                      
   1.00000000000000     
    12.3312997818000003    0.0000000000000000    0.0000000000000000
     0.0001127485000000   12.8291997905000006    0.0000000000000000
     0.0005937186000000    0.0011528207000000   19.9943999824000009
   C    N    Fe   Ni   O    H 
    54     2     1     1     1     1
Direct
  0.0565361342751839  0.0548328172077020  0.0501923658890574
  0.1566210304512216  0.1098927198269957  0.0504219066554529
  0.1563243797167765  0.2206975006377693  0.0489954991001912
  0.0565860429224121  0.2762012717340712  0.0476096657310438
  0.2570861296948549  0.0551606613511486  0.0527702943520384
  0.3574016200616489  0.1110795260810696  0.0564651477673369
  0.3571401074731074  0.2230170768611088  0.0558091278455281
  0.2561661318177649  0.2761359398234833  0.0504635710052108
  0.4567459812698015  0.0551216798275774  0.0608183324089574
  0.5564397685151646  0.1122153703296078  0.0641724261098073
  0.5563997975447079  0.2248045096312945  0.0654443161314817
  0.4556592391961733  0.2819347647282675  0.0607965701744002
  0.6568078123266586  0.0529212103038350  0.0639510806618088
  0.7563604098139136  0.1100222033745576  0.0599195147628541
  0.7568323597351228  0.2221173221089256  0.0603747605512616
  0.6580215724092373  0.2808593374449726  0.0672128797058634
  0.8557155900136529  0.0539480430931973  0.0555277217810937
  0.9561093343286631  0.1096488797572785  0.0519117881585502
  0.9563630667212226  0.2207813879644099  0.0509044320158348
  0.8569338415769996  0.2769853681129688  0.0546743372047115
  0.0572133168872037  0.3875159425886921  0.0449881944274705
  0.1562385644320597  0.4429703928331055  0.0442202428963868
  0.1562434978552695  0.5545239134347237  0.0430935948654458
  0.0572442874592896  0.6102950481308436  0.0425557810872853
  0.2555097270266795  0.3865484451363307  0.0479895973803274
  0.3546029800618302  0.4411625066539995  0.0522820784494163
  0.3549515199595930  0.5541555256374538  0.0524572158157010
  0.2554214339662707  0.6099252481365868  0.0463000542035870
  0.7607163500541300  0.4461998725548310  0.0618024257378253
  0.8587471046299079  0.3884665934018254  0.0530951373215143
  0.9576691358654968  0.4437378519519777  0.0463573399951517
  0.9579938196232666  0.5548497287387245  0.0447606673412038
  0.8583007376843446  0.6106051532218219  0.0498170494641708
  0.0569936301469807  0.7216827828942304  0.0438659395954224
  0.1559816999521616  0.7771600972844427  0.0457369117522532
  0.1566434427394535  0.8885243950487899  0.0483135922757120
  0.0567621975417909  0.9440469249135747  0.0490064772812159
  0.2553650319379417  0.7209716097271344  0.0478139497305191
  0.3542987280129780  0.7760944159143680  0.0546745173481904
  0.3563029977232618  0.8876509431681099  0.0559609570855298
  0.2567450196221522  0.9439187782981047  0.0518911079526921
  0.4521260250659740  0.7182859427903429  0.0643258133677642
  0.5551707601116551  0.8844287895061811  0.0680565260089267
  0.4562480068200381  0.9430216076860951  0.0615968431602739
  0.7575487463791480  0.8832945390344513  0.0606972206762856
  0.6569788785277729  0.9403822489543840  0.0655917769301979
  0.8585169077567503  0.7238106085361864  0.0509995217272725
  0.9575969930567946  0.7781314818603767  0.0471771843352170
  0.9569434288433957  0.8887170793556521  0.0500373972569402
  0.8560303288616878  0.9420408717506538  0.0551448236746089
  0.4529888438130878  0.6059554846535666  0.0637065568173567
  0.6627006964575034  0.3902919714137269  0.0731194163375488
  0.7606378880889773  0.5576726534930244  0.0597187995450141
  0.5497069509117503  0.7751500561255431  0.0745068824195883
  0.4517362133215935  0.3910343411258349  0.0596237908667980
  0.7615800029155044  0.7742361884481889  0.0598404927809230
  0.6548395667486224  0.6679144894453101  0.0879122138821581
  0.5573365435027600  0.4922543131889451  0.0821475018552371
  0.6137156350811032  0.5797328187284037  0.1589289850053184
  0.5486419346895328  0.6078309230332242  0.1802696923330416
 
  0.00000000E+00  0.00000000E+00  0.00000000E+00
  0.00000000E+00  0.00000000E+00  0.00000000E+00
  0.00000000E+00  0.00000000E+00  0.00000000E+00
  0.00000000E+00  0.00000000E+00  0.00000000E+00
  0.00000000E+00  0.00000000E+00  0.00000000E+00
  0.00000000E+00  0.00000000E+00  0.00000000E+00
  0.00000000E+00  0.00000000E+00  0.00000000E+00
  0.00000000E+00  0.00000000E+00  0.00000000E+00
  0.00000000E+00  0.00000000E+00  0.00000000E+00
  0.00000000E+00  0.00000000E+00  0.00000000E+00
  0.00000000E+00  0.00000000E+00  0.00000000E+00
  0.00000000E+00  0.00000000E+00  0.00000000E+00
  0.00000000E+00  0.00000000E+00  0.00000000E+00
  0.00000000E+00  0.00000000E+00  0.00000000E+00
  0.00000000E+00  0.00000000E+00  0.00000000E+00
  0.00000000E+00  0.00000000E+00  0.00000000E+00
  0.00000000E+00  0.00000000E+00  0.00000000E+00
  0.00000000E+00  0.00000000E+00  0.00000000E+00
  0.00000000E+00  0.00000000E+00  0.00000000E+00
  0.00000000E+00  0.00000000E+00  0.00000000E+00
  0.00000000E+00  0.00000000E+00  0.00000000E+00
  0.00000000E+00  0.00000000E+00  0.00000000E+00
  0.00000000E+00  0.00000000E+00  0.00000000E+00
  0.00000000E+00  0.00000000E+00  0.00000000E+00
  0.00000000E+00  0.00000000E+00  0.00000000E+00
  0.00000000E+00  0.00000000E+00  0.00000000E+00
  0.00000000E+00  0.00000000E+00  0.00000000E+00
  0.00000000E+00  0.00000000E+00  0.00000000E+00
  0.00000000E+00  0.00000000E+00  0.00000000E+00
  0.00000000E+00  0.00000000E+00  0.00000000E+00
  0.00000000E+00  0.00000000E+00  0.00000000E+00
  0.00000000E+00  0.00000000E+00  0.00000000E+00
  0.00000000E+00  0.00000000E+00  0.00000000E+00
  0.00000000E+00  0.00000000E+00  0.00000000E+00
  0.00000000E+00  0.00000000E+00  0.00000000E+00
  0.00000000E+00  0.00000000E+00  0.00000000E+00
  0.00000000E+00  0.00000000E+00  0.00000000E+00
  0.00000000E+00  0.00000000E+00  0.00000000E+00
  0.00000000E+00  0.00000000E+00  0.00000000E+00
  0.00000000E+00  0.00000000E+00  0.00000000E+00
  0.00000000E+00  0.00000000E+00  0.00000000E+00
  0.00000000E+00  0.00000000E+00  0.00000000E+00
  0.00000000E+00  0.00000000E+00  0.00000000E+00
  0.00000000E+00  0.00000000E+00  0.00000000E+00
  0.00000000E+00  0.00000000E+00  0.00000000E+00
  0.00000000E+00  0.00000000E+00  0.00000000E+00
  0.00000000E+00  0.00000000E+00  0.00000000E+00
  0.00000000E+00  0.00000000E+00  0.00000000E+00
  0.00000000E+00  0.00000000E+00  0.00000000E+00
  0.00000000E+00  0.00000000E+00  0.00000000E+00
  0.00000000E+00  0.00000000E+00  0.00000000E+00
  0.00000000E+00  0.00000000E+00  0.00000000E+00
  0.00000000E+00  0.00000000E+00  0.00000000E+00
  0.00000000E+00  0.00000000E+00  0.00000000E+00
  0.00000000E+00  0.00000000E+00  0.00000000E+00
  0.00000000E+00  0.00000000E+00  0.00000000E+00
  0.00000000E+00  0.00000000E+00  0.00000000E+00
  0.00000000E+00  0.00000000E+00  0.00000000E+00
  0.00000000E+00  0.00000000E+00  0.00000000E+00
  0.00000000E+00  0.00000000E+00  0.00000000E+00
