CONTCAR\(2)                             
   1.00000000000000     
    12.3312997818000003    0.0000000000000000    0.0000000000000000
     0.0001127485000000   12.8291997905000006    0.0000000000000000
     0.0005937186000000    0.0011528207000000   19.9943999824000009
   C    N    Fe   Ni   O 
    52     4     1     1     2
Direct
  0.0550834871441785  0.0539363065754746  0.0493009969854328
  0.1555787963462551  0.1097774344634719  0.0497656125234313
  0.1559653500695472  0.2205640384252840  0.0485851963919162
  0.0560796658445807  0.2757059033981348  0.0476201169581081
  0.2562851261261733  0.0557152613537830  0.0520673925470214
  0.3565939191810905  0.1120992537977159  0.0549858925562200
  0.3566671519164148  0.2240898032265824  0.0540114049559104
  0.2556215011819233  0.2768312032628368  0.0497517930232271
  0.4565341701121473  0.0568390749189566  0.0587382830695333
  0.5561643939986649  0.1146810336996985  0.0608154160188502
  0.5571715607125963  0.2287829721272612  0.0615525546764540
  0.4553176892501677  0.2843185200313817  0.0577189434493477
  0.6543630678915120  0.0540957135873711  0.0601622084136873
  0.7544892554889590  0.1100048494083892  0.0568510480818075
  0.7561946145286580  0.2225539981958231  0.0572648625990411
  0.6596225810183335  0.2839703358371839  0.0625825167004164
  0.8541477232190761  0.0532744422059914  0.0530856235376862
  0.9547869916264348  0.1089232319466042  0.0505140179596389
  0.9559897296872004  0.2203227247407900  0.0499735612675845
  0.8567295154488077  0.2766555992049657  0.0527949979766689
  0.0569421373852601  0.3867614807421210  0.0458131207683315
  0.1556158262499636  0.4434328552186119  0.0458044956041173
  0.1560690667340510  0.5545472887873243  0.0453903671484177
  0.0568917099834931  0.6100293513184368  0.0443318659576392
  0.2548366901637508  0.3876961562061578  0.0484001199311233
  0.3532668654408923  0.4430107762521953  0.0524150221119899
  0.3553267342216456  0.5556771206691049  0.0550482774920508
  0.2554501544536289  0.6104654997438096  0.0490416352910742
  0.7607619161545143  0.4457986746487305  0.0571803449485003
  0.8586516539851267  0.3877781261900249  0.0509373311536096
  0.9579498798813333  0.4422954759008714  0.0463313480330111
  0.9579974212699315  0.5529768660578462  0.0453535032078187
  0.8581392001593173  0.6059106184651017  0.0482523953504394
  0.0563465537469708  0.7210390013030441  0.0450515296934240
  0.1553127994371120  0.7772023275158486  0.0474786785991446
  0.1552035932283138  0.8883282377031577  0.0488018658758328
  0.0545587480754949  0.9428174178159964  0.0484351349056557
  0.2548024565976780  0.7214598623626269  0.0503444826576508
  0.3536559678365628  0.7771758884238172  0.0555778549676453
  0.3547568700692387  0.8888552515989822  0.0555044809050191
  0.2552196817224892  0.9443469661603706  0.0518409319171920
  0.4521383329222749  0.7205970061742970  0.0632182396077327
  0.5526315828711726  0.8846744214227421  0.0629464380369389
  0.4548182930840641  0.9443422001354812  0.0595254265864481
  0.7536782719767214  0.8829398174493651  0.0569066279439698
  0.6538941012685563  0.9405364885330297  0.0609252288300683
  0.8572667155147605  0.7182779434839357  0.0482908852919796
  0.9558956787815047  0.7752156301529005  0.0461654750123669
  0.9544674541485081  0.8867173217044607  0.0485443954817708
  0.8535947710360581  0.9411486995522244  0.0524781556871521
  0.4548276031174464  0.6080010490026769  0.0665834494008671
  0.7569948540532153  0.7706936635288879  0.0559323527419551
  0.4502990690646193  0.3922837393127927  0.0567149785693646
  0.6658362925970966  0.3919425351302630  0.0672100449994756
  0.7609224091626594  0.5539691067739213  0.0535393234141121
  0.5483783213309542  0.7771541156271806  0.0657937766838129
  0.6500956797140041  0.6714459864002138  0.0732447622718271
  0.5557669206644150  0.4914620883118097  0.0846769607167656
  0.6186783339149106  0.5442038325849968  0.1620618865097529
  0.6549529361875611  0.6475574452269660  0.1611243750019632
 
  0.00000000E+00  0.00000000E+00  0.00000000E+00
  0.00000000E+00  0.00000000E+00  0.00000000E+00
  0.00000000E+00  0.00000000E+00  0.00000000E+00
  0.00000000E+00  0.00000000E+00  0.00000000E+00
  0.00000000E+00  0.00000000E+00  0.00000000E+00
  0.00000000E+00  0.00000000E+00  0.00000000E+00
  0.00000000E+00  0.00000000E+00  0.00000000E+00
  0.00000000E+00  0.00000000E+00  0.00000000E+00
  0.00000000E+00  0.00000000E+00  0.00000000E+00
  0.00000000E+00  0.00000000E+00  0.00000000E+00
  0.00000000E+00  0.00000000E+00  0.00000000E+00
  0.00000000E+00  0.00000000E+00  0.00000000E+00
  0.00000000E+00  0.00000000E+00  0.00000000E+00
  0.00000000E+00  0.00000000E+00  0.00000000E+00
  0.00000000E+00  0.00000000E+00  0.00000000E+00
  0.00000000E+00  0.00000000E+00  0.00000000E+00
  0.00000000E+00  0.00000000E+00  0.00000000E+00
  0.00000000E+00  0.00000000E+00  0.00000000E+00
  0.00000000E+00  0.00000000E+00  0.00000000E+00
  0.00000000E+00  0.00000000E+00  0.00000000E+00
  0.00000000E+00  0.00000000E+00  0.00000000E+00
  0.00000000E+00  0.00000000E+00  0.00000000E+00
  0.00000000E+00  0.00000000E+00  0.00000000E+00
  0.00000000E+00  0.00000000E+00  0.00000000E+00
  0.00000000E+00  0.00000000E+00  0.00000000E+00
  0.00000000E+00  0.00000000E+00  0.00000000E+00
  0.00000000E+00  0.00000000E+00  0.00000000E+00
  0.00000000E+00  0.00000000E+00  0.00000000E+00
  0.00000000E+00  0.00000000E+00  0.00000000E+00
  0.00000000E+00  0.00000000E+00  0.00000000E+00
  0.00000000E+00  0.00000000E+00  0.00000000E+00
  0.00000000E+00  0.00000000E+00  0.00000000E+00
  0.00000000E+00  0.00000000E+00  0.00000000E+00
  0.00000000E+00  0.00000000E+00  0.00000000E+00
  0.00000000E+00  0.00000000E+00  0.00000000E+00
  0.00000000E+00  0.00000000E+00  0.00000000E+00
  0.00000000E+00  0.00000000E+00  0.00000000E+00
  0.00000000E+00  0.00000000E+00  0.00000000E+00
  0.00000000E+00  0.00000000E+00  0.00000000E+00
  0.00000000E+00  0.00000000E+00  0.00000000E+00
  0.00000000E+00  0.00000000E+00  0.00000000E+00
  0.00000000E+00  0.00000000E+00  0.00000000E+00
  0.00000000E+00  0.00000000E+00  0.00000000E+00
  0.00000000E+00  0.00000000E+00  0.00000000E+00
  0.00000000E+00  0.00000000E+00  0.00000000E+00
  0.00000000E+00  0.00000000E+00  0.00000000E+00
  0.00000000E+00  0.00000000E+00  0.00000000E+00
  0.00000000E+00  0.00000000E+00  0.00000000E+00
  0.00000000E+00  0.00000000E+00  0.00000000E+00
  0.00000000E+00  0.00000000E+00  0.00000000E+00
  0.00000000E+00  0.00000000E+00  0.00000000E+00
  0.00000000E+00  0.00000000E+00  0.00000000E+00
  0.00000000E+00  0.00000000E+00  0.00000000E+00
  0.00000000E+00  0.00000000E+00  0.00000000E+00
  0.00000000E+00  0.00000000E+00  0.00000000E+00
  0.00000000E+00  0.00000000E+00  0.00000000E+00
  0.00000000E+00  0.00000000E+00  0.00000000E+00
  0.00000000E+00  0.00000000E+00  0.00000000E+00
  0.00000000E+00  0.00000000E+00  0.00000000E+00
  0.00000000E+00  0.00000000E+00  0.00000000E+00
