CONTCAR\(6)                             
   1.00000000000000     
    12.3312997818000003    0.0000000000000000    0.0000000000000000
     0.0001127485000000   12.8291997905000006    0.0000000000000000
     0.0005937186000000    0.0011528207000000   19.9943999824000009
   C    N    Fe   Ni   O    H 
    55     1     1     1     2     2
Direct
  0.0552504099270962  0.0519605878801264  0.0473707640379695
  0.1554085550493228  0.1062872359027079  0.0465518094292781
  0.1541944695584562  0.2172460353431331  0.0456801937172677
  0.0543700672290124  0.2735916228627165  0.0460343114603065
  0.2559558594841725  0.0507283714906065  0.0477547523004914
  0.3559621301718342  0.1063763217018133  0.0499292603513708
  0.3546315369628794  0.2180540371831767  0.0492622324852568
  0.2539192107648320  0.2721761416952254  0.0460930964664029
  0.4559187444858600  0.0508573062730618  0.0533917954434122
  0.5545679793084038  0.1090898800804376  0.0565595496121686
  0.5536729736210276  0.2211643065579842  0.0580534425699443
  0.4528838871261339  0.2764669227927254  0.0535940142825195
  0.6549582392438678  0.0517271778820880  0.0574413618707312
  0.7547300298151477  0.1085714057484882  0.0551232987775058
  0.7542433476124811  0.2204696253108126  0.0556800947472982
  0.6542389314629834  0.2784669534864501  0.0609609524527812
  0.8546941832841507  0.0524623334198075  0.0520450293170976
  0.9547085042316087  0.1079567859051698  0.0490083258156435
  0.9538192707540569  0.2193076944198586  0.0486367095419268
  0.8537220141552618  0.2761896425021428  0.0520061332933396
  0.0545159972082745  0.3847933666123331  0.0452811108026778
  0.1541305541757874  0.4397348861320880  0.0442678645018190
  0.1554440898623907  0.5512355668709739  0.0443733667073533
  0.0563498009838905  0.6073756914970144  0.0454309791654367
  0.2531429315206337  0.3827848922225277  0.0452452677871661
  0.3529647864634336  0.4365205145421605  0.0484313211303537
  0.3557467096277396  0.5492848808906134  0.0503569132444292
  0.2555845277578166  0.6057690791300820  0.0461657649537202
  0.7541362640154816  0.4471003755454674  0.0596712500833413
  0.8541278655115679  0.3881097430462260  0.0519093766953121
  0.9547233438669143  0.4413681568474793  0.0476256331878699
  0.9562111953732082  0.5521343219575710  0.0477846228849764
  0.8571285048047670  0.6084886493113030  0.0526919601710785
  0.0572621057662078  0.7187372127848661  0.0460016211702218
  0.1568342544077956  0.7734246591088346  0.0461153021366824
  0.1565273196352105  0.8848460922594389  0.0466957000881490
  0.0562930045418955  0.9409689242363110  0.0474370162682265
  0.2566410391403473  0.7166998715020112  0.0473612173322149
  0.3570966850131724  0.7707675554250026  0.0508648623347845
  0.3571805419659130  0.8826811704515684  0.0504924088959224
  0.2568576183744598  0.9393472938800036  0.0478382475834885
  0.4570437294463086  0.7120850031689431  0.0566189897794539
  0.5569070068554264  0.8807804687942350  0.0578739040510708
  0.4569109645888441  0.9383820421377017  0.0537871388321284
  0.7561165976919491  0.8839222123458524  0.0584146124115299
  0.6559501556169833  0.9401418471859275  0.0589459317056243
  0.8588996064684959  0.7205044406008019  0.0531381441704063
  0.9577179285032164  0.7753081092472345  0.0486704168683152
  0.9563621015636070  0.8861341149839028  0.0494670031834631
  0.8555605849850055  0.9407824213152380  0.0528380459817045
  0.6586748163156486  0.3875166925737724  0.0681553777378158
  0.7562894622533395  0.5594413902054369  0.0610234366783212
  0.4553229422363063  0.6000072975922071  0.0596127746062522
  0.5557619459677794  0.7695038627535410  0.0608249455507195
  0.7596088520362254  0.7730366356416950  0.0621870472494354
  0.4488881392272246  0.3844218691939876  0.0533596776069110
  0.6610178916818602  0.6759051687838049  0.0968079283751045
  0.5465531208310702  0.4769453780572910  0.0944942987564249
  0.5792849696558410  0.5071763470586618  0.1788878024815965
  0.6854167924508785  0.6890230575464856  0.1854585622971005
  0.7486948994170370  0.7277968163160682  0.2006409039320676
  0.6236879909414519  0.5663814488048110  0.1945041166466275
 
  0.00000000E+00  0.00000000E+00  0.00000000E+00
  0.00000000E+00  0.00000000E+00  0.00000000E+00
  0.00000000E+00  0.00000000E+00  0.00000000E+00
  0.00000000E+00  0.00000000E+00  0.00000000E+00
  0.00000000E+00  0.00000000E+00  0.00000000E+00
  0.00000000E+00  0.00000000E+00  0.00000000E+00
  0.00000000E+00  0.00000000E+00  0.00000000E+00
  0.00000000E+00  0.00000000E+00  0.00000000E+00
  0.00000000E+00  0.00000000E+00  0.00000000E+00
  0.00000000E+00  0.00000000E+00  0.00000000E+00
  0.00000000E+00  0.00000000E+00  0.00000000E+00
  0.00000000E+00  0.00000000E+00  0.00000000E+00
  0.00000000E+00  0.00000000E+00  0.00000000E+00
  0.00000000E+00  0.00000000E+00  0.00000000E+00
  0.00000000E+00  0.00000000E+00  0.00000000E+00
  0.00000000E+00  0.00000000E+00  0.00000000E+00
  0.00000000E+00  0.00000000E+00  0.00000000E+00
  0.00000000E+00  0.00000000E+00  0.00000000E+00
  0.00000000E+00  0.00000000E+00  0.00000000E+00
  0.00000000E+00  0.00000000E+00  0.00000000E+00
  0.00000000E+00  0.00000000E+00  0.00000000E+00
  0.00000000E+00  0.00000000E+00  0.00000000E+00
  0.00000000E+00  0.00000000E+00  0.00000000E+00
  0.00000000E+00  0.00000000E+00  0.00000000E+00
  0.00000000E+00  0.00000000E+00  0.00000000E+00
  0.00000000E+00  0.00000000E+00  0.00000000E+00
  0.00000000E+00  0.00000000E+00  0.00000000E+00
  0.00000000E+00  0.00000000E+00  0.00000000E+00
  0.00000000E+00  0.00000000E+00  0.00000000E+00
  0.00000000E+00  0.00000000E+00  0.00000000E+00
  0.00000000E+00  0.00000000E+00  0.00000000E+00
  0.00000000E+00  0.00000000E+00  0.00000000E+00
  0.00000000E+00  0.00000000E+00  0.00000000E+00
  0.00000000E+00  0.00000000E+00  0.00000000E+00
  0.00000000E+00  0.00000000E+00  0.00000000E+00
  0.00000000E+00  0.00000000E+00  0.00000000E+00
  0.00000000E+00  0.00000000E+00  0.00000000E+00
  0.00000000E+00  0.00000000E+00  0.00000000E+00
  0.00000000E+00  0.00000000E+00  0.00000000E+00
  0.00000000E+00  0.00000000E+00  0.00000000E+00
  0.00000000E+00  0.00000000E+00  0.00000000E+00
  0.00000000E+00  0.00000000E+00  0.00000000E+00
  0.00000000E+00  0.00000000E+00  0.00000000E+00
  0.00000000E+00  0.00000000E+00  0.00000000E+00
  0.00000000E+00  0.00000000E+00  0.00000000E+00
  0.00000000E+00  0.00000000E+00  0.00000000E+00
  0.00000000E+00  0.00000000E+00  0.00000000E+00
  0.00000000E+00  0.00000000E+00  0.00000000E+00
  0.00000000E+00  0.00000000E+00  0.00000000E+00
  0.00000000E+00  0.00000000E+00  0.00000000E+00
  0.00000000E+00  0.00000000E+00  0.00000000E+00
  0.00000000E+00  0.00000000E+00  0.00000000E+00
  0.00000000E+00  0.00000000E+00  0.00000000E+00
  0.00000000E+00  0.00000000E+00  0.00000000E+00
  0.00000000E+00  0.00000000E+00  0.00000000E+00
  0.00000000E+00  0.00000000E+00  0.00000000E+00
  0.00000000E+00  0.00000000E+00  0.00000000E+00
  0.00000000E+00  0.00000000E+00  0.00000000E+00
  0.00000000E+00  0.00000000E+00  0.00000000E+00
  0.00000000E+00  0.00000000E+00  0.00000000E+00
  0.00000000E+00  0.00000000E+00  0.00000000E+00
  0.00000000E+00  0.00000000E+00  0.00000000E+00
