CONTCAR\(3)                             
   1.00000000000000     
    12.3312997818000003    0.0000000000000000    0.0000000000000000
     0.0001127485000000   12.8291997905000006    0.0000000000000000
     0.0005937186000000    0.0011528207000000   19.9943999824000009
   C    N    Fe   Ni   O 
    55     1     1     1     2
Direct
  0.0555624627461931  0.0541341104852698  0.0472695881441849
  0.1558102603593936  0.1095705170618429  0.0478114986394509
  0.1563033626640282  0.2203701883485294  0.0474269260980020
  0.0564146653007858  0.2754705243453964  0.0459027619342024
  0.2560352563729698  0.0549784439845307  0.0497740626820685
  0.3561873673970880  0.1109554307484885  0.0531283942798247
  0.3567341299681231  0.2223061350158222  0.0539792599140096
  0.2561840892249169  0.2762558407828553  0.0500663625548348
  0.4558564951286173  0.0552972458701878  0.0565603782867661
  0.5561898033083792  0.1116676287753304  0.0591143903023919
  0.5568384260702338  0.2230048444544693  0.0611919143283115
  0.4565852354468160  0.2797428322672229  0.0597601853550575
  0.6559020432842395  0.0536176122865317  0.0582936919048352
  0.7556927232168762  0.1101589949986660  0.0545239054708330
  0.7561164246333267  0.2219599866138587  0.0542810858014909
  0.6573293175847105  0.2808405603469392  0.0607752699165880
  0.8552203311170372  0.0537652828630930  0.0511899540428082
  0.9554185010589268  0.1092761685052030  0.0482286490130204
  0.9559850989773070  0.2204031619996549  0.0473231664834735
  0.8563330496544673  0.2764168150068236  0.0496017734626916
  0.0572680445601848  0.3864610429851210  0.0449395716320631
  0.1561393432205056  0.4427321851600902  0.0465086708230515
  0.1563306000609402  0.5542768622677141  0.0462522399271488
  0.0572259795049977  0.6097341004008605  0.0443384179167401
  0.2556406577720461  0.3871296589271104  0.0499444030877821
  0.3543589022634672  0.4430042871839707  0.0558397888195781
  0.3546216445648730  0.5554002300333235  0.0566885604724627
  0.2551775635816208  0.6105927965912327  0.0499193000177110
  0.7598867473072652  0.4464106151896312  0.0542770066760003
  0.8578810303018984  0.3876502433097448  0.0482061788901200
  0.9578354106825838  0.4419507037106331  0.0449827861488725
  0.9587589845840979  0.5526153947876197  0.0447509166777674
  0.8589697387717274  0.6058923130116798  0.0478009702044682
  0.0561669594592645  0.7209327038012497  0.0447218308487314
  0.1548899272291349  0.7770568371667211  0.0459007143662081
  0.1553383019052313  0.8883047062056998  0.0466426550690166
  0.0551688575053684  0.9432275170176287  0.0467774414998597
  0.2542267380936400  0.7215222833850080  0.0488099301116767
  0.3529322537829656  0.7770808582696352  0.0528200204614858
  0.3549846310713628  0.8882476042726326  0.0525672746474349
  0.2553603174372087  0.9439202685308763  0.0491820553276355
  0.4509258928740707  0.7200089204565551  0.0624337313732880
  0.5543416003408891  0.8865121110719568  0.0621510877868031
  0.4549662541889069  0.9438445033664814  0.0570544489125327
  0.7552905145087330  0.8846390981217973  0.0570991726478947
  0.6554723912394483  0.9423064078458940  0.0602414060138438
  0.8572507083903461  0.7196224244902135  0.0491867386360299
  0.9561317915302923  0.7758926219463251  0.0464674346463605
  0.9552023502220837  0.8872029600248900  0.0479554516640519
  0.8549167695653400  0.9419307772476451  0.0516709680985140
  0.4539243531685448  0.3902684460271703  0.0631745372159101
  0.6602597005500048  0.3912620739352994  0.0664647148979127
  0.5494303141346452  0.7771775434430964  0.0674433027934677
  0.7577059560998231  0.7734219438118484  0.0577552130140915
  0.4528396757345263  0.6080036788815728  0.0675087453498818
  0.7638035802959723  0.5536855733288029  0.0525267377058724
  0.6516340587136588  0.6717179652685584  0.0772445665725292
  0.5556534560075312  0.4854023728078166  0.0947095441787195
  0.6163168793109290  0.5507451162720214  0.1692011689328718
  0.6425421079494859  0.6572498536831718  0.1656070823187381
 
  0.00000000E+00  0.00000000E+00  0.00000000E+00
  0.00000000E+00  0.00000000E+00  0.00000000E+00
  0.00000000E+00  0.00000000E+00  0.00000000E+00
  0.00000000E+00  0.00000000E+00  0.00000000E+00
  0.00000000E+00  0.00000000E+00  0.00000000E+00
  0.00000000E+00  0.00000000E+00  0.00000000E+00
  0.00000000E+00  0.00000000E+00  0.00000000E+00
  0.00000000E+00  0.00000000E+00  0.00000000E+00
  0.00000000E+00  0.00000000E+00  0.00000000E+00
  0.00000000E+00  0.00000000E+00  0.00000000E+00
  0.00000000E+00  0.00000000E+00  0.00000000E+00
  0.00000000E+00  0.00000000E+00  0.00000000E+00
  0.00000000E+00  0.00000000E+00  0.00000000E+00
  0.00000000E+00  0.00000000E+00  0.00000000E+00
  0.00000000E+00  0.00000000E+00  0.00000000E+00
  0.00000000E+00  0.00000000E+00  0.00000000E+00
  0.00000000E+00  0.00000000E+00  0.00000000E+00
  0.00000000E+00  0.00000000E+00  0.00000000E+00
  0.00000000E+00  0.00000000E+00  0.00000000E+00
  0.00000000E+00  0.00000000E+00  0.00000000E+00
  0.00000000E+00  0.00000000E+00  0.00000000E+00
  0.00000000E+00  0.00000000E+00  0.00000000E+00
  0.00000000E+00  0.00000000E+00  0.00000000E+00
  0.00000000E+00  0.00000000E+00  0.00000000E+00
  0.00000000E+00  0.00000000E+00  0.00000000E+00
  0.00000000E+00  0.00000000E+00  0.00000000E+00
  0.00000000E+00  0.00000000E+00  0.00000000E+00
  0.00000000E+00  0.00000000E+00  0.00000000E+00
  0.00000000E+00  0.00000000E+00  0.00000000E+00
  0.00000000E+00  0.00000000E+00  0.00000000E+00
  0.00000000E+00  0.00000000E+00  0.00000000E+00
  0.00000000E+00  0.00000000E+00  0.00000000E+00
  0.00000000E+00  0.00000000E+00  0.00000000E+00
  0.00000000E+00  0.00000000E+00  0.00000000E+00
  0.00000000E+00  0.00000000E+00  0.00000000E+00
  0.00000000E+00  0.00000000E+00  0.00000000E+00
  0.00000000E+00  0.00000000E+00  0.00000000E+00
  0.00000000E+00  0.00000000E+00  0.00000000E+00
  0.00000000E+00  0.00000000E+00  0.00000000E+00
  0.00000000E+00  0.00000000E+00  0.00000000E+00
  0.00000000E+00  0.00000000E+00  0.00000000E+00
  0.00000000E+00  0.00000000E+00  0.00000000E+00
  0.00000000E+00  0.00000000E+00  0.00000000E+00
  0.00000000E+00  0.00000000E+00  0.00000000E+00
  0.00000000E+00  0.00000000E+00  0.00000000E+00
  0.00000000E+00  0.00000000E+00  0.00000000E+00
  0.00000000E+00  0.00000000E+00  0.00000000E+00
  0.00000000E+00  0.00000000E+00  0.00000000E+00
  0.00000000E+00  0.00000000E+00  0.00000000E+00
  0.00000000E+00  0.00000000E+00  0.00000000E+00
  0.00000000E+00  0.00000000E+00  0.00000000E+00
  0.00000000E+00  0.00000000E+00  0.00000000E+00
  0.00000000E+00  0.00000000E+00  0.00000000E+00
  0.00000000E+00  0.00000000E+00  0.00000000E+00
  0.00000000E+00  0.00000000E+00  0.00000000E+00
  0.00000000E+00  0.00000000E+00  0.00000000E+00
  0.00000000E+00  0.00000000E+00  0.00000000E+00
  0.00000000E+00  0.00000000E+00  0.00000000E+00
  0.00000000E+00  0.00000000E+00  0.00000000E+00
  0.00000000E+00  0.00000000E+00  0.00000000E+00
