CONTCAR                                 
   1.00000000000000     
    12.3312997818000003    0.0000000000000000    0.0000000000000000
     0.0001127485000000   12.8291997905000006    0.0000000000000000
     0.0005937186000000    0.0011528207000000   19.9943999824000009
   C    N    Fe   Ni   H 
    52     4     1     1     2
Direct
  0.0556444287213704  0.0539981959675940  0.0504210352906877
  0.1562114923406831  0.1089778710892192  0.0503909577466886
  0.1559815842081305  0.2197547145180039  0.0489537610749320
  0.0558342958536716  0.2751678779608820  0.0477751400875105
  0.2566970688840440  0.0540971951333559  0.0526802091216254
  0.3570696985118169  0.1098211174127587  0.0562473584695755
  0.3564895425439803  0.2219190512237863  0.0554947645863261
  0.2556805689743901  0.2753822794068820  0.0503511561883726
  0.4568501247059188  0.0536210680209997  0.0605432340555310
  0.5562221904580298  0.1118785465667081  0.0638406194228457
  0.5561436437620505  0.2254666135023009  0.0646808736299198
  0.4550079769855487  0.2815714045674846  0.0601264717147708
  0.6557602676266044  0.0517379688860908  0.0636941396679012
  0.7549446009549496  0.1099946737343092  0.0602308827282475
  0.7553060082537277  0.2228032746789220  0.0605099031971391
  0.6571351842071111  0.2839654259603890  0.0661502093269216
  0.8545917693466477  0.0533202010962735  0.0558710953103205
  0.9551190075387009  0.1089002043092232  0.0522691598843547
  0.9554993939983129  0.2203325466716853  0.0511428187405725
  0.8559690948772188  0.2770179156140206  0.0546820726396174
  0.0569062358413202  0.3862169720505104  0.0453149878625351
  0.1557188348180802  0.4423156756981654  0.0444675975081859
  0.1554266814090592  0.5532016090323718  0.0434772490261444
  0.0571112451985154  0.6098305280823872  0.0431674800130110
  0.2550244345585846  0.3864816004253238  0.0480759743718540
  0.3536922375871708  0.4411917827289478  0.0525748788884518
  0.3524996989676737  0.5541879743520123  0.0532707556631290
  0.2538248184406403  0.6091627751165906  0.0470459581077621
  0.7622834104707790  0.4483191193813293  0.0603907479013859
  0.8587865107239374  0.3884658966187526  0.0526478593620861
  0.9581896338012643  0.4426179274734938  0.0467228773455914
  0.9588041254981678  0.5537826721296432  0.0454665662525554
  0.8600359671871368  0.6086677467421598  0.0508196691683762
  0.0564144239702805  0.7207269658277201  0.0447653722079532
  0.1550979206857767  0.7767555969747308  0.0464438447323542
  0.1560868538456818  0.8877298923276754  0.0487647639913984
  0.0559218914117527  0.9431623817318809  0.0494813735269520
  0.2539052889293652  0.7202656767625529  0.0484154457327241
  0.3531308379764785  0.7744915472932447  0.0543958563088660
  0.3558940539586046  0.8861810877802743  0.0556881323196312
  0.2564615541578636  0.9426383608211107  0.0520163134156357
  0.4494275219727812  0.7145889955383693  0.0627732427636987
  0.5545843340828872  0.8807702549660076  0.0663560683348928
  0.4564440213324474  0.9409926779825111  0.0609572754421193
  0.7567629929771799  0.8813392107990013  0.0597736687271389
  0.6557575127964135  0.9380136281902250  0.0645025014478327
  0.8583136338103785  0.7215699162163347  0.0513570623912809
  0.9569293966026352  0.7764918714183964  0.0480333204148821
  0.9562080810803499  0.8875755717200065  0.0505175113907253
  0.8551218453625855  0.9410489709034270  0.0551588984257106
  0.6622351938920905  0.3955726443755986  0.0703608842948179
  0.5499828330197162  0.7690755934610058  0.0708028583854153
  0.4507920594228730  0.3899627502544210  0.0591584334474090
  0.4471285031926658  0.6062277016659686  0.0628071212585150
  0.7654512413573061  0.5566971210866524  0.0590739491751631
  0.7605490875453178  0.7722374261663369  0.0583975361396361
  0.6530820275017191  0.6643863872999389  0.0756710318902428
  0.5544605458903952  0.4957443263734110  0.0755898348042507
  0.6413576595237808  0.6907477134716863  0.1469595883533383
  0.6112668744454445  0.5740353654389171  0.1272296373224599
 
  0.00000000E+00  0.00000000E+00  0.00000000E+00
  0.00000000E+00  0.00000000E+00  0.00000000E+00
  0.00000000E+00  0.00000000E+00  0.00000000E+00
  0.00000000E+00  0.00000000E+00  0.00000000E+00
  0.00000000E+00  0.00000000E+00  0.00000000E+00
  0.00000000E+00  0.00000000E+00  0.00000000E+00
  0.00000000E+00  0.00000000E+00  0.00000000E+00
  0.00000000E+00  0.00000000E+00  0.00000000E+00
  0.00000000E+00  0.00000000E+00  0.00000000E+00
  0.00000000E+00  0.00000000E+00  0.00000000E+00
  0.00000000E+00  0.00000000E+00  0.00000000E+00
  0.00000000E+00  0.00000000E+00  0.00000000E+00
  0.00000000E+00  0.00000000E+00  0.00000000E+00
  0.00000000E+00  0.00000000E+00  0.00000000E+00
  0.00000000E+00  0.00000000E+00  0.00000000E+00
  0.00000000E+00  0.00000000E+00  0.00000000E+00
  0.00000000E+00  0.00000000E+00  0.00000000E+00
  0.00000000E+00  0.00000000E+00  0.00000000E+00
  0.00000000E+00  0.00000000E+00  0.00000000E+00
  0.00000000E+00  0.00000000E+00  0.00000000E+00
  0.00000000E+00  0.00000000E+00  0.00000000E+00
  0.00000000E+00  0.00000000E+00  0.00000000E+00
  0.00000000E+00  0.00000000E+00  0.00000000E+00
  0.00000000E+00  0.00000000E+00  0.00000000E+00
  0.00000000E+00  0.00000000E+00  0.00000000E+00
  0.00000000E+00  0.00000000E+00  0.00000000E+00
  0.00000000E+00  0.00000000E+00  0.00000000E+00
  0.00000000E+00  0.00000000E+00  0.00000000E+00
  0.00000000E+00  0.00000000E+00  0.00000000E+00
  0.00000000E+00  0.00000000E+00  0.00000000E+00
  0.00000000E+00  0.00000000E+00  0.00000000E+00
  0.00000000E+00  0.00000000E+00  0.00000000E+00
  0.00000000E+00  0.00000000E+00  0.00000000E+00
  0.00000000E+00  0.00000000E+00  0.00000000E+00
  0.00000000E+00  0.00000000E+00  0.00000000E+00
  0.00000000E+00  0.00000000E+00  0.00000000E+00
  0.00000000E+00  0.00000000E+00  0.00000000E+00
  0.00000000E+00  0.00000000E+00  0.00000000E+00
  0.00000000E+00  0.00000000E+00  0.00000000E+00
  0.00000000E+00  0.00000000E+00  0.00000000E+00
  0.00000000E+00  0.00000000E+00  0.00000000E+00
  0.00000000E+00  0.00000000E+00  0.00000000E+00
  0.00000000E+00  0.00000000E+00  0.00000000E+00
  0.00000000E+00  0.00000000E+00  0.00000000E+00
  0.00000000E+00  0.00000000E+00  0.00000000E+00
  0.00000000E+00  0.00000000E+00  0.00000000E+00
  0.00000000E+00  0.00000000E+00  0.00000000E+00
  0.00000000E+00  0.00000000E+00  0.00000000E+00
  0.00000000E+00  0.00000000E+00  0.00000000E+00
  0.00000000E+00  0.00000000E+00  0.00000000E+00
  0.00000000E+00  0.00000000E+00  0.00000000E+00
  0.00000000E+00  0.00000000E+00  0.00000000E+00
  0.00000000E+00  0.00000000E+00  0.00000000E+00
  0.00000000E+00  0.00000000E+00  0.00000000E+00
  0.00000000E+00  0.00000000E+00  0.00000000E+00
  0.00000000E+00  0.00000000E+00  0.00000000E+00
  0.00000000E+00  0.00000000E+00  0.00000000E+00
  0.00000000E+00  0.00000000E+00  0.00000000E+00
  0.00000000E+00  0.00000000E+00  0.00000000E+00
  0.00000000E+00  0.00000000E+00  0.00000000E+00
