CONTCAR\(2)                             
   1.00000000000000     
    12.3312997818000003    0.0000000000000000    0.0000000000000000
     0.0001127485000000   12.8291997905000006    0.0000000000000000
     0.0005937186000000    0.0011528207000000   19.9943999824000009
   C    N    Fe   Ni   H 
    55     1     1     1     2
Direct
  0.0547020634885566  0.0527976673936518  0.0548830024038448
  0.1549685496469811  0.1083301306551325  0.0539123887114525
  0.1550416856693544  0.2191573205247413  0.0530352066214259
  0.0555248094949367  0.2745360606762039  0.0528388073825915
  0.2551811830704288  0.0539448698351598  0.0539901620774579
  0.3553865279376680  0.1100863316398281  0.0546683529394896
  0.3553045990777627  0.2216499009395197  0.0545572374134476
  0.2546586253591206  0.2750318924679426  0.0529525849026934
  0.4550221547478470  0.0547854441334618  0.0557908004414895
  0.5545918051256478  0.1117902364968966  0.0580786553452189
  0.5549216646731532  0.2239705042846519  0.0593044237011894
  0.4541300337458534  0.2804288401561718  0.0565406006436802
  0.6547033155447914  0.0531963002793229  0.0590845367795127
  0.7550664328415353  0.1090185180857405  0.0586470537320848
  0.7557914600413176  0.2206126877102465  0.0586745537760877
  0.6567066370064766  0.2793679441361392  0.0616448768885627
  0.8539003417857358  0.0515728123128975  0.0574998756465674
  0.9544812454291707  0.1075615956039503  0.0555937311055796
  0.9552816081088490  0.2189573763702508  0.0545016883937962
  0.8562060788703890  0.2755101988749772  0.0558564041328546
  0.0566804651314512  0.3858542377354594  0.0519851411368475
  0.1555227455638176  0.4420023485067314  0.0515009278557714
  0.1559272069228092  0.5534340241541209  0.0515394427572067
  0.0564493363636770  0.6089818197417377  0.0525135963742950
  0.2544291959781634  0.3857855302056686  0.0520502288053857
  0.3538273680954060  0.4403350717933593  0.0529519604725756
  0.3558792985681987  0.5536230219432369  0.0525234141772279
  0.2553131803759104  0.6087990988199635  0.0517364380246869
  0.7605991542249140  0.4446935979659281  0.0597537023398865
  0.8587025498561514  0.3868508436703305  0.0547718348721457
  0.9578464747527515  0.4416822193752158  0.0526215541682449
  0.9575271006568005  0.5527209678724924  0.0533355186233732
  0.8582418393080243  0.6083237610834132  0.0564013281191473
  0.0554054513548803  0.7202464241582532  0.0535321754816171
  0.1546314994111954  0.7757727414850946  0.0532425273433889
  0.1546923637453759  0.8870009905182047  0.0539859310904604
  0.0544633897740128  0.9419968419031612  0.0551991073039070
  0.2544008655123247  0.7200526719587087  0.0525150493621878
  0.3533821199675604  0.7758924572276165  0.0531776377291527
  0.3544890713785004  0.8871845795086530  0.0537151575703176
  0.2547181756383400  0.9427351622014517  0.0537633784814839
  0.4532160651046649  0.7190804408470497  0.0538057092093732
  0.5539498419385978  0.8862073449194593  0.0567516148666230
  0.4546057929639580  0.9430963930987959  0.0550063299372998
  0.7528249350869011  0.8808070678970584  0.0602221508780547
  0.6546259695497392  0.9416178313519167  0.0591588497102893
  0.8563688684853412  0.7198948729474570  0.0578579556314862
  0.9552855807657763  0.7756679008319886  0.0556508309645117
  0.9543939769978591  0.8863612464574179  0.0565568613482857
  0.8530953575515107  0.9393732081115520  0.0582796318603237
  0.4559637252207473  0.6067386247666279  0.0544151392285277
  0.6620595046243798  0.3888290619880004  0.0653388403565805
  0.7583551672898214  0.5568622853875697  0.0596723248938803
  0.5521555945415942  0.7766992485121994  0.0566047645772501
  0.7530761372893352  0.7677100271228786  0.0612412024021572
  0.4504425619220170  0.3886994906208815  0.0556305862283866
  0.6342358029433171  0.6579782767411911  0.0683152662653885
  0.5593531123085370  0.4908488215945147  0.0660393097833419
  0.6570042538393256  0.6846098160339181  0.1383647500611072
  0.6242980053307535  0.5627531213638178  0.1195968876687922
 
  0.00000000E+00  0.00000000E+00  0.00000000E+00
  0.00000000E+00  0.00000000E+00  0.00000000E+00
  0.00000000E+00  0.00000000E+00  0.00000000E+00
  0.00000000E+00  0.00000000E+00  0.00000000E+00
  0.00000000E+00  0.00000000E+00  0.00000000E+00
  0.00000000E+00  0.00000000E+00  0.00000000E+00
  0.00000000E+00  0.00000000E+00  0.00000000E+00
  0.00000000E+00  0.00000000E+00  0.00000000E+00
  0.00000000E+00  0.00000000E+00  0.00000000E+00
  0.00000000E+00  0.00000000E+00  0.00000000E+00
  0.00000000E+00  0.00000000E+00  0.00000000E+00
  0.00000000E+00  0.00000000E+00  0.00000000E+00
  0.00000000E+00  0.00000000E+00  0.00000000E+00
  0.00000000E+00  0.00000000E+00  0.00000000E+00
  0.00000000E+00  0.00000000E+00  0.00000000E+00
  0.00000000E+00  0.00000000E+00  0.00000000E+00
  0.00000000E+00  0.00000000E+00  0.00000000E+00
  0.00000000E+00  0.00000000E+00  0.00000000E+00
  0.00000000E+00  0.00000000E+00  0.00000000E+00
  0.00000000E+00  0.00000000E+00  0.00000000E+00
  0.00000000E+00  0.00000000E+00  0.00000000E+00
  0.00000000E+00  0.00000000E+00  0.00000000E+00
  0.00000000E+00  0.00000000E+00  0.00000000E+00
  0.00000000E+00  0.00000000E+00  0.00000000E+00
  0.00000000E+00  0.00000000E+00  0.00000000E+00
  0.00000000E+00  0.00000000E+00  0.00000000E+00
  0.00000000E+00  0.00000000E+00  0.00000000E+00
  0.00000000E+00  0.00000000E+00  0.00000000E+00
  0.00000000E+00  0.00000000E+00  0.00000000E+00
  0.00000000E+00  0.00000000E+00  0.00000000E+00
  0.00000000E+00  0.00000000E+00  0.00000000E+00
  0.00000000E+00  0.00000000E+00  0.00000000E+00
  0.00000000E+00  0.00000000E+00  0.00000000E+00
  0.00000000E+00  0.00000000E+00  0.00000000E+00
  0.00000000E+00  0.00000000E+00  0.00000000E+00
  0.00000000E+00  0.00000000E+00  0.00000000E+00
  0.00000000E+00  0.00000000E+00  0.00000000E+00
  0.00000000E+00  0.00000000E+00  0.00000000E+00
  0.00000000E+00  0.00000000E+00  0.00000000E+00
  0.00000000E+00  0.00000000E+00  0.00000000E+00
  0.00000000E+00  0.00000000E+00  0.00000000E+00
  0.00000000E+00  0.00000000E+00  0.00000000E+00
  0.00000000E+00  0.00000000E+00  0.00000000E+00
  0.00000000E+00  0.00000000E+00  0.00000000E+00
  0.00000000E+00  0.00000000E+00  0.00000000E+00
  0.00000000E+00  0.00000000E+00  0.00000000E+00
  0.00000000E+00  0.00000000E+00  0.00000000E+00
  0.00000000E+00  0.00000000E+00  0.00000000E+00
  0.00000000E+00  0.00000000E+00  0.00000000E+00
  0.00000000E+00  0.00000000E+00  0.00000000E+00
  0.00000000E+00  0.00000000E+00  0.00000000E+00
  0.00000000E+00  0.00000000E+00  0.00000000E+00
  0.00000000E+00  0.00000000E+00  0.00000000E+00
  0.00000000E+00  0.00000000E+00  0.00000000E+00
  0.00000000E+00  0.00000000E+00  0.00000000E+00
  0.00000000E+00  0.00000000E+00  0.00000000E+00
  0.00000000E+00  0.00000000E+00  0.00000000E+00
  0.00000000E+00  0.00000000E+00  0.00000000E+00
  0.00000000E+00  0.00000000E+00  0.00000000E+00
  0.00000000E+00  0.00000000E+00  0.00000000E+00
