POSCAR\(2)                              
   1.00000000000000     
    12.3312997818000003    0.0000000000000000    0.0000000000000000
     0.0001127485000000   12.8291997905000006    0.0000000000000000
     0.0005937186000000    0.0011528207000000   19.9943999824000009
   C    N    Fe   Ni
    53     3     1     1
Direct
  0.0564579430110673  0.0544828887968295  0.0558035287895011
  0.1565880331035893  0.1107392867988076  0.0558220346307494
  0.1573257048147445  0.2217884411221609  0.0558006700773964
  0.0572622580297532  0.2762385269521148  0.0557670559895286
  0.2569373335082668  0.0561410584158033  0.0558308887041776
  0.3572455081046715  0.1125542017734681  0.0557935623182768
  0.3581394758241340  0.2244685438399411  0.0557530338896995
  0.2573695140330682  0.2783447438456718  0.0557815527115265
  0.4568733632792644  0.0564525849664561  0.0557614224792088
  0.5577427537602559  0.1121834233759198  0.0557091863292804
  0.5585087885399372  0.2245468431605407  0.0556793182937916
  0.4586359655293593  0.2826189985930019  0.0556868520991714
  0.6567905234906160  0.0523157872888170  0.0556756647813475
  0.7563046248446023  0.1091285104294653  0.0556853911728211
  0.7579479649240254  0.2209914902022664  0.0556694979906683
  0.6595209310708936  0.2805205565186910  0.0556424273686577
  0.8555151768501296  0.0525575463312507  0.0557057971406298
  0.9560760130522120  0.1085206852683513  0.0557412292778431
  0.9575586911846186  0.2197076097255977  0.0557211786146244
  0.8583271889280122  0.2753351789686950  0.0556693175116207
  0.0574433967909201  0.3876041020438555  0.0557590296507257
  0.1563197088479895  0.4438501828352621  0.0557870833790891
  0.1559214257250947  0.5548527775801826  0.0557894095861078
  0.0561092661224025  0.6100496529855174  0.0557755689957281
  0.2563242221689334  0.3893867573802576  0.0557712005725918
  0.3555639765685012  0.4459521434219346  0.0557125626908872
  0.3554083786054757  0.5581362107247582  0.0557041943064111
  0.2547851787301441  0.6117573761817228  0.0557743373244791
  0.7611551561427026  0.4421911727288138  0.0556028397227499
  0.8597096728382122  0.3863423915648178  0.0556429719407113
  0.9580556105356878  0.4431392325879365  0.0557014916368641
  0.9566733278015733  0.5541825032170276  0.0557151404150538
  0.8553631052645376  0.6080430539681957  0.0556560590534713
  0.0554185304556645  0.7209767942551472  0.0557981825370247
  0.1540364764165365  0.7777565871372808  0.0558293657614858
  0.1555907738781849  0.8888014613122308  0.0558465308868518
  0.0556069300766851  0.9435906227137708  0.0558160469385562
  0.2531983490971090  0.7224382652856591  0.0557950753124744
  0.3522643180188106  0.7772784799875281  0.0557519595970560
  0.3552612099454428  0.8888871337446443  0.0557902304168721
  0.2557151469080806  0.9446432154735597  0.0558411488424685
  0.4503732880783561  0.7194194165910409  0.0556603806085641
  0.5535442227441322  0.8860387192875141  0.0556558061346310
  0.4553360640993383  0.9448819721149584  0.0557438273015434
  0.7555507955210796  0.8810122116108630  0.0556435245666691
  0.6558669616725424  0.9397649198818354  0.0556451264479839
  0.8565306092240643  0.7208972734779077  0.0556760770966022
  0.9554828085497898  0.7763009811105854  0.0557543322887420
  0.9559079503526013  0.8873748248583021  0.0557580880561386
  0.8547236334088798  0.9403288601773189  0.0556978263955872
  0.4553352236277299  0.3936384570078177  0.0556544028134609
  0.7549736239731412  0.5535785276278814  0.0556001044721691
  0.5482723552234983  0.7767050712317527  0.0556133586551290
  0.6643413183847950  0.3873566762149938  0.0556037308389805
  0.7579004139833763  0.7712510745848582  0.0556125255922149
  0.4526257980965255  0.6097255358333459  0.0556340855166523
  0.6411246747223042  0.6670808362327195  0.0555816577453074
  0.5664684095159467  0.4937876836523207  0.0556051017314256
 
  0.00000000E+00  0.00000000E+00  0.00000000E+00
  0.00000000E+00  0.00000000E+00  0.00000000E+00
  0.00000000E+00  0.00000000E+00  0.00000000E+00
  0.00000000E+00  0.00000000E+00  0.00000000E+00
  0.00000000E+00  0.00000000E+00  0.00000000E+00
  0.00000000E+00  0.00000000E+00  0.00000000E+00
  0.00000000E+00  0.00000000E+00  0.00000000E+00
  0.00000000E+00  0.00000000E+00  0.00000000E+00
  0.00000000E+00  0.00000000E+00  0.00000000E+00
  0.00000000E+00  0.00000000E+00  0.00000000E+00
  0.00000000E+00  0.00000000E+00  0.00000000E+00
  0.00000000E+00  0.00000000E+00  0.00000000E+00
  0.00000000E+00  0.00000000E+00  0.00000000E+00
  0.00000000E+00  0.00000000E+00  0.00000000E+00
  0.00000000E+00  0.00000000E+00  0.00000000E+00
  0.00000000E+00  0.00000000E+00  0.00000000E+00
  0.00000000E+00  0.00000000E+00  0.00000000E+00
  0.00000000E+00  0.00000000E+00  0.00000000E+00
  0.00000000E+00  0.00000000E+00  0.00000000E+00
  0.00000000E+00  0.00000000E+00  0.00000000E+00
  0.00000000E+00  0.00000000E+00  0.00000000E+00
  0.00000000E+00  0.00000000E+00  0.00000000E+00
  0.00000000E+00  0.00000000E+00  0.00000000E+00
  0.00000000E+00  0.00000000E+00  0.00000000E+00
  0.00000000E+00  0.00000000E+00  0.00000000E+00
  0.00000000E+00  0.00000000E+00  0.00000000E+00
  0.00000000E+00  0.00000000E+00  0.00000000E+00
  0.00000000E+00  0.00000000E+00  0.00000000E+00
  0.00000000E+00  0.00000000E+00  0.00000000E+00
  0.00000000E+00  0.00000000E+00  0.00000000E+00
  0.00000000E+00  0.00000000E+00  0.00000000E+00
  0.00000000E+00  0.00000000E+00  0.00000000E+00
  0.00000000E+00  0.00000000E+00  0.00000000E+00
  0.00000000E+00  0.00000000E+00  0.00000000E+00
  0.00000000E+00  0.00000000E+00  0.00000000E+00
  0.00000000E+00  0.00000000E+00  0.00000000E+00
  0.00000000E+00  0.00000000E+00  0.00000000E+00
  0.00000000E+00  0.00000000E+00  0.00000000E+00
  0.00000000E+00  0.00000000E+00  0.00000000E+00
  0.00000000E+00  0.00000000E+00  0.00000000E+00
  0.00000000E+00  0.00000000E+00  0.00000000E+00
  0.00000000E+00  0.00000000E+00  0.00000000E+00
  0.00000000E+00  0.00000000E+00  0.00000000E+00
  0.00000000E+00  0.00000000E+00  0.00000000E+00
  0.00000000E+00  0.00000000E+00  0.00000000E+00
  0.00000000E+00  0.00000000E+00  0.00000000E+00
  0.00000000E+00  0.00000000E+00  0.00000000E+00
  0.00000000E+00  0.00000000E+00  0.00000000E+00
  0.00000000E+00  0.00000000E+00  0.00000000E+00
  0.00000000E+00  0.00000000E+00  0.00000000E+00
  0.00000000E+00  0.00000000E+00  0.00000000E+00
  0.00000000E+00  0.00000000E+00  0.00000000E+00
  0.00000000E+00  0.00000000E+00  0.00000000E+00
  0.00000000E+00  0.00000000E+00  0.00000000E+00
  0.00000000E+00  0.00000000E+00  0.00000000E+00
  0.00000000E+00  0.00000000E+00  0.00000000E+00
  0.00000000E+00  0.00000000E+00  0.00000000E+00
  0.00000000E+00  0.00000000E+00  0.00000000E+00
