124                                     
   1.00000000000000     
    12.3312997818000003    0.0000000000000000    0.0000000000000000
     0.0001127485000000   12.8291997905000006    0.0000000000000000
     0.0005937186000000    0.0011528207000000   19.9943999824000009
   C    N    Fe   Ni   H 
    53     3     1     1     2
Direct
  0.0577152332153082  0.0546307639071088  0.0509619306005561
  0.1579407762204318  0.1099891970885867  0.0510997007831315
  0.1578353984929130  0.2209293000073324  0.0504833186938959
  0.0577044231479271  0.2761956053428248  0.0496870522616722
  0.2582850485196790  0.0549703400101269  0.0525481906798869
  0.3585791438689006  0.1108448808282953  0.0553504847593037
  0.3583332302740915  0.2230434902061097  0.0552006637068460
  0.2575358779047323  0.2766639950287256  0.0516666758839082
  0.4579734709501369  0.0541068059076696  0.0585373729533882
  0.5573651108177311  0.1114898452869982  0.0612932392215763
  0.5573271639054339  0.2240891322091840  0.0616865247966912
  0.4572109366799810  0.2821860353711851  0.0583612115004252
  0.6574060345726732  0.0521610495866444  0.0619214695713559
  0.7570321777871607  0.1095163598282004  0.0589572096555162
  0.7576387382808186  0.2214711040946964  0.0591446903804435
  0.6582897820586970  0.2802312174265754  0.0633924869126490
  0.8568554370613582  0.0537170604784168  0.0553861074286695
  0.9572540693782096  0.1093422238615872  0.0525539824128196
  0.9577041337780275  0.2205088306728869  0.0518915946203758
  0.8580183175462525  0.2763893022010301  0.0544424689892080
  0.0583740852538090  0.3873683105520210  0.0480301735122207
  0.1574173212333870  0.4431666250728582  0.0475994808289685
  0.1567268255853533  0.5540332187437554  0.0465869565580322
  0.0573930229119867  0.6100455758881090  0.0461808429530331
  0.2573237325356753  0.3877523246333855  0.0501946986257771
  0.3567485520013837  0.4424756250613743  0.0526891850190110
  0.3560697673953555  0.5554316880617869  0.0524074248964658
  0.2558810031244925  0.6097420443922460  0.0484773230463140
  0.7620990032437321  0.4450606905204288  0.0598319054896457
  0.8601855015429855  0.3875845358131998  0.0528707857086892
  0.9587946172839810  0.4434605273835159  0.0486091542794406
  0.9577856068718316  0.5547723649047631  0.0478279355316290
  0.8573063425176515  0.6104372459701611  0.0516302414203881
  0.0575452083898338  0.7211347185743101  0.0466270910131460
  0.1565297555874106  0.7769989133420874  0.0474682961409504
  0.1576406176041753  0.8882584779474506  0.0491238313299040
  0.0577414042324151  0.9438534790250094  0.0498962717849230
  0.2556669342261184  0.7207987676813429  0.0487529812553390
  0.3551326015817642  0.7751732476294744  0.0529770471582475
  0.3574108493989735  0.8868886092022013  0.0544318663533148
  0.2578167898197790  0.9433863027806834  0.0516529698784981
  0.4524653753856493  0.7160048477176931  0.0593305902388782
  0.5559955603427190  0.8822937571005454  0.0646973662028531
  0.4574540134765699  0.9419974070191010  0.0589681203348509
  0.7584848982347784  0.8831929301231559  0.0601301574544508
  0.6573541478715578  0.9393282539336645  0.0636530227616961
  0.8590780078850364  0.7234191824071907  0.0524978768715742
  0.9581058448466774  0.7775553408988397  0.0489292234061616
  0.9579408281163444  0.8884288398075780  0.0509670992860822
  0.8571478695307644  0.9420232394527540  0.0551626354552801
  0.6635519368091336  0.3898331103111208  0.0669147663956348
  0.7582626673506347  0.5565259689108046  0.0596699292420739
  0.5507692365018300  0.7719652185957043  0.0697148391424603
  0.4544701051144074  0.3909980151353775  0.0569756142366794
  0.4519803042967289  0.6074202112629186  0.0578781345551554
  0.7623244630544956  0.7749229069731167  0.0603679723807897
  0.6563614186952165  0.6703827524261706  0.0889855273641889
  0.5634486521870902  0.4940523026097451  0.0667061887467246
  0.5992308694393476  0.5897307855119645  0.1418504501349627
  0.6014095550584515  0.6592651102782343  0.1601376301932257
 
  0.00000000E+00  0.00000000E+00  0.00000000E+00
  0.00000000E+00  0.00000000E+00  0.00000000E+00
  0.00000000E+00  0.00000000E+00  0.00000000E+00
  0.00000000E+00  0.00000000E+00  0.00000000E+00
  0.00000000E+00  0.00000000E+00  0.00000000E+00
  0.00000000E+00  0.00000000E+00  0.00000000E+00
  0.00000000E+00  0.00000000E+00  0.00000000E+00
  0.00000000E+00  0.00000000E+00  0.00000000E+00
  0.00000000E+00  0.00000000E+00  0.00000000E+00
  0.00000000E+00  0.00000000E+00  0.00000000E+00
  0.00000000E+00  0.00000000E+00  0.00000000E+00
  0.00000000E+00  0.00000000E+00  0.00000000E+00
  0.00000000E+00  0.00000000E+00  0.00000000E+00
  0.00000000E+00  0.00000000E+00  0.00000000E+00
  0.00000000E+00  0.00000000E+00  0.00000000E+00
  0.00000000E+00  0.00000000E+00  0.00000000E+00
  0.00000000E+00  0.00000000E+00  0.00000000E+00
  0.00000000E+00  0.00000000E+00  0.00000000E+00
  0.00000000E+00  0.00000000E+00  0.00000000E+00
  0.00000000E+00  0.00000000E+00  0.00000000E+00
  0.00000000E+00  0.00000000E+00  0.00000000E+00
  0.00000000E+00  0.00000000E+00  0.00000000E+00
  0.00000000E+00  0.00000000E+00  0.00000000E+00
  0.00000000E+00  0.00000000E+00  0.00000000E+00
  0.00000000E+00  0.00000000E+00  0.00000000E+00
  0.00000000E+00  0.00000000E+00  0.00000000E+00
  0.00000000E+00  0.00000000E+00  0.00000000E+00
  0.00000000E+00  0.00000000E+00  0.00000000E+00
  0.00000000E+00  0.00000000E+00  0.00000000E+00
  0.00000000E+00  0.00000000E+00  0.00000000E+00
  0.00000000E+00  0.00000000E+00  0.00000000E+00
  0.00000000E+00  0.00000000E+00  0.00000000E+00
  0.00000000E+00  0.00000000E+00  0.00000000E+00
  0.00000000E+00  0.00000000E+00  0.00000000E+00
  0.00000000E+00  0.00000000E+00  0.00000000E+00
  0.00000000E+00  0.00000000E+00  0.00000000E+00
  0.00000000E+00  0.00000000E+00  0.00000000E+00
  0.00000000E+00  0.00000000E+00  0.00000000E+00
  0.00000000E+00  0.00000000E+00  0.00000000E+00
  0.00000000E+00  0.00000000E+00  0.00000000E+00
  0.00000000E+00  0.00000000E+00  0.00000000E+00
  0.00000000E+00  0.00000000E+00  0.00000000E+00
  0.00000000E+00  0.00000000E+00  0.00000000E+00
  0.00000000E+00  0.00000000E+00  0.00000000E+00
  0.00000000E+00  0.00000000E+00  0.00000000E+00
  0.00000000E+00  0.00000000E+00  0.00000000E+00
  0.00000000E+00  0.00000000E+00  0.00000000E+00
  0.00000000E+00  0.00000000E+00  0.00000000E+00
  0.00000000E+00  0.00000000E+00  0.00000000E+00
  0.00000000E+00  0.00000000E+00  0.00000000E+00
  0.00000000E+00  0.00000000E+00  0.00000000E+00
  0.00000000E+00  0.00000000E+00  0.00000000E+00
  0.00000000E+00  0.00000000E+00  0.00000000E+00
  0.00000000E+00  0.00000000E+00  0.00000000E+00
  0.00000000E+00  0.00000000E+00  0.00000000E+00
  0.00000000E+00  0.00000000E+00  0.00000000E+00
  0.00000000E+00  0.00000000E+00  0.00000000E+00
  0.00000000E+00  0.00000000E+00  0.00000000E+00
  0.00000000E+00  0.00000000E+00  0.00000000E+00
  0.00000000E+00  0.00000000E+00  0.00000000E+00
