2356                                    
   1.00000000000000     
    12.3312997818000003    0.0000000000000000    0.0000000000000000
     0.0001127485000000   12.8291997905000006    0.0000000000000000
     0.0005937186000000    0.0011528207000000   19.9943999824000009
   C    N    Fe   Ni   O 
    52     4     1     1     1
Direct
  0.0556803544643586  0.0546327225840705  0.0524619793967522
  0.1564012704033645  0.1104074081333316  0.0526451890845488
  0.1571403020233281  0.2213580097818038  0.0512569497482801
  0.0567968377169675  0.2757750706763035  0.0499339132811064
  0.2568073000450048  0.0559992064211675  0.0545091525641636
  0.3574091355117291  0.1118283945925843  0.0575377788166024
  0.3579962172898437  0.2239116033006590  0.0567186613123758
  0.2572339502962460  0.2778600723535865  0.0520675020082248
  0.4573290382409245  0.0558664369593202  0.0612345550227394
  0.5574518905342692  0.1127444133950313  0.0638707489522609
  0.5586404606962572  0.2266091073928221  0.0645802150054236
  0.4577991934595947  0.2826070014808139  0.0610140101761569
  0.6549918387187124  0.0521466220891527  0.0636256734912176
  0.7547808978010171  0.1093194486612519  0.0605430729614697
  0.7563279705486532  0.2224185866257208  0.0604827636152189
  0.6595768225184269  0.2835958263594315  0.0650564461496107
  0.8546828227297287  0.0532490247280112  0.0567327232697123
  0.9552746251012577  0.1090975436628670  0.0539569052633879
  0.9564257070909737  0.2203963308847328  0.0528546211982798
  0.8570994288134290  0.2763213106320850  0.0553097209346709
  0.0572538334970878  0.3865962094685255  0.0469891549677485
  0.1561236455473614  0.4433211519096973  0.0461312979550774
  0.1556820352685866  0.5546415230179603  0.0449687523661980
  0.0571337442517435  0.6100981052718412  0.0441798381182975
  0.2558469304972893  0.3891646321934388  0.0494414095857067
  0.3546158677911075  0.4465197372872297  0.0530775926076752
  0.3532013591903058  0.5590569308158395  0.0529141268389418
  0.2540305658484495  0.6120610228504132  0.0478918089292845
  0.7606877785928233  0.4459740305080590  0.0570198093411492
  0.8586790820017213  0.3874872649037813  0.0521497513229527
  0.9581712604217374  0.4418928778756592  0.0469760250300597
  0.9586758787356238  0.5527034842637536  0.0452104935571940
  0.8596462407561177  0.6056974966689379  0.0476556963871169
  0.0564390570726220  0.7214074557874064  0.0454273696813916
  0.1549159587923001  0.7782676522503257  0.0476046829051167
  0.1553349467645363  0.8891771970603765  0.0502827103795365
  0.0550196124664732  0.9436359090431219  0.0510231992351600
  0.2537426679940049  0.7228499661437826  0.0494095870201436
  0.3526663016885160  0.7776626008115802  0.0548973343636603
  0.3548108654752205  0.8889341712474290  0.0565486595268927
  0.2556139022596428  0.9447161800153873  0.0535693125409299
  0.4499860513250072  0.7195230477936642  0.0608074028012031
  0.5524150801887336  0.8821030047619162  0.0650984624626079
  0.4556286947036952  0.9429770714191698  0.0612830695340827
  0.7546881801072942  0.8819109719887697  0.0602222541061288
  0.6538894088387844  0.9381585619382981  0.0643522273220962
  0.8581752084128690  0.7183844042119710  0.0495419123805271
  0.9567188063673165  0.7756759133525252  0.0477271843851525
  0.9550564396391213  0.8870563496448102  0.0511567136918070
  0.8541327258910976  0.9410202807694968  0.0557355941102221
  0.4536889682262833  0.3936819806762523  0.0608598852586636
  0.7584624214970251  0.7702627405098711  0.0578443442851278
  0.4490678398257441  0.6114011014630902  0.0605370598863721
  0.6644958218074218  0.3933794060237041  0.0674720000706783
  0.7629299015857501  0.5535901241828057  0.0520455626428963
  0.5470377337945599  0.7724321578485668  0.0668682212656149
  0.6530195060514163  0.6660183810031798  0.0769492676905313
  0.5556065453532014  0.4924137208076815  0.0842870197865907
  0.6184030014673454  0.5886809454949082  0.1434706364072630
 
  0.00000000E+00  0.00000000E+00  0.00000000E+00
  0.00000000E+00  0.00000000E+00  0.00000000E+00
  0.00000000E+00  0.00000000E+00  0.00000000E+00
  0.00000000E+00  0.00000000E+00  0.00000000E+00
  0.00000000E+00  0.00000000E+00  0.00000000E+00
  0.00000000E+00  0.00000000E+00  0.00000000E+00
  0.00000000E+00  0.00000000E+00  0.00000000E+00
  0.00000000E+00  0.00000000E+00  0.00000000E+00
  0.00000000E+00  0.00000000E+00  0.00000000E+00
  0.00000000E+00  0.00000000E+00  0.00000000E+00
  0.00000000E+00  0.00000000E+00  0.00000000E+00
  0.00000000E+00  0.00000000E+00  0.00000000E+00
  0.00000000E+00  0.00000000E+00  0.00000000E+00
  0.00000000E+00  0.00000000E+00  0.00000000E+00
  0.00000000E+00  0.00000000E+00  0.00000000E+00
  0.00000000E+00  0.00000000E+00  0.00000000E+00
  0.00000000E+00  0.00000000E+00  0.00000000E+00
  0.00000000E+00  0.00000000E+00  0.00000000E+00
  0.00000000E+00  0.00000000E+00  0.00000000E+00
  0.00000000E+00  0.00000000E+00  0.00000000E+00
  0.00000000E+00  0.00000000E+00  0.00000000E+00
  0.00000000E+00  0.00000000E+00  0.00000000E+00
  0.00000000E+00  0.00000000E+00  0.00000000E+00
  0.00000000E+00  0.00000000E+00  0.00000000E+00
  0.00000000E+00  0.00000000E+00  0.00000000E+00
  0.00000000E+00  0.00000000E+00  0.00000000E+00
  0.00000000E+00  0.00000000E+00  0.00000000E+00
  0.00000000E+00  0.00000000E+00  0.00000000E+00
  0.00000000E+00  0.00000000E+00  0.00000000E+00
  0.00000000E+00  0.00000000E+00  0.00000000E+00
  0.00000000E+00  0.00000000E+00  0.00000000E+00
  0.00000000E+00  0.00000000E+00  0.00000000E+00
  0.00000000E+00  0.00000000E+00  0.00000000E+00
  0.00000000E+00  0.00000000E+00  0.00000000E+00
  0.00000000E+00  0.00000000E+00  0.00000000E+00
  0.00000000E+00  0.00000000E+00  0.00000000E+00
  0.00000000E+00  0.00000000E+00  0.00000000E+00
  0.00000000E+00  0.00000000E+00  0.00000000E+00
  0.00000000E+00  0.00000000E+00  0.00000000E+00
  0.00000000E+00  0.00000000E+00  0.00000000E+00
  0.00000000E+00  0.00000000E+00  0.00000000E+00
  0.00000000E+00  0.00000000E+00  0.00000000E+00
  0.00000000E+00  0.00000000E+00  0.00000000E+00
  0.00000000E+00  0.00000000E+00  0.00000000E+00
  0.00000000E+00  0.00000000E+00  0.00000000E+00
  0.00000000E+00  0.00000000E+00  0.00000000E+00
  0.00000000E+00  0.00000000E+00  0.00000000E+00
  0.00000000E+00  0.00000000E+00  0.00000000E+00
  0.00000000E+00  0.00000000E+00  0.00000000E+00
  0.00000000E+00  0.00000000E+00  0.00000000E+00
  0.00000000E+00  0.00000000E+00  0.00000000E+00
  0.00000000E+00  0.00000000E+00  0.00000000E+00
  0.00000000E+00  0.00000000E+00  0.00000000E+00
  0.00000000E+00  0.00000000E+00  0.00000000E+00
  0.00000000E+00  0.00000000E+00  0.00000000E+00
  0.00000000E+00  0.00000000E+00  0.00000000E+00
  0.00000000E+00  0.00000000E+00  0.00000000E+00
  0.00000000E+00  0.00000000E+00  0.00000000E+00
  0.00000000E+00  0.00000000E+00  0.00000000E+00
