CONTCAR\(5)                             
   1.00000000000000     
    12.3312997818000003    0.0000000000000000    0.0000000000000000
     0.0001127485000000   12.8291997905000006    0.0000000000000000
     0.0005937186000000    0.0011528207000000   19.9943999824000009
   C    N    Fe   Ni   H 
    54     2     1     1     1
Direct
  0.0559401322465048  0.0554680172173641  0.0508576181031098
  0.1563160033243818  0.1111061939283399  0.0508887894862207
  0.1570068638678710  0.2220534283338953  0.0501108273461122
  0.0566998037097478  0.2762573658893454  0.0494520756112717
  0.2563238471825683  0.0562397606616604  0.0524751067084881
  0.3568078364394060  0.1115609174374690  0.0556190959444401
  0.3575763249732065  0.2235504438911989  0.0553235242997017
  0.2572630641358525  0.2781520699910261  0.0511901231013269
  0.4560708284883244  0.0549825129500161  0.0592446080162807
  0.5560930489894251  0.1108435712779537  0.0627336114639199
  0.5567028918354492  0.2229558651921493  0.0640600373462688
  0.4573579875429181  0.2810465759434468  0.0596340509820818
  0.6548113698593889  0.0512151274640862  0.0628835444505615
  0.7550189911504014  0.1086552447553414  0.0600538254867684
  0.7561321778037510  0.2210258722928802  0.0607897897350790
  0.6573480396590184  0.2798010953629530  0.0663836024441204
  0.8549445058918757  0.0532255528920180  0.0558562863149017
  0.9553537925360704  0.1095706311815060  0.0528027387970019
  0.9562099741729370  0.2206663294346324  0.0521710434636834
  0.8565079474572421  0.2761640795995779  0.0553943990601728
  0.0575403272382947  0.3872488602192534  0.0477850148043266
  0.1567841166672591  0.4435224290075718  0.0470798724785326
  0.1565181349070758  0.5547862900299894  0.0461200082631225
  0.0577461658508042  0.6101168182065726  0.0456213286736040
  0.2569857697440978  0.3894471497770629  0.0495617157807295
  0.3566415134482740  0.4462047634338524  0.0523918594764868
  0.3551129217998516  0.5595366710434270  0.0524013374624606
  0.2550049340256371  0.6121126956525349  0.0482483783066694
  0.7600847396963510  0.4454336327234351  0.0614562365735026
  0.8582347965264644  0.3875420716471572  0.0537180342839242
  0.9580448038946811  0.4424496572631595  0.0488639555177248
  0.9590457894743039  0.5533240165858081  0.0477118607231568
  0.8606007431656076  0.6089055626550146  0.0517083836700036
  0.0570223061200420  0.7218326740051453  0.0460669878203054
  0.1551229121595852  0.7784424334635205  0.0470129893913191
  0.1552705703067360  0.8896116273503007  0.0487553369431897
  0.0555161965526163  0.9446228753670982  0.0495682058174123
  0.2538370684299804  0.7227768053323718  0.0485172420063808
  0.3522700689524261  0.7781251225431055  0.0529589391013657
  0.3541779803907332  0.8891755855650644  0.0545106880771038
  0.2552219872586680  0.9451493639973000  0.0514968462739411
  0.4493228221197684  0.7210441422554972  0.0597495745578837
  0.5517169115244006  0.8822631947849433  0.0645263652143803
  0.4546846488446495  0.9428128660650480  0.0594093506230195
  0.7550931086844694  0.8822991142063675  0.0593571344461392
  0.6538912313119880  0.9382691227963496  0.0634869287136702
  0.8601961385509925  0.7212571471754916  0.0515846318799092
  0.9579752049494019  0.7775917781689300  0.0482485920726376
  0.9558084037323678  0.8883935452465137  0.0504161739653917
  0.8546096340541288  0.9414614072209234  0.0549881928864541
  0.4563819124606028  0.3929150603764532  0.0582231266196733
  0.6607300669489573  0.3903157441646821  0.0707071972461639
  0.7614534636949399  0.5571912894275366  0.0612818726394505
  0.7596613555215208  0.7712158418739814  0.0581963332677210
  0.4505187008929036  0.6133262359489268  0.0586014114561398
  0.5453634165118532  0.7739679633167748  0.0688405952795660
  0.6537260335423154  0.6645127029416870  0.0804709543453471
  0.5597573821148148  0.4938016355231884  0.0768256665656285
  0.6115502816640817  0.5704636819410721  0.1342959776140429
 
  0.00000000E+00  0.00000000E+00  0.00000000E+00
  0.00000000E+00  0.00000000E+00  0.00000000E+00
  0.00000000E+00  0.00000000E+00  0.00000000E+00
  0.00000000E+00  0.00000000E+00  0.00000000E+00
  0.00000000E+00  0.00000000E+00  0.00000000E+00
  0.00000000E+00  0.00000000E+00  0.00000000E+00
  0.00000000E+00  0.00000000E+00  0.00000000E+00
  0.00000000E+00  0.00000000E+00  0.00000000E+00
  0.00000000E+00  0.00000000E+00  0.00000000E+00
  0.00000000E+00  0.00000000E+00  0.00000000E+00
  0.00000000E+00  0.00000000E+00  0.00000000E+00
  0.00000000E+00  0.00000000E+00  0.00000000E+00
  0.00000000E+00  0.00000000E+00  0.00000000E+00
  0.00000000E+00  0.00000000E+00  0.00000000E+00
  0.00000000E+00  0.00000000E+00  0.00000000E+00
  0.00000000E+00  0.00000000E+00  0.00000000E+00
  0.00000000E+00  0.00000000E+00  0.00000000E+00
  0.00000000E+00  0.00000000E+00  0.00000000E+00
  0.00000000E+00  0.00000000E+00  0.00000000E+00
  0.00000000E+00  0.00000000E+00  0.00000000E+00
  0.00000000E+00  0.00000000E+00  0.00000000E+00
  0.00000000E+00  0.00000000E+00  0.00000000E+00
  0.00000000E+00  0.00000000E+00  0.00000000E+00
  0.00000000E+00  0.00000000E+00  0.00000000E+00
  0.00000000E+00  0.00000000E+00  0.00000000E+00
  0.00000000E+00  0.00000000E+00  0.00000000E+00
  0.00000000E+00  0.00000000E+00  0.00000000E+00
  0.00000000E+00  0.00000000E+00  0.00000000E+00
  0.00000000E+00  0.00000000E+00  0.00000000E+00
  0.00000000E+00  0.00000000E+00  0.00000000E+00
  0.00000000E+00  0.00000000E+00  0.00000000E+00
  0.00000000E+00  0.00000000E+00  0.00000000E+00
  0.00000000E+00  0.00000000E+00  0.00000000E+00
  0.00000000E+00  0.00000000E+00  0.00000000E+00
  0.00000000E+00  0.00000000E+00  0.00000000E+00
  0.00000000E+00  0.00000000E+00  0.00000000E+00
  0.00000000E+00  0.00000000E+00  0.00000000E+00
  0.00000000E+00  0.00000000E+00  0.00000000E+00
  0.00000000E+00  0.00000000E+00  0.00000000E+00
  0.00000000E+00  0.00000000E+00  0.00000000E+00
  0.00000000E+00  0.00000000E+00  0.00000000E+00
  0.00000000E+00  0.00000000E+00  0.00000000E+00
  0.00000000E+00  0.00000000E+00  0.00000000E+00
  0.00000000E+00  0.00000000E+00  0.00000000E+00
  0.00000000E+00  0.00000000E+00  0.00000000E+00
  0.00000000E+00  0.00000000E+00  0.00000000E+00
  0.00000000E+00  0.00000000E+00  0.00000000E+00
  0.00000000E+00  0.00000000E+00  0.00000000E+00
  0.00000000E+00  0.00000000E+00  0.00000000E+00
  0.00000000E+00  0.00000000E+00  0.00000000E+00
  0.00000000E+00  0.00000000E+00  0.00000000E+00
  0.00000000E+00  0.00000000E+00  0.00000000E+00
  0.00000000E+00  0.00000000E+00  0.00000000E+00
  0.00000000E+00  0.00000000E+00  0.00000000E+00
  0.00000000E+00  0.00000000E+00  0.00000000E+00
  0.00000000E+00  0.00000000E+00  0.00000000E+00
  0.00000000E+00  0.00000000E+00  0.00000000E+00
  0.00000000E+00  0.00000000E+00  0.00000000E+00
  0.00000000E+00  0.00000000E+00  0.00000000E+00
