CONTCAR\(2)\(3)                         
   1.00000000000000     
    12.3312997818000003    0.0000000000000000    0.0000000000000000
     0.0001127485000000   12.8291997905000006    0.0000000000000000
     0.0005937186000000    0.0011528207000000   19.9943999824000009
   C    N    Fe   Ni   O 
    55     1     1     1     1
Direct
  0.0561300143783405  0.0544994043520938  0.0513851159663624
  0.1563957301544040  0.1098866596885066  0.0502621119176857
  0.1563413966734016  0.2207374470018182  0.0486019357197659
  0.0562486296675265  0.2760793075249912  0.0479026652124942
  0.2570161530808831  0.0551535658231564  0.0515906210837861
  0.3571465505702900  0.1117028447930061  0.0542837695824733
  0.3571547594377346  0.2234669024602472  0.0536799967745240
  0.2560047985740183  0.2766583248393983  0.0491680903343719
  0.4569053316150816  0.0559682116730694  0.0579637635776214
  0.5569074246319579  0.1135048675720432  0.0618019362649556
  0.5571269149619027  0.2254624433081099  0.0633769630231836
  0.4568155798620346  0.2823886462513048  0.0586038332111154
  0.6562531455884560  0.0544167578676655  0.0626390603259263
  0.7562250233777383  0.1106046535880271  0.0602681013751370
  0.7572300192869453  0.2222727586252184  0.0598251291840640
  0.6591888524249943  0.2819480409858413  0.0650296738053287
  0.8556372652356554  0.0540603790302745  0.0571444454803388
  0.9558631844518833  0.1095687381514050  0.0531307113509391
  0.9565061398952097  0.2205664031376374  0.0514045725065164
  0.8570913451650501  0.2768123220245773  0.0546588662842821
  0.0556566519287480  0.3872492727440314  0.0457071431486852
  0.1543821151288796  0.4432687215924066  0.0448764595238955
  0.1545675394635489  0.5548610508805555  0.0446933496576166
  0.0554401259362341  0.6103977395298501  0.0454319066203001
  0.2537381421452286  0.3873110265318380  0.0471747394015055
  0.3516064858893630  0.4434688892482188  0.0505801959323543
  0.3523717074223529  0.5553962449437343  0.0505589008300783
  0.2537836515912231  0.6112350064155582  0.0466288755198519
  0.7579189526574325  0.4438753625449582  0.0595819278858058
  0.8573664435703483  0.3878261504530136  0.0527481803759501
  0.9562544603282026  0.4431775436246205  0.0471409468755259
  0.9562871543952369  0.5539006845111079  0.0468255108667926
  0.8565778743028969  0.6086500021839679  0.0519780400392196
  0.0558991406776018  0.7218382271630636  0.0473934086919132
  0.1554147341374840  0.7776060677372759  0.0479398597550512
  0.1560379458426872  0.8886891312488026  0.0497232297317630
  0.0558510735333021  0.9437281510471061  0.0514387070220569
  0.2550803267252498  0.7219274370792280  0.0482561064563622
  0.3553911339223579  0.7759775668329241  0.0522772140327184
  0.3566289862114880  0.8876734030279627  0.0531290734486191
  0.2566028689834294  0.9438923625106255  0.0509945968633696
  0.4551398534892458  0.7172063175800673  0.0575764761111807
  0.5558162477277476  0.8857172951693137  0.0614887507995182
  0.4564313743412350  0.9439435650386889  0.0574113683452942
  0.7555155653512574  0.8846358736572334  0.0631733676297617
  0.6561871522990368  0.9430441615508046  0.0634857652915375
  0.8569056263700011  0.7214426974990977  0.0559166184593016
  0.9561431487067279  0.7772324402120594  0.0515523448361759
  0.9557579095886432  0.8880634286296660  0.0538191604501546
  0.8552421741595090  0.9422450733145069  0.0581122785074889
  0.4521789842992447  0.3935025170753551  0.0575693338618990
  0.7576773685574802  0.5556347062529060  0.0578371544319652
  0.5533670780600841  0.7759531665790262  0.0629358405006901
  0.7569798509460766  0.7729092260443690  0.0653176820240416
  0.4528885462160509  0.6047476244170332  0.0590000984253387
  0.6630812086407817  0.3883173680417442  0.0690708577637651
  0.6481812884994125  0.6649221893708552  0.0869282753183488
  0.5564589909393888  0.4929472533617040  0.0810729889719009
  0.6246518539813015  0.5778163496562936  0.1486618996113279
 
  0.00000000E+00  0.00000000E+00  0.00000000E+00
  0.00000000E+00  0.00000000E+00  0.00000000E+00
  0.00000000E+00  0.00000000E+00  0.00000000E+00
  0.00000000E+00  0.00000000E+00  0.00000000E+00
  0.00000000E+00  0.00000000E+00  0.00000000E+00
  0.00000000E+00  0.00000000E+00  0.00000000E+00
  0.00000000E+00  0.00000000E+00  0.00000000E+00
  0.00000000E+00  0.00000000E+00  0.00000000E+00
  0.00000000E+00  0.00000000E+00  0.00000000E+00
  0.00000000E+00  0.00000000E+00  0.00000000E+00
  0.00000000E+00  0.00000000E+00  0.00000000E+00
  0.00000000E+00  0.00000000E+00  0.00000000E+00
  0.00000000E+00  0.00000000E+00  0.00000000E+00
  0.00000000E+00  0.00000000E+00  0.00000000E+00
  0.00000000E+00  0.00000000E+00  0.00000000E+00
  0.00000000E+00  0.00000000E+00  0.00000000E+00
  0.00000000E+00  0.00000000E+00  0.00000000E+00
  0.00000000E+00  0.00000000E+00  0.00000000E+00
  0.00000000E+00  0.00000000E+00  0.00000000E+00
  0.00000000E+00  0.00000000E+00  0.00000000E+00
  0.00000000E+00  0.00000000E+00  0.00000000E+00
  0.00000000E+00  0.00000000E+00  0.00000000E+00
  0.00000000E+00  0.00000000E+00  0.00000000E+00
  0.00000000E+00  0.00000000E+00  0.00000000E+00
  0.00000000E+00  0.00000000E+00  0.00000000E+00
  0.00000000E+00  0.00000000E+00  0.00000000E+00
  0.00000000E+00  0.00000000E+00  0.00000000E+00
  0.00000000E+00  0.00000000E+00  0.00000000E+00
  0.00000000E+00  0.00000000E+00  0.00000000E+00
  0.00000000E+00  0.00000000E+00  0.00000000E+00
  0.00000000E+00  0.00000000E+00  0.00000000E+00
  0.00000000E+00  0.00000000E+00  0.00000000E+00
  0.00000000E+00  0.00000000E+00  0.00000000E+00
  0.00000000E+00  0.00000000E+00  0.00000000E+00
  0.00000000E+00  0.00000000E+00  0.00000000E+00
  0.00000000E+00  0.00000000E+00  0.00000000E+00
  0.00000000E+00  0.00000000E+00  0.00000000E+00
  0.00000000E+00  0.00000000E+00  0.00000000E+00
  0.00000000E+00  0.00000000E+00  0.00000000E+00
  0.00000000E+00  0.00000000E+00  0.00000000E+00
  0.00000000E+00  0.00000000E+00  0.00000000E+00
  0.00000000E+00  0.00000000E+00  0.00000000E+00
  0.00000000E+00  0.00000000E+00  0.00000000E+00
  0.00000000E+00  0.00000000E+00  0.00000000E+00
  0.00000000E+00  0.00000000E+00  0.00000000E+00
  0.00000000E+00  0.00000000E+00  0.00000000E+00
  0.00000000E+00  0.00000000E+00  0.00000000E+00
  0.00000000E+00  0.00000000E+00  0.00000000E+00
  0.00000000E+00  0.00000000E+00  0.00000000E+00
  0.00000000E+00  0.00000000E+00  0.00000000E+00
  0.00000000E+00  0.00000000E+00  0.00000000E+00
  0.00000000E+00  0.00000000E+00  0.00000000E+00
  0.00000000E+00  0.00000000E+00  0.00000000E+00
  0.00000000E+00  0.00000000E+00  0.00000000E+00
  0.00000000E+00  0.00000000E+00  0.00000000E+00
  0.00000000E+00  0.00000000E+00  0.00000000E+00
  0.00000000E+00  0.00000000E+00  0.00000000E+00
  0.00000000E+00  0.00000000E+00  0.00000000E+00
  0.00000000E+00  0.00000000E+00  0.00000000E+00
