CONTCAR\(2)\(3)                         
   1.00000000000000     
    12.3312997818000003    0.0000000000000000    0.0000000000000000
     0.0001127485000000   12.8291997905000006    0.0000000000000000
     0.0005937186000000    0.0011528207000000   19.9943999824000009
   C    N    Fe   Ni   H 
    54     2     1     1     2
Direct
  0.0556760616980130  0.0536582842361793  0.0531859373660932
  0.1558982254612151  0.1093566916491189  0.0532890514835697
  0.1566807872205086  0.2202288766544273  0.0530551082789361
  0.0566191386435375  0.2750821564114307  0.0518724603931930
  0.2562174159789939  0.0549026471794693  0.0535905110710927
  0.3567300047362947  0.1105695401933192  0.0557667590887521
  0.3576216615216761  0.2222004639371371  0.0567213338332935
  0.2568421042106600  0.2760385561296491  0.0541391493135646
  0.4563187263133548  0.0542934857031120  0.0574079426570210
  0.5570843463897348  0.1100605184487327  0.0599524699303434
  0.5576411538739430  0.2220692641038167  0.0614035561973558
  0.4578772799274993  0.2797840967688943  0.0600523180969274
  0.6567720135990383  0.0511050589644063  0.0599400522694453
  0.7561003395274134  0.1084228907008144  0.0580977106969344
  0.7569139702537314  0.2206217464385662  0.0576500341172693
  0.6583944819262816  0.2797282308907306  0.0612437141352862
  0.8551357138981170  0.0517309137407473  0.0561905525515769
  0.9554034596121097  0.1080223293985631  0.0540896952399487
  0.9564096765120165  0.2195905991575761  0.0530505953269366
  0.8569102365668951  0.2757862907374030  0.0542046967798492
  0.0577140262105927  0.3863516490203291  0.0504387847201559
  0.1566389067750433  0.4423795230858668  0.0502652246052490
  0.1562360614525855  0.5538432269966942  0.0490862720735864
  0.0564481869159879  0.6092529904172486  0.0484794285904852
  0.2565287285330147  0.3870307224227893  0.0525538238753733
  0.3555572075198183  0.4429765926298538  0.0546575597503242
  0.3556785657387650  0.5556305224663859  0.0523760109742686
  0.2549927604925609  0.6103650482017202  0.0496034258607014
  0.7610985191938227  0.4460928017217101  0.0563351167659944
  0.8590075585173801  0.3874761405436672  0.0526928130245550
  0.9585026515948590  0.4420941538185443  0.0503555496676757
  0.9579403108022275  0.5530092109600632  0.0495463067865580
  0.8572487989815144  0.6069006256658581  0.0519893821978765
  0.0552561344534234  0.7202638140303662  0.0488734996132135
  0.1538075917110633  0.7766644355973333  0.0487969617930350
  0.1550029137682249  0.8878539522471776  0.0504343221215855
  0.0550577732286242  0.9426535484535570  0.0521268204014378
  0.2531287445883281  0.7213208288457683  0.0486376041616784
  0.3514613357558508  0.7773065923286202  0.0503408970803105
  0.3544489415962011  0.8882241543942648  0.0523378625838452
  0.2551171649534817  0.9438124284052358  0.0517615466832326
  0.4494710567418041  0.7206954978989509  0.0553367396017119
  0.5543177738530423  0.8845814259701279  0.0607680610284264
  0.4552370409396617  0.9428061192434412  0.0563746687558201
  0.7557182561656014  0.8798006604311006  0.0590743382556879
  0.6561437841635815  0.9384466292607923  0.0608446928559914
  0.8561949737789979  0.7199599584114107  0.0529841571816029
  0.9553627186741965  0.7752157064547011  0.0511317753764930
  0.9555097064884416  0.8863856647641655  0.0531199599716574
  0.8545710738021696  0.9391904122723974  0.0563248523132347
  0.4559670295154130  0.3912730263808158  0.0602411118181901
  0.6613701487547551  0.3903078419434181  0.0634271024561405
  0.5487515165572370  0.7747991415516313  0.0631413080675025
  0.4542879834340713  0.6101012849009597  0.0561811507660092
  0.7615905117746189  0.5552463801321810  0.0560249865699776
  0.7575190392349864  0.7693749193080438  0.0578874249038209
  0.6433160635184718  0.6663765988009369  0.0696607906754027
  0.5626036746956259  0.4950245717334620  0.0709928851959198
  0.6346494506828592  0.6952851567692858  0.1405440688814633
  0.6106784845700312  0.5872434160750373  0.1269270631663796
 
  0.00000000E+00  0.00000000E+00  0.00000000E+00
  0.00000000E+00  0.00000000E+00  0.00000000E+00
  0.00000000E+00  0.00000000E+00  0.00000000E+00
  0.00000000E+00  0.00000000E+00  0.00000000E+00
  0.00000000E+00  0.00000000E+00  0.00000000E+00
  0.00000000E+00  0.00000000E+00  0.00000000E+00
  0.00000000E+00  0.00000000E+00  0.00000000E+00
  0.00000000E+00  0.00000000E+00  0.00000000E+00
  0.00000000E+00  0.00000000E+00  0.00000000E+00
  0.00000000E+00  0.00000000E+00  0.00000000E+00
  0.00000000E+00  0.00000000E+00  0.00000000E+00
  0.00000000E+00  0.00000000E+00  0.00000000E+00
  0.00000000E+00  0.00000000E+00  0.00000000E+00
  0.00000000E+00  0.00000000E+00  0.00000000E+00
  0.00000000E+00  0.00000000E+00  0.00000000E+00
  0.00000000E+00  0.00000000E+00  0.00000000E+00
  0.00000000E+00  0.00000000E+00  0.00000000E+00
  0.00000000E+00  0.00000000E+00  0.00000000E+00
  0.00000000E+00  0.00000000E+00  0.00000000E+00
  0.00000000E+00  0.00000000E+00  0.00000000E+00
  0.00000000E+00  0.00000000E+00  0.00000000E+00
  0.00000000E+00  0.00000000E+00  0.00000000E+00
  0.00000000E+00  0.00000000E+00  0.00000000E+00
  0.00000000E+00  0.00000000E+00  0.00000000E+00
  0.00000000E+00  0.00000000E+00  0.00000000E+00
  0.00000000E+00  0.00000000E+00  0.00000000E+00
  0.00000000E+00  0.00000000E+00  0.00000000E+00
  0.00000000E+00  0.00000000E+00  0.00000000E+00
  0.00000000E+00  0.00000000E+00  0.00000000E+00
  0.00000000E+00  0.00000000E+00  0.00000000E+00
  0.00000000E+00  0.00000000E+00  0.00000000E+00
  0.00000000E+00  0.00000000E+00  0.00000000E+00
  0.00000000E+00  0.00000000E+00  0.00000000E+00
  0.00000000E+00  0.00000000E+00  0.00000000E+00
  0.00000000E+00  0.00000000E+00  0.00000000E+00
  0.00000000E+00  0.00000000E+00  0.00000000E+00
  0.00000000E+00  0.00000000E+00  0.00000000E+00
  0.00000000E+00  0.00000000E+00  0.00000000E+00
  0.00000000E+00  0.00000000E+00  0.00000000E+00
  0.00000000E+00  0.00000000E+00  0.00000000E+00
  0.00000000E+00  0.00000000E+00  0.00000000E+00
  0.00000000E+00  0.00000000E+00  0.00000000E+00
  0.00000000E+00  0.00000000E+00  0.00000000E+00
  0.00000000E+00  0.00000000E+00  0.00000000E+00
  0.00000000E+00  0.00000000E+00  0.00000000E+00
  0.00000000E+00  0.00000000E+00  0.00000000E+00
  0.00000000E+00  0.00000000E+00  0.00000000E+00
  0.00000000E+00  0.00000000E+00  0.00000000E+00
  0.00000000E+00  0.00000000E+00  0.00000000E+00
  0.00000000E+00  0.00000000E+00  0.00000000E+00
  0.00000000E+00  0.00000000E+00  0.00000000E+00
  0.00000000E+00  0.00000000E+00  0.00000000E+00
  0.00000000E+00  0.00000000E+00  0.00000000E+00
  0.00000000E+00  0.00000000E+00  0.00000000E+00
  0.00000000E+00  0.00000000E+00  0.00000000E+00
  0.00000000E+00  0.00000000E+00  0.00000000E+00
  0.00000000E+00  0.00000000E+00  0.00000000E+00
  0.00000000E+00  0.00000000E+00  0.00000000E+00
  0.00000000E+00  0.00000000E+00  0.00000000E+00
  0.00000000E+00  0.00000000E+00  0.00000000E+00
