CONTCAR\(2)                             
   1.00000000000000     
    12.3312997818000003    0.0000000000000000    0.0000000000000000
     0.0001127485000000   12.8291997905000006    0.0000000000000000
     0.0005937186000000    0.0011528207000000   19.9943999824000009
   C    N    Fe   Ni   H 
    53     3     1     1     1
Direct
  0.0560008267530835  0.0544365971361624  0.0509350123657735
  0.1565260828461072  0.1098919100350175  0.0512718549847717
  0.1567186891989672  0.2206437536475658  0.0492331092468407
  0.0566257548505036  0.2757743634725715  0.0474700483452765
  0.2571725238510887  0.0556268299152602  0.0543777861683101
  0.3574791541647288  0.1119104597731739  0.0575120943764078
  0.3577119573049483  0.2237535297645904  0.0562359024364178
  0.2565061959959680  0.2765686370085342  0.0506284891009837
  0.4575181287540744  0.0561980128173466  0.0618395025668967
  0.5581318272641628  0.1134413216654014  0.0637026032108014
  0.5587718237573567  0.2268762330123845  0.0642707730757737
  0.4573361164662650  0.2832134360308272  0.0607665746528118
  0.6568850782247375  0.0530639094253209  0.0624146026037162
  0.7559069987024029  0.1101936731962096  0.0582288396025084
  0.7570471875992922  0.2228530855140034  0.0582375553980456
  0.6603911600864953  0.2841158373734192  0.0642043727364003
  0.8552623450337542  0.0535620216122848  0.0544541288099564
  0.9558391592054724  0.1089865340354697  0.0515350720306992
  0.9567610390849878  0.2203455513792797  0.0499966594373922
  0.8576108281799694  0.2765623727217464  0.0526069401247721
  0.0565619448874828  0.3870457435109838  0.0454500955989456
  0.1550944401178555  0.4432813684720867  0.0454725589783354
  0.1547591564927586  0.5548315790150007  0.0457213764229438
  0.0560978604942736  0.6105865377264086  0.0452453109142169
  0.2541575204012025  0.3874022689996307  0.0483567948119739
  0.3515981112316426  0.4436636676691310  0.0533727492602535
  0.3510290589440092  0.5555460219263836  0.0557607816761680
  0.2532498840498640  0.6114195009265999  0.0501874937848902
  0.7614893366863975  0.4452579893836445  0.0568863797513103
  0.8591440306017351  0.3877194809827765  0.0502874638822268
  0.9578280320010658  0.4429699262092263  0.0460311496937968
  0.9574755813073356  0.5542032073067796  0.0458069246480898
  0.8576176008915380  0.6072541389512178  0.0491700402712883
  0.0558739947214308  0.7215925249857187  0.0471162652296636
  0.1548980586840269  0.7779726415366749  0.0496090633657766
  0.1559520570604990  0.8888788659963880  0.0513436667275273
  0.0557197471758904  0.9435464399679593  0.0506397839167739
  0.2538720655223631  0.7223896214673785  0.0523528724835257
  0.3531375812682951  0.7766794066900651  0.0592971209721160
  0.3557573744609560  0.8883797437869704  0.0594765274410252
  0.2564553303656680  0.9442418141865526  0.0548041260824973
  0.4503523184842393  0.7179148024177600  0.0688907740994650
  0.5549922759895248  0.8844993090452611  0.0685180230510828
  0.4563532638653992  0.9439156535046329  0.0636600581076169
  0.7564701398065198  0.8823056759644775  0.0577349123439313
  0.6563706225730931  0.9397679042551274  0.0636059120869337
  0.8568298729631680  0.7208758713372575  0.0501350788939967
  0.9561624358748246  0.7763141992513063  0.0488390109276032
  0.9559490852248977  0.8876795904258236  0.0507283102213047
  0.8552200661247630  0.9413612775522454  0.0540043926765522
  0.4524023870304374  0.3943178025975896  0.0602455868188189
  0.4501336190009816  0.6055878710208190  0.0683976084837082
  0.5496566162395765  0.7742995414076238  0.0755544777698227
  0.6659024633517541  0.3930771065164525  0.0678981417512773
  0.7619806287800047  0.5532236388198870  0.0545956226497215
  0.7591926463920291  0.7729766334358434  0.0551142619471362
  0.6508645289626676  0.6674167788701700  0.0737116993688465
  0.5573457541167500  0.4977816237279277  0.0804533009044079
  0.6113698395287472  0.5804642686156463  0.1316723607098508
 
  0.00000000E+00  0.00000000E+00  0.00000000E+00
  0.00000000E+00  0.00000000E+00  0.00000000E+00
  0.00000000E+00  0.00000000E+00  0.00000000E+00
  0.00000000E+00  0.00000000E+00  0.00000000E+00
  0.00000000E+00  0.00000000E+00  0.00000000E+00
  0.00000000E+00  0.00000000E+00  0.00000000E+00
  0.00000000E+00  0.00000000E+00  0.00000000E+00
  0.00000000E+00  0.00000000E+00  0.00000000E+00
  0.00000000E+00  0.00000000E+00  0.00000000E+00
  0.00000000E+00  0.00000000E+00  0.00000000E+00
  0.00000000E+00  0.00000000E+00  0.00000000E+00
  0.00000000E+00  0.00000000E+00  0.00000000E+00
  0.00000000E+00  0.00000000E+00  0.00000000E+00
  0.00000000E+00  0.00000000E+00  0.00000000E+00
  0.00000000E+00  0.00000000E+00  0.00000000E+00
  0.00000000E+00  0.00000000E+00  0.00000000E+00
  0.00000000E+00  0.00000000E+00  0.00000000E+00
  0.00000000E+00  0.00000000E+00  0.00000000E+00
  0.00000000E+00  0.00000000E+00  0.00000000E+00
  0.00000000E+00  0.00000000E+00  0.00000000E+00
  0.00000000E+00  0.00000000E+00  0.00000000E+00
  0.00000000E+00  0.00000000E+00  0.00000000E+00
  0.00000000E+00  0.00000000E+00  0.00000000E+00
  0.00000000E+00  0.00000000E+00  0.00000000E+00
  0.00000000E+00  0.00000000E+00  0.00000000E+00
  0.00000000E+00  0.00000000E+00  0.00000000E+00
  0.00000000E+00  0.00000000E+00  0.00000000E+00
  0.00000000E+00  0.00000000E+00  0.00000000E+00
  0.00000000E+00  0.00000000E+00  0.00000000E+00
  0.00000000E+00  0.00000000E+00  0.00000000E+00
  0.00000000E+00  0.00000000E+00  0.00000000E+00
  0.00000000E+00  0.00000000E+00  0.00000000E+00
  0.00000000E+00  0.00000000E+00  0.00000000E+00
  0.00000000E+00  0.00000000E+00  0.00000000E+00
  0.00000000E+00  0.00000000E+00  0.00000000E+00
  0.00000000E+00  0.00000000E+00  0.00000000E+00
  0.00000000E+00  0.00000000E+00  0.00000000E+00
  0.00000000E+00  0.00000000E+00  0.00000000E+00
  0.00000000E+00  0.00000000E+00  0.00000000E+00
  0.00000000E+00  0.00000000E+00  0.00000000E+00
  0.00000000E+00  0.00000000E+00  0.00000000E+00
  0.00000000E+00  0.00000000E+00  0.00000000E+00
  0.00000000E+00  0.00000000E+00  0.00000000E+00
  0.00000000E+00  0.00000000E+00  0.00000000E+00
  0.00000000E+00  0.00000000E+00  0.00000000E+00
  0.00000000E+00  0.00000000E+00  0.00000000E+00
  0.00000000E+00  0.00000000E+00  0.00000000E+00
  0.00000000E+00  0.00000000E+00  0.00000000E+00
  0.00000000E+00  0.00000000E+00  0.00000000E+00
  0.00000000E+00  0.00000000E+00  0.00000000E+00
  0.00000000E+00  0.00000000E+00  0.00000000E+00
  0.00000000E+00  0.00000000E+00  0.00000000E+00
  0.00000000E+00  0.00000000E+00  0.00000000E+00
  0.00000000E+00  0.00000000E+00  0.00000000E+00
  0.00000000E+00  0.00000000E+00  0.00000000E+00
  0.00000000E+00  0.00000000E+00  0.00000000E+00
  0.00000000E+00  0.00000000E+00  0.00000000E+00
  0.00000000E+00  0.00000000E+00  0.00000000E+00
  0.00000000E+00  0.00000000E+00  0.00000000E+00
