CONTCAR\(2)                             
   1.00000000000000     
    12.3312997818000003    0.0000000000000000    0.0000000000000000
     0.0001127485000000   12.8291997905000006    0.0000000000000000
     0.0005937186000000    0.0011528207000000   19.9943999824000009
   C    N    Fe   Ni   O 
    52     4     1     1     1
Direct
  0.0557022534735692  0.0544660790817616  0.0500295997829268
  0.1560899684126288  0.1096293242319293  0.0500070375458762
  0.1558478224647209  0.2203223088769380  0.0487230361215663
  0.0557455004283445  0.2758292900931661  0.0479703369819404
  0.2568068574816185  0.0548484050185412  0.0518415895154688
  0.3572217007115668  0.1103923590925859  0.0555064754824061
  0.3567281548561073  0.2224076975400435  0.0548338081445939
  0.2557506630410851  0.2757153808314164  0.0495395184708798
  0.4570584464998588  0.0543391593381947  0.0598757772304519
  0.5564116410779235  0.1119002821537546  0.0637606029243633
  0.5564769028936690  0.2254899444544043  0.0652932554599596
  0.4552104450225578  0.2817846840899605  0.0601911683983924
  0.6555689267940586  0.0517449373800989  0.0637705464357658
  0.7548201216961232  0.1096348017708655  0.0604639278810877
  0.7554451547491885  0.2225477855336707  0.0611958870305106
  0.6574169199653424  0.2830218628530897  0.0674546965175672
  0.8547994003543057  0.0534898732642909  0.0559063911542397
  0.9551009069690426  0.1094519970177671  0.0524021000921700
  0.9554002241141385  0.2210544655583604  0.0517556318585655
  0.8557144492902611  0.2776677145730013  0.0558429190067191
  0.0567654783182154  0.3869491778330550  0.0450164605891934
  0.1558393262051581  0.4427915560446781  0.0429022519906668
  0.1561489729830898  0.5538834285869155  0.0411914787304226
  0.0573744404426667  0.6101855889120484  0.0412782850712580
  0.2552658477966238  0.3864872079923483  0.0463146099896794
  0.3538934572492552  0.4412161571387055  0.0501197346383980
  0.3547217293342076  0.5541727179224401  0.0494109464751363
  0.2552779637176466  0.6094855370967833  0.0437146159901725
  0.7606364912270097  0.4493940780899307  0.0623446454052543
  0.8580291187961818  0.3895228694834594  0.0542434349724126
  0.9577242219222909  0.4432449358622186  0.0470183399325170
  0.9587348568184941  0.5543304149007624  0.0447689401996147
  0.8597696298345699  0.6094043687130407  0.0502981482975177
  0.0573579750571495  0.7212280590809718  0.0424511888519132
  0.1563390813352258  0.7770543629013690  0.0439436377463051
  0.1563905795382323  0.8881206493981662  0.0470018427909490
  0.0561132744410346  0.9435189985690986  0.0483242317740260
  0.2557231860213186  0.7206484952320896  0.0454885611301387
  0.3545653591328108  0.7760111516548176  0.0525431831150457
  0.3557525949411696  0.8873830297227010  0.0542597591575547
  0.2563243197472381  0.9435833806585896  0.0505742745273290
  0.4525187919161850  0.7187208516522990  0.0613637598677160
  0.5538253676679814  0.8814124635134185  0.0660559575513517
  0.4560220415432154  0.9419262857318789  0.0600461840607919
  0.7571818833810556  0.8815519377544729  0.0597219054366663
  0.6556470631829365  0.9374234243574223  0.0646118499501927
  0.8592482001105558  0.7220797435837438  0.0501074771613436
  0.9578479563235927  0.7769133638420548  0.0461835025626875
  0.9565341056716171  0.8879113720268714  0.0493036772623397
  0.8555056518418849  0.9414426881156861  0.0548083855581567
  0.4527696594156905  0.6071382336260002  0.0600794499959251
  0.6621661121159447  0.3943434742696710  0.0736681232973421
  0.4508721481961989  0.3901759071452623  0.0591001385032334
  0.7645222184300092  0.5585342817149095  0.0596297091380432
  0.5486281960924989  0.7739216577543950  0.0707964395908604
  0.7619222460356116  0.7731250985432964  0.0581048965575504
  0.6557121079623441  0.6672901637165128  0.0821432804403870
  0.5514015322121169  0.4919717623747554  0.0863990603078020
  0.6074602447448464  0.5861728267293406  0.1438733163466256
 
  0.00000000E+00  0.00000000E+00  0.00000000E+00
  0.00000000E+00  0.00000000E+00  0.00000000E+00
  0.00000000E+00  0.00000000E+00  0.00000000E+00
  0.00000000E+00  0.00000000E+00  0.00000000E+00
  0.00000000E+00  0.00000000E+00  0.00000000E+00
  0.00000000E+00  0.00000000E+00  0.00000000E+00
  0.00000000E+00  0.00000000E+00  0.00000000E+00
  0.00000000E+00  0.00000000E+00  0.00000000E+00
  0.00000000E+00  0.00000000E+00  0.00000000E+00
  0.00000000E+00  0.00000000E+00  0.00000000E+00
  0.00000000E+00  0.00000000E+00  0.00000000E+00
  0.00000000E+00  0.00000000E+00  0.00000000E+00
  0.00000000E+00  0.00000000E+00  0.00000000E+00
  0.00000000E+00  0.00000000E+00  0.00000000E+00
  0.00000000E+00  0.00000000E+00  0.00000000E+00
  0.00000000E+00  0.00000000E+00  0.00000000E+00
  0.00000000E+00  0.00000000E+00  0.00000000E+00
  0.00000000E+00  0.00000000E+00  0.00000000E+00
  0.00000000E+00  0.00000000E+00  0.00000000E+00
  0.00000000E+00  0.00000000E+00  0.00000000E+00
  0.00000000E+00  0.00000000E+00  0.00000000E+00
  0.00000000E+00  0.00000000E+00  0.00000000E+00
  0.00000000E+00  0.00000000E+00  0.00000000E+00
  0.00000000E+00  0.00000000E+00  0.00000000E+00
  0.00000000E+00  0.00000000E+00  0.00000000E+00
  0.00000000E+00  0.00000000E+00  0.00000000E+00
  0.00000000E+00  0.00000000E+00  0.00000000E+00
  0.00000000E+00  0.00000000E+00  0.00000000E+00
  0.00000000E+00  0.00000000E+00  0.00000000E+00
  0.00000000E+00  0.00000000E+00  0.00000000E+00
  0.00000000E+00  0.00000000E+00  0.00000000E+00
  0.00000000E+00  0.00000000E+00  0.00000000E+00
  0.00000000E+00  0.00000000E+00  0.00000000E+00
  0.00000000E+00  0.00000000E+00  0.00000000E+00
  0.00000000E+00  0.00000000E+00  0.00000000E+00
  0.00000000E+00  0.00000000E+00  0.00000000E+00
  0.00000000E+00  0.00000000E+00  0.00000000E+00
  0.00000000E+00  0.00000000E+00  0.00000000E+00
  0.00000000E+00  0.00000000E+00  0.00000000E+00
  0.00000000E+00  0.00000000E+00  0.00000000E+00
  0.00000000E+00  0.00000000E+00  0.00000000E+00
  0.00000000E+00  0.00000000E+00  0.00000000E+00
  0.00000000E+00  0.00000000E+00  0.00000000E+00
  0.00000000E+00  0.00000000E+00  0.00000000E+00
  0.00000000E+00  0.00000000E+00  0.00000000E+00
  0.00000000E+00  0.00000000E+00  0.00000000E+00
  0.00000000E+00  0.00000000E+00  0.00000000E+00
  0.00000000E+00  0.00000000E+00  0.00000000E+00
  0.00000000E+00  0.00000000E+00  0.00000000E+00
  0.00000000E+00  0.00000000E+00  0.00000000E+00
  0.00000000E+00  0.00000000E+00  0.00000000E+00
  0.00000000E+00  0.00000000E+00  0.00000000E+00
  0.00000000E+00  0.00000000E+00  0.00000000E+00
  0.00000000E+00  0.00000000E+00  0.00000000E+00
  0.00000000E+00  0.00000000E+00  0.00000000E+00
  0.00000000E+00  0.00000000E+00  0.00000000E+00
  0.00000000E+00  0.00000000E+00  0.00000000E+00
  0.00000000E+00  0.00000000E+00  0.00000000E+00
  0.00000000E+00  0.00000000E+00  0.00000000E+00
