CONTCAR\(6)                             
   1.00000000000000     
    12.3312997818000003    0.0000000000000000    0.0000000000000000
     0.0001127485000000   12.8291997905000006    0.0000000000000000
     0.0005937186000000    0.0011528207000000   19.9943999824000009
   C    N    Fe   Ni   O 
    53     3     1     1     2
Direct
  0.0564492047089702  0.0554649962222841  0.0519651099624196
  0.1567113242556276  0.1110043475418229  0.0521165798138412
  0.1567646140437844  0.2220599847572652  0.0512192113026708
  0.0570411747706009  0.2771672578475668  0.0495231890054254
  0.2570966710989960  0.0564058211624577  0.0534929304461691
  0.3572880837087175  0.1128608172156706  0.0553199562098782
  0.3568754439338989  0.2247195321230106  0.0554386791747642
  0.2561802769466294  0.2782634286092372  0.0525652590295813
  0.4571855053783022  0.0574697223676357  0.0572431572036519
  0.5564288765883124  0.1154185339985459  0.0583926224644293
  0.5568085693173572  0.2288268165450200  0.0589218713048898
  0.4553966798882727  0.2844758659185129  0.0585487228471594
  0.6554550721610641  0.0559445233680625  0.0578873556592773
  0.7557542694552906  0.1118157366639319  0.0552276325272387
  0.7570408736345223  0.2236619360852643  0.0539356893685313
  0.6589045689355518  0.2841404741874503  0.0569016884162945
  0.8554136984819916  0.0552485282386811  0.0537035968054029
  0.9560909700487373  0.1104562005315282  0.0518803869641441
  0.9570897212372705  0.2214077300176149  0.0503569684629846
  0.8577506377558286  0.2773417137765231  0.0506438020352842
  0.0575991792621078  0.3882671450318617  0.0483340380301765
  0.1562298656568247  0.4445449981386246  0.0492761866483738
  0.1563901956000129  0.5557122276915534  0.0497775508552510
  0.0571901660888045  0.6111912232056758  0.0493467683907178
  0.2555030470240089  0.3892708734866479  0.0513952618848765
  0.3547103294918591  0.4441928619823036  0.0547885517196657
  0.3559726992391924  0.5572727995250395  0.0547409218877139
  0.2556928215916102  0.6115785964536382  0.0519748959458435
  0.7609475187475746  0.4446559489592038  0.0509093816128358
  0.8594745570855294  0.3881614366739665  0.0487750611662593
  0.9583710125503854  0.4439970520825857  0.0476766461835372
  0.9580029443193661  0.5547563919978400  0.0483178404371225
  0.8575959134579914  0.6088112923322678  0.0495948934321863
  0.0566077212185873  0.7225061992133511  0.0506648917103288
  0.1557248685975678  0.7782978069430729  0.0515388119467630
  0.1563123538321644  0.8896489834118231  0.0522752238116895
  0.0561030714673517  0.9446023382245463  0.0522592480556778
  0.2551784051694369  0.7225882748437779  0.0524266883301734
  0.3549606915203014  0.7771010132414561  0.0546376914683228
  0.3565583806597148  0.8890165252529922  0.0550031455473123
  0.2565620576204009  0.9449515488387574  0.0534312828847317
  0.4532967075985250  0.7183109696398738  0.0579014823347803
  0.5549779856651667  0.8859924179597563  0.0599023325847708
  0.4564333636593247  0.9448284393502467  0.0571959169111423
  0.7548196922234310  0.8860025054348132  0.0576649471150949
  0.6551534349800453  0.9437739815180263  0.0593525410497172
  0.8573612262792006  0.7218149557183621  0.0525222767272915
  0.9564717847616403  0.7778722706927487  0.0518657837887919
  0.9557634015620917  0.8889743448497910  0.0528477484448711
  0.8549943390557919  0.9433517222240478  0.0544721110687790
  0.7578611330585433  0.5553835944949771  0.0507810155825125
  0.5521625746395538  0.7751877633319756  0.0625318090336884
  0.7572409418068238  0.7744914248585721  0.0581558644586804
  0.4507919297995174  0.3924312442268926  0.0601588359309146
  0.4527997097457778  0.6086288010641250  0.0578286533755267
  0.6640963163219371  0.3908862106018028  0.0563698375557809
  0.6528754689653856  0.6676405825974389  0.0816125129006066
  0.5620082760309106  0.4934429714457759  0.0757970488180763
  0.6298509220007905  0.6379281909675120  0.1696216648800335
  0.5902567992949995  0.5376780323142096  0.1668482144853203
 
  0.00000000E+00  0.00000000E+00  0.00000000E+00
  0.00000000E+00  0.00000000E+00  0.00000000E+00
  0.00000000E+00  0.00000000E+00  0.00000000E+00
  0.00000000E+00  0.00000000E+00  0.00000000E+00
  0.00000000E+00  0.00000000E+00  0.00000000E+00
  0.00000000E+00  0.00000000E+00  0.00000000E+00
  0.00000000E+00  0.00000000E+00  0.00000000E+00
  0.00000000E+00  0.00000000E+00  0.00000000E+00
  0.00000000E+00  0.00000000E+00  0.00000000E+00
  0.00000000E+00  0.00000000E+00  0.00000000E+00
  0.00000000E+00  0.00000000E+00  0.00000000E+00
  0.00000000E+00  0.00000000E+00  0.00000000E+00
  0.00000000E+00  0.00000000E+00  0.00000000E+00
  0.00000000E+00  0.00000000E+00  0.00000000E+00
  0.00000000E+00  0.00000000E+00  0.00000000E+00
  0.00000000E+00  0.00000000E+00  0.00000000E+00
  0.00000000E+00  0.00000000E+00  0.00000000E+00
  0.00000000E+00  0.00000000E+00  0.00000000E+00
  0.00000000E+00  0.00000000E+00  0.00000000E+00
  0.00000000E+00  0.00000000E+00  0.00000000E+00
  0.00000000E+00  0.00000000E+00  0.00000000E+00
  0.00000000E+00  0.00000000E+00  0.00000000E+00
  0.00000000E+00  0.00000000E+00  0.00000000E+00
  0.00000000E+00  0.00000000E+00  0.00000000E+00
  0.00000000E+00  0.00000000E+00  0.00000000E+00
  0.00000000E+00  0.00000000E+00  0.00000000E+00
  0.00000000E+00  0.00000000E+00  0.00000000E+00
  0.00000000E+00  0.00000000E+00  0.00000000E+00
  0.00000000E+00  0.00000000E+00  0.00000000E+00
  0.00000000E+00  0.00000000E+00  0.00000000E+00
  0.00000000E+00  0.00000000E+00  0.00000000E+00
  0.00000000E+00  0.00000000E+00  0.00000000E+00
  0.00000000E+00  0.00000000E+00  0.00000000E+00
  0.00000000E+00  0.00000000E+00  0.00000000E+00
  0.00000000E+00  0.00000000E+00  0.00000000E+00
  0.00000000E+00  0.00000000E+00  0.00000000E+00
  0.00000000E+00  0.00000000E+00  0.00000000E+00
  0.00000000E+00  0.00000000E+00  0.00000000E+00
  0.00000000E+00  0.00000000E+00  0.00000000E+00
  0.00000000E+00  0.00000000E+00  0.00000000E+00
  0.00000000E+00  0.00000000E+00  0.00000000E+00
  0.00000000E+00  0.00000000E+00  0.00000000E+00
  0.00000000E+00  0.00000000E+00  0.00000000E+00
  0.00000000E+00  0.00000000E+00  0.00000000E+00
  0.00000000E+00  0.00000000E+00  0.00000000E+00
  0.00000000E+00  0.00000000E+00  0.00000000E+00
  0.00000000E+00  0.00000000E+00  0.00000000E+00
  0.00000000E+00  0.00000000E+00  0.00000000E+00
  0.00000000E+00  0.00000000E+00  0.00000000E+00
  0.00000000E+00  0.00000000E+00  0.00000000E+00
  0.00000000E+00  0.00000000E+00  0.00000000E+00
  0.00000000E+00  0.00000000E+00  0.00000000E+00
  0.00000000E+00  0.00000000E+00  0.00000000E+00
  0.00000000E+00  0.00000000E+00  0.00000000E+00
  0.00000000E+00  0.00000000E+00  0.00000000E+00
  0.00000000E+00  0.00000000E+00  0.00000000E+00
  0.00000000E+00  0.00000000E+00  0.00000000E+00
  0.00000000E+00  0.00000000E+00  0.00000000E+00
  0.00000000E+00  0.00000000E+00  0.00000000E+00
  0.00000000E+00  0.00000000E+00  0.00000000E+00
