CONTCAR                                 
   1.00000000000000     
    12.3312997818000003    0.0000000000000000    0.0000000000000000
     0.0001127485000000   12.8291997905000006    0.0000000000000000
     0.0005937186000000    0.0011528207000000   19.9943999824000009
   C    N    Fe   Ni   H 
    52     4     1     1     2
Direct
  0.0555029560269682  0.0541600309814495  0.0518506667755464
  0.1556384732980317  0.1097304146727684  0.0513746223481702
  0.1555658973808598  0.2205131331710577  0.0504435956006495
  0.0556688582785972  0.2757889067522958  0.0503633485579112
  0.2562378313138291  0.0551467299542855  0.0524869906191692
  0.3566391899272352  0.1109568389839520  0.0550423199940666
  0.3562503992904575  0.2228442482828119  0.0544007821208959
  0.2553073871346108  0.2761080855126388  0.0507698769611716
  0.4566383788276887  0.0553713885478552  0.0583870124779598
  0.5563611289761560  0.1128043172902672  0.0615572347069177
  0.5563933241583052  0.2268408141616603  0.0621876769909886
  0.4547142336005898  0.2826046754610046  0.0577243367679118
  0.6551525600536886  0.0516580780303581  0.0621624733591015
  0.7547156794453215  0.1090896979116608  0.0600942362818228
  0.7561299534651315  0.2217723324764157  0.0606555934190761
  0.6585868114681718  0.2830608213712038  0.0645056040554570
  0.8543923846407810  0.0529063104576040  0.0567113021335360
  0.9549163741629703  0.1087071155147550  0.0538500515762405
  0.9558770387548982  0.2200196579322120  0.0532981399876591
  0.8565213647424789  0.2762041751265089  0.0565549329426088
  0.0562228402449624  0.3871780343946379  0.0485958925762916
  0.1550881387077670  0.4429275073886653  0.0469990548924065
  0.1556153153367524  0.5541198983965681  0.0461201859573063
  0.0566751274511872  0.6098197702730924  0.0465118490338448
  0.2542843761650809  0.3868825723582220  0.0488119512599680
  0.3530242415908185  0.4414223324736120  0.0512562361193602
  0.3549268508861574  0.5546494098846442  0.0515265510182656
  0.2549338867136346  0.6098417369009781  0.0477532229648449
  0.7603277219623931  0.4443528651576624  0.0623321695179947
  0.8583438712975903  0.3876505347749618  0.0555816929019682
  0.9572368951946543  0.4432423499353809  0.0503870027953499
  0.9574643985354656  0.5542310287973712  0.0492198018149240
  0.8582169810262484  0.6095525526983858  0.0539924356080703
  0.0565192757470872  0.7210079086812237  0.0473070066677596
  0.1552696092390203  0.7768369079131990  0.0478529689666642
  0.1555961414246921  0.8880712562585928  0.0496638134238723
  0.0556073263346056  0.9433440282684038  0.0508329327479914
  0.2545928565314354  0.7207534410811803  0.0486350861490388
  0.3533551877474461  0.7765861349889861  0.0529703699703061
  0.3549108696336713  0.8881031865000478  0.0542048980417594
  0.2554326574210939  0.9439072618126847  0.0517133509152997
  0.4517108550806099  0.7202427405002373  0.0591263694997963
  0.5526410860541269  0.8822828274583380  0.0631612782241989
  0.4551717791482700  0.9429696284416519  0.0584546057193309
  0.7562482093971872  0.8805666316535161  0.0594435753694193
  0.6550912821392988  0.9375464669525996  0.0627012579722468
  0.8585792176432334  0.7221183710715512  0.0532623011076133
  0.9570480053253451  0.7770329137871952  0.0499831741546604
  0.9559480939671067  0.8877430910607812  0.0519135123828505
  0.8546455270392407  0.9406983111935086  0.0559597490774866
  0.4545609195768315  0.6076588249393794  0.0584099446592432
  0.7585861302035527  0.5571832091293111  0.0622372473774584
  0.4496964834789422  0.3906056644456884  0.0560672841807192
  0.6641137249104645  0.3901257327633003  0.0683686749115643
  0.5476004386098564  0.7756023190493998  0.0664670093086114
  0.7607440058442199  0.7715750139303409  0.0583413426434933
  0.6470279448885154  0.6605971987853914  0.0734277802138696
  0.5581216783432513  0.4971679601050011  0.0692135591645771
  0.6661537914361989  0.6680039625747209  0.1460651350549499
  0.6073060847751953  0.5758907576268264  0.1256569309577509
 
  0.00000000E+00  0.00000000E+00  0.00000000E+00
  0.00000000E+00  0.00000000E+00  0.00000000E+00
  0.00000000E+00  0.00000000E+00  0.00000000E+00
  0.00000000E+00  0.00000000E+00  0.00000000E+00
  0.00000000E+00  0.00000000E+00  0.00000000E+00
  0.00000000E+00  0.00000000E+00  0.00000000E+00
  0.00000000E+00  0.00000000E+00  0.00000000E+00
  0.00000000E+00  0.00000000E+00  0.00000000E+00
  0.00000000E+00  0.00000000E+00  0.00000000E+00
  0.00000000E+00  0.00000000E+00  0.00000000E+00
  0.00000000E+00  0.00000000E+00  0.00000000E+00
  0.00000000E+00  0.00000000E+00  0.00000000E+00
  0.00000000E+00  0.00000000E+00  0.00000000E+00
  0.00000000E+00  0.00000000E+00  0.00000000E+00
  0.00000000E+00  0.00000000E+00  0.00000000E+00
  0.00000000E+00  0.00000000E+00  0.00000000E+00
  0.00000000E+00  0.00000000E+00  0.00000000E+00
  0.00000000E+00  0.00000000E+00  0.00000000E+00
  0.00000000E+00  0.00000000E+00  0.00000000E+00
  0.00000000E+00  0.00000000E+00  0.00000000E+00
  0.00000000E+00  0.00000000E+00  0.00000000E+00
  0.00000000E+00  0.00000000E+00  0.00000000E+00
  0.00000000E+00  0.00000000E+00  0.00000000E+00
  0.00000000E+00  0.00000000E+00  0.00000000E+00
  0.00000000E+00  0.00000000E+00  0.00000000E+00
  0.00000000E+00  0.00000000E+00  0.00000000E+00
  0.00000000E+00  0.00000000E+00  0.00000000E+00
  0.00000000E+00  0.00000000E+00  0.00000000E+00
  0.00000000E+00  0.00000000E+00  0.00000000E+00
  0.00000000E+00  0.00000000E+00  0.00000000E+00
  0.00000000E+00  0.00000000E+00  0.00000000E+00
  0.00000000E+00  0.00000000E+00  0.00000000E+00
  0.00000000E+00  0.00000000E+00  0.00000000E+00
  0.00000000E+00  0.00000000E+00  0.00000000E+00
  0.00000000E+00  0.00000000E+00  0.00000000E+00
  0.00000000E+00  0.00000000E+00  0.00000000E+00
  0.00000000E+00  0.00000000E+00  0.00000000E+00
  0.00000000E+00  0.00000000E+00  0.00000000E+00
  0.00000000E+00  0.00000000E+00  0.00000000E+00
  0.00000000E+00  0.00000000E+00  0.00000000E+00
  0.00000000E+00  0.00000000E+00  0.00000000E+00
  0.00000000E+00  0.00000000E+00  0.00000000E+00
  0.00000000E+00  0.00000000E+00  0.00000000E+00
  0.00000000E+00  0.00000000E+00  0.00000000E+00
  0.00000000E+00  0.00000000E+00  0.00000000E+00
  0.00000000E+00  0.00000000E+00  0.00000000E+00
  0.00000000E+00  0.00000000E+00  0.00000000E+00
  0.00000000E+00  0.00000000E+00  0.00000000E+00
  0.00000000E+00  0.00000000E+00  0.00000000E+00
  0.00000000E+00  0.00000000E+00  0.00000000E+00
  0.00000000E+00  0.00000000E+00  0.00000000E+00
  0.00000000E+00  0.00000000E+00  0.00000000E+00
  0.00000000E+00  0.00000000E+00  0.00000000E+00
  0.00000000E+00  0.00000000E+00  0.00000000E+00
  0.00000000E+00  0.00000000E+00  0.00000000E+00
  0.00000000E+00  0.00000000E+00  0.00000000E+00
  0.00000000E+00  0.00000000E+00  0.00000000E+00
  0.00000000E+00  0.00000000E+00  0.00000000E+00
  0.00000000E+00  0.00000000E+00  0.00000000E+00
  0.00000000E+00  0.00000000E+00  0.00000000E+00
