CONTCAR\(9)                             
   1.00000000000000     
    12.3312997818000003    0.0000000000000000    0.0000000000000000
     0.0001127485000000   12.8291997905000006    0.0000000000000000
     0.0005937186000000    0.0011528207000000   19.9943999824000009
   C    N    Fe   Ni   O    H 
    52     4     1     1     2     2
Direct
  0.0577782363198900  0.0550804917105660  0.0503404748752653
  0.1581117171323886  0.1108496779534110  0.0504922163970058
  0.1583858329450327  0.2218097960281906  0.0498900260308022
  0.0584479705089831  0.2766050352354349  0.0493451075698992
  0.2583464408515712  0.0561872771000950  0.0520093991566413
  0.3586496764723099  0.1119863101868011  0.0545239630708483
  0.3583352971779183  0.2237510443821408  0.0543694930359568
  0.2581399528106985  0.2779867015919483  0.0510421696472739
  0.4586421557710694  0.0566031956329002  0.0574929552799155
  0.5581057835411284  0.1141101442498997  0.0598050034063722
  0.5586879371368575  0.2277689414752941  0.0607059640059369
  0.4566556653602076  0.2832825679975348  0.0583767857403640
  0.6563768551806090  0.0534066065163374  0.0596940210295392
  0.7567470458130926  0.1097843320681278  0.0569995022395700
  0.7584109404097140  0.2221609594377759  0.0571272928706330
  0.6610171159652349  0.2830352307126278  0.0611928422143253
  0.8566629742834461  0.0537541460173193  0.0538847058302327
  0.9572235750713284  0.1096722287236534  0.0515143659919285
  0.9582502808569089  0.2209026800223831  0.0511418294699193
  0.8588839573982368  0.2768595878797972  0.0536921311068293
  0.0593448732631249  0.3876370406838626  0.0485409220405182
  0.1584608232987852  0.4439609773116174  0.0480103451846927
  0.1592196916401513  0.5549685259231512  0.0479577771470291
  0.0598742260627727  0.6102516121179266  0.0482323204247475
  0.2578721848482257  0.3892638122318327  0.0498125734210259
  0.3578206484904768  0.4440195106980595  0.0533612233567437
  0.3598713952885738  0.5583371575961137  0.0539922501788828
  0.2588478981151915  0.6110280438993363  0.0500447963993848
  0.7620366563957878  0.4450293641345888  0.0599709797087369
  0.8606588186066870  0.3881814909383868  0.0536974431587529
  0.9602170842537388  0.4431405310700618  0.0503327019458979
  0.9607372641152567  0.5538123542357551  0.0505054373458089
  0.8609704851508555  0.6080372327166080  0.0551674383902426
  0.0593327321594317  0.7217234074055613  0.0485563291282751
  0.1579312786377209  0.7778277738429497  0.0489058871407387
  0.1577466310730711  0.8891318126562100  0.0497053026507160
  0.0575888933732248  0.9441345745759389  0.0499168983364813
  0.2571541414118875  0.7222059233555894  0.0502374339624150
  0.3556225019736508  0.7778607732561698  0.0531515379321705
  0.3570302048979492  0.8893501880429527  0.0538692910887228
  0.2575434360974185  0.9449347468839995  0.0516032460270808
  0.4538404435066755  0.7209196539948487  0.0581830348947065
  0.5542719632356122  0.8834097914768413  0.0608925131226176
  0.4572835518055933  0.9440144745947775  0.0574135441628270
  0.7564721777548966  0.8834019943374348  0.0582831646219239
  0.6556182239546838  0.9399147849979520  0.0607221652572460
  0.8618014702677794  0.7205251425468635  0.0539886345544450
  0.9598506186892787  0.7770999097849824  0.0502740207656808
  0.9576487962331077  0.8881337975322362  0.0509094560771871
  0.8564160817782075  0.9418515466728570  0.0538167012597910
  0.7601638945798641  0.5572296277274819  0.0625070660521531
  0.7624086779330723  0.7722691633354758  0.0597938379097268
  0.4522632836848788  0.3905807780970611  0.0590539937349647
  0.4563512265253510  0.6124973004322751  0.0593743734611163
  0.6664534354810937  0.3900568702071351  0.0645147050559239
  0.5494668303472322  0.7749861779605334  0.0628340112325656
  0.6583397570302443  0.6739677446422023  0.0917608770764478
  0.5599619172080886  0.4900461250838773  0.0918350574278683
  0.5536455674173466  0.5067041392771413  0.1823664788623784
  0.6604734744383374  0.6967509696257576  0.1824094269173274
  0.7280257538684469  0.6770930540618940  0.2043922603775101
  0.5759716440996149  0.5770729251114710  0.1966622882372506
 
  0.00000000E+00  0.00000000E+00  0.00000000E+00
  0.00000000E+00  0.00000000E+00  0.00000000E+00
  0.00000000E+00  0.00000000E+00  0.00000000E+00
  0.00000000E+00  0.00000000E+00  0.00000000E+00
  0.00000000E+00  0.00000000E+00  0.00000000E+00
  0.00000000E+00  0.00000000E+00  0.00000000E+00
  0.00000000E+00  0.00000000E+00  0.00000000E+00
  0.00000000E+00  0.00000000E+00  0.00000000E+00
  0.00000000E+00  0.00000000E+00  0.00000000E+00
  0.00000000E+00  0.00000000E+00  0.00000000E+00
  0.00000000E+00  0.00000000E+00  0.00000000E+00
  0.00000000E+00  0.00000000E+00  0.00000000E+00
  0.00000000E+00  0.00000000E+00  0.00000000E+00
  0.00000000E+00  0.00000000E+00  0.00000000E+00
  0.00000000E+00  0.00000000E+00  0.00000000E+00
  0.00000000E+00  0.00000000E+00  0.00000000E+00
  0.00000000E+00  0.00000000E+00  0.00000000E+00
  0.00000000E+00  0.00000000E+00  0.00000000E+00
  0.00000000E+00  0.00000000E+00  0.00000000E+00
  0.00000000E+00  0.00000000E+00  0.00000000E+00
  0.00000000E+00  0.00000000E+00  0.00000000E+00
  0.00000000E+00  0.00000000E+00  0.00000000E+00
  0.00000000E+00  0.00000000E+00  0.00000000E+00
  0.00000000E+00  0.00000000E+00  0.00000000E+00
  0.00000000E+00  0.00000000E+00  0.00000000E+00
  0.00000000E+00  0.00000000E+00  0.00000000E+00
  0.00000000E+00  0.00000000E+00  0.00000000E+00
  0.00000000E+00  0.00000000E+00  0.00000000E+00
  0.00000000E+00  0.00000000E+00  0.00000000E+00
  0.00000000E+00  0.00000000E+00  0.00000000E+00
  0.00000000E+00  0.00000000E+00  0.00000000E+00
  0.00000000E+00  0.00000000E+00  0.00000000E+00
  0.00000000E+00  0.00000000E+00  0.00000000E+00
  0.00000000E+00  0.00000000E+00  0.00000000E+00
  0.00000000E+00  0.00000000E+00  0.00000000E+00
  0.00000000E+00  0.00000000E+00  0.00000000E+00
  0.00000000E+00  0.00000000E+00  0.00000000E+00
  0.00000000E+00  0.00000000E+00  0.00000000E+00
  0.00000000E+00  0.00000000E+00  0.00000000E+00
  0.00000000E+00  0.00000000E+00  0.00000000E+00
  0.00000000E+00  0.00000000E+00  0.00000000E+00
  0.00000000E+00  0.00000000E+00  0.00000000E+00
  0.00000000E+00  0.00000000E+00  0.00000000E+00
  0.00000000E+00  0.00000000E+00  0.00000000E+00
  0.00000000E+00  0.00000000E+00  0.00000000E+00
  0.00000000E+00  0.00000000E+00  0.00000000E+00
  0.00000000E+00  0.00000000E+00  0.00000000E+00
  0.00000000E+00  0.00000000E+00  0.00000000E+00
  0.00000000E+00  0.00000000E+00  0.00000000E+00
  0.00000000E+00  0.00000000E+00  0.00000000E+00
  0.00000000E+00  0.00000000E+00  0.00000000E+00
  0.00000000E+00  0.00000000E+00  0.00000000E+00
  0.00000000E+00  0.00000000E+00  0.00000000E+00
  0.00000000E+00  0.00000000E+00  0.00000000E+00
  0.00000000E+00  0.00000000E+00  0.00000000E+00
  0.00000000E+00  0.00000000E+00  0.00000000E+00
  0.00000000E+00  0.00000000E+00  0.00000000E+00
  0.00000000E+00  0.00000000E+00  0.00000000E+00
  0.00000000E+00  0.00000000E+00  0.00000000E+00
  0.00000000E+00  0.00000000E+00  0.00000000E+00
  0.00000000E+00  0.00000000E+00  0.00000000E+00
  0.00000000E+00  0.00000000E+00  0.00000000E+00
