CONTCAR\(3)                             
   1.00000000000000     
    12.3312997818000003    0.0000000000000000    0.0000000000000000
     0.0001127485000000   12.8291997905000006    0.0000000000000000
     0.0005937186000000    0.0011528207000000   19.9943999824000009
   C    N    Fe   Ni   O 
    52     4     1     1     1
Direct
  0.0559347980602450  0.0550299452796059  0.0506525908895938
  0.1565016822242227  0.1105444405040671  0.0503812297880924
  0.1569340243361897  0.2214600452416034  0.0491863079902383
  0.0563798196639680  0.2761139306690165  0.0486310826509278
  0.2568117409262254  0.0553691975534266  0.0520036731094661
  0.3574955420837908  0.1104358356029407  0.0551144619595750
  0.3578743064444125  0.2224677992322840  0.0545387276389909
  0.2574110663827416  0.2773038981523133  0.0498637632901154
  0.4572183690329367  0.0536408081867615  0.0588632871554167
  0.5573618468848023  0.1097435372989415  0.0626453891501153
  0.5577469890699319  0.2226048375742214  0.0641291751739490
  0.4577007037679730  0.2799853143064892  0.0594706138703299
  0.6559462157301130  0.0497421917594199  0.0628726116906435
  0.7550836743390636  0.1083605030612667  0.0601625161729076
  0.7557881550464862  0.2213576351276924  0.0608675217504707
  0.6576670845145499  0.2809389500825708  0.0663125818641925
  0.8550465391602698  0.0528345788538156  0.0560676845270353
  0.9552947357086895  0.1093919169848546  0.0527857966662657
  0.9557963936242571  0.2209840287986133  0.0520277397528561
  0.8559285971568299  0.2770526781602276  0.0556306795123314
  0.0570234367241279  0.3871547104637088  0.0463395881156799
  0.1565414947943091  0.4432052166385159  0.0445472141828143
  0.1559740047564417  0.5541986818178435  0.0433515397264952
  0.0571846194107347  0.6102239182370446  0.0435488746125493
  0.2569558627716961  0.3887422840923155  0.0471072414111273
  0.3565458282026597  0.4453921457751495  0.0499130078084478
  0.3545538345374120  0.5584824019378674  0.0488209224850139
  0.2545484582711716  0.6113090724418490  0.0450866224501052
  0.7596549467950796  0.4485880303756663  0.0612133866455082
  0.8575054540373289  0.3889874861188404  0.0540776505565768
  0.9576918619206986  0.4428988515986188  0.0480817361663353
  0.9583316759570725  0.5540656831663880  0.0463163831875150
  0.8595193065232067  0.6088688244484722  0.0514383144630877
  0.0568483563288309  0.7212581772517958  0.0446556859134597
  0.1552847152670104  0.7779795786829364  0.0455566125931690
  0.1559055807273396  0.8887970921041988  0.0481278189336933
  0.0559326524985506  0.9440552849181820  0.0494224587866805
  0.2540710402747782  0.7220655080678690  0.0463864127401363
  0.3528549819926297  0.7771026230339200  0.0516459481639742
  0.3550817943605031  0.8879348636598486  0.0537007218828947
  0.2559657196348211  0.9441718687387529  0.0509463146121607
  0.4499809353533497  0.7188685719674686  0.0577706979776413
  0.5528666928300895  0.8798277884045808  0.0637257998802770
  0.4559970204149161  0.9413274595397265  0.0586413461627831
  0.7571849445628651  0.8802649294923387  0.0597510275856276
  0.6552298828174182  0.9353686194904510  0.0634609765694123
  0.8592559164564284  0.7213367246868818  0.0516270227510145
  0.9577257445967566  0.7767037395012732  0.0480556477462572
  0.9565730963521455  0.8877222002035052  0.0506425916054799
  0.8554283660884419  0.9407942141494514  0.0553621849910812
  0.4559231537611373  0.3913515908709487  0.0585513822669972
  0.6602083430727559  0.3929672467103484  0.0706169865457984
  0.4495808372250600  0.6121369330111874  0.0550079119149930
  0.7635967130583574  0.5579058118659327  0.0600505083246332
  0.5467371786843819  0.7712154418644520  0.0670884128681507
  0.7619443106145449  0.7720730489075427  0.0589124971445233
  0.6560326376272357  0.6659737120316140  0.0839293203398667
  0.5546632806344878  0.4908996931645961  0.0842890174602221
  0.6030030039054852  0.5888179791378080  0.1455647678242833
 
  0.00000000E+00  0.00000000E+00  0.00000000E+00
  0.00000000E+00  0.00000000E+00  0.00000000E+00
  0.00000000E+00  0.00000000E+00  0.00000000E+00
  0.00000000E+00  0.00000000E+00  0.00000000E+00
  0.00000000E+00  0.00000000E+00  0.00000000E+00
  0.00000000E+00  0.00000000E+00  0.00000000E+00
  0.00000000E+00  0.00000000E+00  0.00000000E+00
  0.00000000E+00  0.00000000E+00  0.00000000E+00
  0.00000000E+00  0.00000000E+00  0.00000000E+00
  0.00000000E+00  0.00000000E+00  0.00000000E+00
  0.00000000E+00  0.00000000E+00  0.00000000E+00
  0.00000000E+00  0.00000000E+00  0.00000000E+00
  0.00000000E+00  0.00000000E+00  0.00000000E+00
  0.00000000E+00  0.00000000E+00  0.00000000E+00
  0.00000000E+00  0.00000000E+00  0.00000000E+00
  0.00000000E+00  0.00000000E+00  0.00000000E+00
  0.00000000E+00  0.00000000E+00  0.00000000E+00
  0.00000000E+00  0.00000000E+00  0.00000000E+00
  0.00000000E+00  0.00000000E+00  0.00000000E+00
  0.00000000E+00  0.00000000E+00  0.00000000E+00
  0.00000000E+00  0.00000000E+00  0.00000000E+00
  0.00000000E+00  0.00000000E+00  0.00000000E+00
  0.00000000E+00  0.00000000E+00  0.00000000E+00
  0.00000000E+00  0.00000000E+00  0.00000000E+00
  0.00000000E+00  0.00000000E+00  0.00000000E+00
  0.00000000E+00  0.00000000E+00  0.00000000E+00
  0.00000000E+00  0.00000000E+00  0.00000000E+00
  0.00000000E+00  0.00000000E+00  0.00000000E+00
  0.00000000E+00  0.00000000E+00  0.00000000E+00
  0.00000000E+00  0.00000000E+00  0.00000000E+00
  0.00000000E+00  0.00000000E+00  0.00000000E+00
  0.00000000E+00  0.00000000E+00  0.00000000E+00
  0.00000000E+00  0.00000000E+00  0.00000000E+00
  0.00000000E+00  0.00000000E+00  0.00000000E+00
  0.00000000E+00  0.00000000E+00  0.00000000E+00
  0.00000000E+00  0.00000000E+00  0.00000000E+00
  0.00000000E+00  0.00000000E+00  0.00000000E+00
  0.00000000E+00  0.00000000E+00  0.00000000E+00
  0.00000000E+00  0.00000000E+00  0.00000000E+00
  0.00000000E+00  0.00000000E+00  0.00000000E+00
  0.00000000E+00  0.00000000E+00  0.00000000E+00
  0.00000000E+00  0.00000000E+00  0.00000000E+00
  0.00000000E+00  0.00000000E+00  0.00000000E+00
  0.00000000E+00  0.00000000E+00  0.00000000E+00
  0.00000000E+00  0.00000000E+00  0.00000000E+00
  0.00000000E+00  0.00000000E+00  0.00000000E+00
  0.00000000E+00  0.00000000E+00  0.00000000E+00
  0.00000000E+00  0.00000000E+00  0.00000000E+00
  0.00000000E+00  0.00000000E+00  0.00000000E+00
  0.00000000E+00  0.00000000E+00  0.00000000E+00
  0.00000000E+00  0.00000000E+00  0.00000000E+00
  0.00000000E+00  0.00000000E+00  0.00000000E+00
  0.00000000E+00  0.00000000E+00  0.00000000E+00
  0.00000000E+00  0.00000000E+00  0.00000000E+00
  0.00000000E+00  0.00000000E+00  0.00000000E+00
  0.00000000E+00  0.00000000E+00  0.00000000E+00
  0.00000000E+00  0.00000000E+00  0.00000000E+00
  0.00000000E+00  0.00000000E+00  0.00000000E+00
  0.00000000E+00  0.00000000E+00  0.00000000E+00
