CONTCAR\(3)                             
   1.00000000000000     
    12.3312997818000003    0.0000000000000000    0.0000000000000000
     0.0001127485000000   12.8291997905000006    0.0000000000000000
     0.0005937186000000    0.0011528207000000   19.9943999824000009
   C    N    Fe   Ni   H 
    53     3     1     1     1
Direct
  0.0564299417452758  0.0547624744854345  0.0514105029219094
  0.1565025827248699  0.1101243963240803  0.0515272899870213
  0.1561467863646276  0.2208615763890849  0.0498238053720566
  0.0564276690666045  0.2763997231338100  0.0482722184922751
  0.2570629385633365  0.0555647788452670  0.0537887670050480
  0.3572706011015943  0.1117895694110934  0.0569072500104293
  0.3566564081637984  0.2234690305045598  0.0559225779366642
  0.2556185594280698  0.2764003217508490  0.0508571267698062
  0.4571896893956570  0.0564907364269362  0.0610082623437303
  0.5569762537122681  0.1141955558513798  0.0633353067138564
  0.5569178226390741  0.2278892763024681  0.0638339352345146
  0.4549393665205333  0.2833940798713171  0.0601733056920094
  0.6565039511485307  0.0536616589469671  0.0628333989861504
  0.7559780837124650  0.1107205317672104  0.0590607183004965
  0.7571075848280406  0.2229063334344971  0.0588215425224818
  0.6594492352042939  0.2842064359271405  0.0642194578955672
  0.8554296227433082  0.0541662377467873  0.0556094475221907
  0.9559449526254185  0.1095264830000786  0.0525752324668613
  0.9567179952215977  0.2206432133444303  0.0510760421473592
  0.8574627420217644  0.2768879304745582  0.0536361586027436
  0.0566178902950987  0.3876681409486037  0.0456641804543154
  0.1553550606191962  0.4434824619483260  0.0450954452910058
  0.1557553848758210  0.5547839549902693  0.0444972415153319
  0.0569232984681191  0.6107423216007458  0.0439366103647041
  0.2541722040965532  0.3868793604068790  0.0483844644948341
  0.3524753977296578  0.4412307771136174  0.0533723427472038
  0.3532754429481009  0.5537299693811626  0.0551337699713592
  0.2546805300472023  0.6102736541191155  0.0486428752856597
  0.7610295804916467  0.4445390383071308  0.0587851631864170
  0.8589385397083493  0.3880627382668379  0.0515626185322582
  0.9576338156541561  0.4439297438759488  0.0463748806592518
  0.9580156332097187  0.5549965837264329  0.0454083746106746
  0.8583900984054560  0.6100361699825326  0.0501481101405253
  0.0568802575287427  0.7219157392308326  0.0456617092177099
  0.1557939231400049  0.7775454864929477  0.0477689238541042
  0.1565897130296734  0.8887291152710035  0.0501125804260428
  0.0566467030811231  0.9441150284533898  0.0505171152141552
  0.2549516311223827  0.7214177409968753  0.0500355659236498
  0.3537537544685804  0.7765446664407843  0.0567075976098555
  0.3562108677206803  0.8882757528406972  0.0573972275787774
  0.2566936526506595  0.9442507671991924  0.0533988417871603
  0.4512056705965367  0.7186727296519992  0.0669115816304020
  0.5547164874845453  0.8851453370585489  0.0679788511285871
  0.4563594500776024  0.9441673295722226  0.0622653004690137
  0.7572888622524664  0.8827294118861317  0.0597561977284421
  0.6564351091690606  0.9406218359988695  0.0645121838754490
  0.8587976255680999  0.7233990396473152  0.0513688442490252
  0.9575957829186637  0.7781039156604369  0.0484389746915314
  0.9568051180878806  0.8887638850952142  0.0510652055912351
  0.8557198078619122  0.9420488957173367  0.0552873791168876
  0.4513976285681730  0.6057254717146259  0.0668286239787430
  0.7598093284568408  0.5565350150594991  0.0580816034548522
  0.5496809048728387  0.7754059137910417  0.0752622195965873
  0.4492851000072829  0.3912725957089876  0.0598569113802279
  0.6650182099144463  0.3908511482363209  0.0678529801741975
  0.7613927851181084  0.7736805097902070  0.0583690074427250
  0.6498036259596720  0.6630948596214717  0.0784075655282298
  0.5567814938103659  0.4981601874386302  0.0775416057180010
  0.6059207140534323  0.5710923588198541  0.1330169804577040
 
  0.00000000E+00  0.00000000E+00  0.00000000E+00
  0.00000000E+00  0.00000000E+00  0.00000000E+00
  0.00000000E+00  0.00000000E+00  0.00000000E+00
  0.00000000E+00  0.00000000E+00  0.00000000E+00
  0.00000000E+00  0.00000000E+00  0.00000000E+00
  0.00000000E+00  0.00000000E+00  0.00000000E+00
  0.00000000E+00  0.00000000E+00  0.00000000E+00
  0.00000000E+00  0.00000000E+00  0.00000000E+00
  0.00000000E+00  0.00000000E+00  0.00000000E+00
  0.00000000E+00  0.00000000E+00  0.00000000E+00
  0.00000000E+00  0.00000000E+00  0.00000000E+00
  0.00000000E+00  0.00000000E+00  0.00000000E+00
  0.00000000E+00  0.00000000E+00  0.00000000E+00
  0.00000000E+00  0.00000000E+00  0.00000000E+00
  0.00000000E+00  0.00000000E+00  0.00000000E+00
  0.00000000E+00  0.00000000E+00  0.00000000E+00
  0.00000000E+00  0.00000000E+00  0.00000000E+00
  0.00000000E+00  0.00000000E+00  0.00000000E+00
  0.00000000E+00  0.00000000E+00  0.00000000E+00
  0.00000000E+00  0.00000000E+00  0.00000000E+00
  0.00000000E+00  0.00000000E+00  0.00000000E+00
  0.00000000E+00  0.00000000E+00  0.00000000E+00
  0.00000000E+00  0.00000000E+00  0.00000000E+00
  0.00000000E+00  0.00000000E+00  0.00000000E+00
  0.00000000E+00  0.00000000E+00  0.00000000E+00
  0.00000000E+00  0.00000000E+00  0.00000000E+00
  0.00000000E+00  0.00000000E+00  0.00000000E+00
  0.00000000E+00  0.00000000E+00  0.00000000E+00
  0.00000000E+00  0.00000000E+00  0.00000000E+00
  0.00000000E+00  0.00000000E+00  0.00000000E+00
  0.00000000E+00  0.00000000E+00  0.00000000E+00
  0.00000000E+00  0.00000000E+00  0.00000000E+00
  0.00000000E+00  0.00000000E+00  0.00000000E+00
  0.00000000E+00  0.00000000E+00  0.00000000E+00
  0.00000000E+00  0.00000000E+00  0.00000000E+00
  0.00000000E+00  0.00000000E+00  0.00000000E+00
  0.00000000E+00  0.00000000E+00  0.00000000E+00
  0.00000000E+00  0.00000000E+00  0.00000000E+00
  0.00000000E+00  0.00000000E+00  0.00000000E+00
  0.00000000E+00  0.00000000E+00  0.00000000E+00
  0.00000000E+00  0.00000000E+00  0.00000000E+00
  0.00000000E+00  0.00000000E+00  0.00000000E+00
  0.00000000E+00  0.00000000E+00  0.00000000E+00
  0.00000000E+00  0.00000000E+00  0.00000000E+00
  0.00000000E+00  0.00000000E+00  0.00000000E+00
  0.00000000E+00  0.00000000E+00  0.00000000E+00
  0.00000000E+00  0.00000000E+00  0.00000000E+00
  0.00000000E+00  0.00000000E+00  0.00000000E+00
  0.00000000E+00  0.00000000E+00  0.00000000E+00
  0.00000000E+00  0.00000000E+00  0.00000000E+00
  0.00000000E+00  0.00000000E+00  0.00000000E+00
  0.00000000E+00  0.00000000E+00  0.00000000E+00
  0.00000000E+00  0.00000000E+00  0.00000000E+00
  0.00000000E+00  0.00000000E+00  0.00000000E+00
  0.00000000E+00  0.00000000E+00  0.00000000E+00
  0.00000000E+00  0.00000000E+00  0.00000000E+00
  0.00000000E+00  0.00000000E+00  0.00000000E+00
  0.00000000E+00  0.00000000E+00  0.00000000E+00
  0.00000000E+00  0.00000000E+00  0.00000000E+00
