CONTCAR\(4)                             
   1.00000000000000     
    12.3312997818000003    0.0000000000000000    0.0000000000000000
     0.0001127485000000   12.8291997905000006    0.0000000000000000
     0.0005937186000000    0.0011528207000000   19.9943999824000009
   C    N    Fe   Ni   O 
    54     2     1     1     2
Direct
  0.0555088529043810  0.0560525963269619  0.0508478636827702
  0.1556304826998542  0.1119122320955371  0.0508362332358717
  0.1564128503938937  0.2228842254579700  0.0507599885366577
  0.0561763909591375  0.2775790642233215  0.0502653766159544
  0.2556809104869769  0.0568799531472808  0.0514098890606019
  0.3562822094634813  0.1120755201061288  0.0539612565665557
  0.3571717222230178  0.2235855909611852  0.0548081887374855
  0.2569015519681758  0.2784341530229330  0.0519243004861172
  0.4557076459588223  0.0556143601587499  0.0562179309716500
  0.5564089138520016  0.1103060890705409  0.0594797404792331
  0.5567720430929710  0.2217816336683025  0.0617976404309599
  0.4574358919331344  0.2800207461617599  0.0592983011061038
  0.6558853143490661  0.0512788792728647  0.0593410327038810
  0.7552815083167628  0.1091382521575548  0.0574076803987041
  0.7561055409258250  0.2213820659262515  0.0579522311137704
  0.6568818275045333  0.2789339769533454  0.0631184928495880
  0.8548697249698957  0.0536229006295188  0.0545935810658527
  0.9550181338125405  0.1103150127772913  0.0523326682207085
  0.9557627038728869  0.2217826863315341  0.0519676982819423
  0.8559184716770313  0.2774279569499852  0.0543208795362564
  0.0570371037976179  0.3888249302292303  0.0491449017969131
  0.1568177526614940  0.4443904911810280  0.0489154111493959
  0.1574195729124809  0.5557615935811656  0.0481233946473670
  0.0574368547620012  0.6108316858103630  0.0475079506829613
  0.2572548014062534  0.3894988051489923  0.0509446179663475
  0.3572972554645805  0.4452614315000663  0.0537671246881302
  0.3590606710861659  0.5585700302391881  0.0527501551374977
  0.2571105350500189  0.6121337832611657  0.0492320275884008
  0.7573871877364357  0.4468523603950251  0.0587352158782956
  0.8568339914291078  0.3892383948863709  0.0532804101378814
  0.9569348922586683  0.4443478137053180  0.0496727651198636
  0.9577290442283609  0.5552154482228067  0.0487721684356626
  0.8575383785809763  0.6105329053936113  0.0515590291090283
  0.0563752457144298  0.7220615422678859  0.0477495719612388
  0.1547381934492194  0.7783891816743054  0.0476670334151882
  0.1549460141560372  0.8897224790732626  0.0487352941525043
  0.0552524419529375  0.9450799607310771  0.0499789409283974
  0.2542735237417641  0.7228863338244336  0.0483618476075404
  0.3520256324478230  0.7796988310541419  0.0505433914817197
  0.3537703876078140  0.8902719505476095  0.0514900329410070
  0.2544708428765184  0.9459443158362971  0.0501006340975117
  0.4507185601376810  0.7246698411287062  0.0561876433854229
  0.5521437806897553  0.8849498997607805  0.0591185492321148
  0.4541140750741436  0.9444634164311095  0.0552630867443551
  0.7561125256461759  0.8816157135643931  0.0575758828489786
  0.6553301885997346  0.9384369769195158  0.0596751156909713
  0.8581641283474212  0.7231741900122257  0.0521762247478243
  0.9568423716241982  0.7781088991560386  0.0498414412840957
  0.9558943960044323  0.8888543539904163  0.0512344314698192
  0.8547911221967593  0.9415506391487438  0.0544311278688550
  0.4565332178221800  0.3912398491081631  0.0604506660862530
  0.4585154807978933  0.6139248609278012  0.0583069610251317
  0.6592846088423068  0.3886887162995845  0.0684013351681482
  0.7576861431557811  0.5585762104933516  0.0573335410696678
  0.5461079117105655  0.7796148061742896  0.0612041631130715
  0.7603408339044592  0.7728942450377546  0.0569486994967650
  0.6454781980734432  0.6660775540365028  0.0711180505914501
  0.5594123946319161  0.4892194313822105  0.0882089294111726
  0.6415428618581400  0.6500063046062470  0.1589016533107348
  0.6120939731979042  0.5473019918598127  0.1697596104516277
 
  0.00000000E+00  0.00000000E+00  0.00000000E+00
  0.00000000E+00  0.00000000E+00  0.00000000E+00
  0.00000000E+00  0.00000000E+00  0.00000000E+00
  0.00000000E+00  0.00000000E+00  0.00000000E+00
  0.00000000E+00  0.00000000E+00  0.00000000E+00
  0.00000000E+00  0.00000000E+00  0.00000000E+00
  0.00000000E+00  0.00000000E+00  0.00000000E+00
  0.00000000E+00  0.00000000E+00  0.00000000E+00
  0.00000000E+00  0.00000000E+00  0.00000000E+00
  0.00000000E+00  0.00000000E+00  0.00000000E+00
  0.00000000E+00  0.00000000E+00  0.00000000E+00
  0.00000000E+00  0.00000000E+00  0.00000000E+00
  0.00000000E+00  0.00000000E+00  0.00000000E+00
  0.00000000E+00  0.00000000E+00  0.00000000E+00
  0.00000000E+00  0.00000000E+00  0.00000000E+00
  0.00000000E+00  0.00000000E+00  0.00000000E+00
  0.00000000E+00  0.00000000E+00  0.00000000E+00
  0.00000000E+00  0.00000000E+00  0.00000000E+00
  0.00000000E+00  0.00000000E+00  0.00000000E+00
  0.00000000E+00  0.00000000E+00  0.00000000E+00
  0.00000000E+00  0.00000000E+00  0.00000000E+00
  0.00000000E+00  0.00000000E+00  0.00000000E+00
  0.00000000E+00  0.00000000E+00  0.00000000E+00
  0.00000000E+00  0.00000000E+00  0.00000000E+00
  0.00000000E+00  0.00000000E+00  0.00000000E+00
  0.00000000E+00  0.00000000E+00  0.00000000E+00
  0.00000000E+00  0.00000000E+00  0.00000000E+00
  0.00000000E+00  0.00000000E+00  0.00000000E+00
  0.00000000E+00  0.00000000E+00  0.00000000E+00
  0.00000000E+00  0.00000000E+00  0.00000000E+00
  0.00000000E+00  0.00000000E+00  0.00000000E+00
  0.00000000E+00  0.00000000E+00  0.00000000E+00
  0.00000000E+00  0.00000000E+00  0.00000000E+00
  0.00000000E+00  0.00000000E+00  0.00000000E+00
  0.00000000E+00  0.00000000E+00  0.00000000E+00
  0.00000000E+00  0.00000000E+00  0.00000000E+00
  0.00000000E+00  0.00000000E+00  0.00000000E+00
  0.00000000E+00  0.00000000E+00  0.00000000E+00
  0.00000000E+00  0.00000000E+00  0.00000000E+00
  0.00000000E+00  0.00000000E+00  0.00000000E+00
  0.00000000E+00  0.00000000E+00  0.00000000E+00
  0.00000000E+00  0.00000000E+00  0.00000000E+00
  0.00000000E+00  0.00000000E+00  0.00000000E+00
  0.00000000E+00  0.00000000E+00  0.00000000E+00
  0.00000000E+00  0.00000000E+00  0.00000000E+00
  0.00000000E+00  0.00000000E+00  0.00000000E+00
  0.00000000E+00  0.00000000E+00  0.00000000E+00
  0.00000000E+00  0.00000000E+00  0.00000000E+00
  0.00000000E+00  0.00000000E+00  0.00000000E+00
  0.00000000E+00  0.00000000E+00  0.00000000E+00
  0.00000000E+00  0.00000000E+00  0.00000000E+00
  0.00000000E+00  0.00000000E+00  0.00000000E+00
  0.00000000E+00  0.00000000E+00  0.00000000E+00
  0.00000000E+00  0.00000000E+00  0.00000000E+00
  0.00000000E+00  0.00000000E+00  0.00000000E+00
  0.00000000E+00  0.00000000E+00  0.00000000E+00
  0.00000000E+00  0.00000000E+00  0.00000000E+00
  0.00000000E+00  0.00000000E+00  0.00000000E+00
  0.00000000E+00  0.00000000E+00  0.00000000E+00
  0.00000000E+00  0.00000000E+00  0.00000000E+00
