CONTCAR\(4)                             
   1.00000000000000     
    12.3312997818000003    0.0000000000000000    0.0000000000000000
     0.0001127485000000   12.8291997905000006    0.0000000000000000
     0.0005937186000000    0.0011528207000000   19.9943999824000009
   C    N    Fe   Ni   O 
    54     2     1     1     2
Direct
  0.0552686108557464  0.0539952535707644  0.0484653916418229
  0.1554661804016292  0.1095295679212586  0.0489159698598629
  0.1559497643136486  0.2204463279485647  0.0483482727174445
  0.0563900736734837  0.2756162750559858  0.0470554656544633
  0.2557551771117316  0.0553413682608810  0.0507957546380461
  0.3560269169070110  0.1115969924364483  0.0539459270543143
  0.3562926619083130  0.2232681135788520  0.0542362639449481
  0.2555896651180948  0.2764595113992156  0.0503476143458581
  0.4555071835122235  0.0563608517828953  0.0573205660010092
  0.5551942229577045  0.1135705559828428  0.0599218000437351
  0.5558103943484595  0.2257868650999848  0.0617614884228121
  0.4551444225892863  0.2819547355170357  0.0589976968253947
  0.6550633373297343  0.0547075763108089  0.0589101256957365
  0.7553727909474462  0.1105605184762596  0.0552079380027188
  0.7562879600510660  0.2223732177229058  0.0552100402743556
  0.6578670746770755  0.2819949131233085  0.0621391955505346
  0.8545480970323598  0.0536152872129937  0.0520178140246723
  0.9551219285571371  0.1091358057932362  0.0493403919843340
  0.9560564476019220  0.2203042304899763  0.0485541966648285
  0.8566509877715032  0.2765096881612052  0.0507973015447427
  0.0578151135648398  0.3867512594666019  0.0459444492085697
  0.1564718663486449  0.4432039180760696  0.0467814627139646
  0.1566640572460080  0.5546414938455365  0.0465401391159796
  0.0572143709929611  0.6099451413435026  0.0457108982828997
  0.2557710720999036  0.3872265641102080  0.0495756506711233
  0.3550058774079582  0.4419800657791992  0.0540169739247572
  0.3567103543285476  0.5550604832965005  0.0551705081373459
  0.2561487875666890  0.6101350736572104  0.0494178695224836
  0.7617809044290788  0.4463185796920712  0.0557732548849888
  0.8591462674170850  0.3877198869592182  0.0494903917817169
  0.9585590195514497  0.4423300997206339  0.0462403618759075
  0.9586529384686688  0.5529662418273463  0.0463172297794156
  0.8582199986180418  0.6062010394576737  0.0486706050107276
  0.0555951741217572  0.7211875686478916  0.0461803866944943
  0.1545974957695849  0.7768686232491132  0.0473284866330390
  0.1549680567168130  0.8883033579849855  0.0480973439404045
  0.0547528505227161  0.9429526741290334  0.0481242462103754
  0.2543913414907270  0.7212960719887047  0.0495285831021923
  0.3528814746329457  0.7774034654398174  0.0538768621197289
  0.3546744254470884  0.8887850667107153  0.0537041662689538
  0.2549812742613439  0.9442539783171390  0.0503563795359893
  0.4512360062610683  0.7207493257471390  0.0628616130379462
  0.5538556329685632  0.8872234563015655  0.0623194883656421
  0.4545669043684316  0.9444941052120148  0.0578790419966319
  0.7537696950011142  0.8840141594680457  0.0562285627316684
  0.6547489779161531  0.9431369053608393  0.0599595259012352
  0.8553620582140942  0.7196471042453855  0.0495338460877568
  0.9550142131557099  0.7757984378834644  0.0475760158074259
  0.9543964766496289  0.8869582519690045  0.0489799107242863
  0.8538262860792921  0.9414151651595762  0.0521913700657757
  0.6635119970788459  0.3913452636385347  0.0682100888780694
  0.5493258722667983  0.7780645549614462  0.0670300422454762
  0.7549050446210275  0.7719729227603596  0.0553617415301438
  0.4553885596915234  0.6083199256383958  0.0657396958605675
  0.4516052196512043  0.3905407308618209  0.0596834775532125
  0.7635506105321752  0.5538721432606283  0.0524935736826862
  0.6447939897962514  0.6661631740311065  0.0695347776462865
  0.5568801428129153  0.4872127180487348  0.0888508918322188
  0.6252514150411401  0.5447094911863053  0.1625951444281794
  0.6481243352256141  0.6509037097210363  0.1578357203180887
 
  0.00000000E+00  0.00000000E+00  0.00000000E+00
  0.00000000E+00  0.00000000E+00  0.00000000E+00
  0.00000000E+00  0.00000000E+00  0.00000000E+00
  0.00000000E+00  0.00000000E+00  0.00000000E+00
  0.00000000E+00  0.00000000E+00  0.00000000E+00
  0.00000000E+00  0.00000000E+00  0.00000000E+00
  0.00000000E+00  0.00000000E+00  0.00000000E+00
  0.00000000E+00  0.00000000E+00  0.00000000E+00
  0.00000000E+00  0.00000000E+00  0.00000000E+00
  0.00000000E+00  0.00000000E+00  0.00000000E+00
  0.00000000E+00  0.00000000E+00  0.00000000E+00
  0.00000000E+00  0.00000000E+00  0.00000000E+00
  0.00000000E+00  0.00000000E+00  0.00000000E+00
  0.00000000E+00  0.00000000E+00  0.00000000E+00
  0.00000000E+00  0.00000000E+00  0.00000000E+00
  0.00000000E+00  0.00000000E+00  0.00000000E+00
  0.00000000E+00  0.00000000E+00  0.00000000E+00
  0.00000000E+00  0.00000000E+00  0.00000000E+00
  0.00000000E+00  0.00000000E+00  0.00000000E+00
  0.00000000E+00  0.00000000E+00  0.00000000E+00
  0.00000000E+00  0.00000000E+00  0.00000000E+00
  0.00000000E+00  0.00000000E+00  0.00000000E+00
  0.00000000E+00  0.00000000E+00  0.00000000E+00
  0.00000000E+00  0.00000000E+00  0.00000000E+00
  0.00000000E+00  0.00000000E+00  0.00000000E+00
  0.00000000E+00  0.00000000E+00  0.00000000E+00
  0.00000000E+00  0.00000000E+00  0.00000000E+00
  0.00000000E+00  0.00000000E+00  0.00000000E+00
  0.00000000E+00  0.00000000E+00  0.00000000E+00
  0.00000000E+00  0.00000000E+00  0.00000000E+00
  0.00000000E+00  0.00000000E+00  0.00000000E+00
  0.00000000E+00  0.00000000E+00  0.00000000E+00
  0.00000000E+00  0.00000000E+00  0.00000000E+00
  0.00000000E+00  0.00000000E+00  0.00000000E+00
  0.00000000E+00  0.00000000E+00  0.00000000E+00
  0.00000000E+00  0.00000000E+00  0.00000000E+00
  0.00000000E+00  0.00000000E+00  0.00000000E+00
  0.00000000E+00  0.00000000E+00  0.00000000E+00
  0.00000000E+00  0.00000000E+00  0.00000000E+00
  0.00000000E+00  0.00000000E+00  0.00000000E+00
  0.00000000E+00  0.00000000E+00  0.00000000E+00
  0.00000000E+00  0.00000000E+00  0.00000000E+00
  0.00000000E+00  0.00000000E+00  0.00000000E+00
  0.00000000E+00  0.00000000E+00  0.00000000E+00
  0.00000000E+00  0.00000000E+00  0.00000000E+00
  0.00000000E+00  0.00000000E+00  0.00000000E+00
  0.00000000E+00  0.00000000E+00  0.00000000E+00
  0.00000000E+00  0.00000000E+00  0.00000000E+00
  0.00000000E+00  0.00000000E+00  0.00000000E+00
  0.00000000E+00  0.00000000E+00  0.00000000E+00
  0.00000000E+00  0.00000000E+00  0.00000000E+00
  0.00000000E+00  0.00000000E+00  0.00000000E+00
  0.00000000E+00  0.00000000E+00  0.00000000E+00
  0.00000000E+00  0.00000000E+00  0.00000000E+00
  0.00000000E+00  0.00000000E+00  0.00000000E+00
  0.00000000E+00  0.00000000E+00  0.00000000E+00
  0.00000000E+00  0.00000000E+00  0.00000000E+00
  0.00000000E+00  0.00000000E+00  0.00000000E+00
  0.00000000E+00  0.00000000E+00  0.00000000E+00
  0.00000000E+00  0.00000000E+00  0.00000000E+00
