CONTCAR\(2)                             
   1.00000000000000     
    12.3312997818000003    0.0000000000000000    0.0000000000000000
     0.0001127485000000   12.8291997905000006    0.0000000000000000
     0.0005937186000000    0.0011528207000000   19.9943999824000009
   C    N    Fe   Ni   O    H 
    53     3     1     1     2     2
Direct
  0.0560549359635565  0.0513203181310169  0.0457159784686254
  0.1566249854750414  0.1067603593154230  0.0447917030172905
  0.1568945704602469  0.2179537533135641  0.0435666785720904
  0.0568047544353940  0.2729206366451255  0.0441797888203003
  0.2572332524575441  0.0520715994259352  0.0462276856871713
  0.3575920661444846  0.1086688704299981  0.0492110685081411
  0.3579524627226932  0.2208619946766273  0.0475312369266103
  0.2567466990728838  0.2744556821633874  0.0432268425162235
  0.4571896327539042  0.0529461690996749  0.0544825722496028
  0.5570578210338952  0.1105640591332916  0.0586498056382676
  0.5579042966772025  0.2233951514418089  0.0582756764824514
  0.4577612452077067  0.2796331379247639  0.0515643721771253
  0.6557007330401977  0.0510518861801090  0.0608661669658986
  0.7557428399738115  0.1074831812346954  0.0575638090895522
  0.7569506925831352  0.2197042449416269  0.0575886455606149
  0.6594165384821682  0.2803305680204823  0.0613740550567748
  0.8555194855305048  0.0517052476762892  0.0530222367839659
  0.9560413743941550  0.1066333127933349  0.0487099422361566
  0.9568726971411422  0.2174983379995375  0.0482839114607414
  0.8575308245417176  0.2731782658324428  0.0527699651005483
  0.0565686288780818  0.3839940175652253  0.0421847041507776
  0.1550440047723688  0.4403794831049266  0.0397315333567286
  0.1539205463087287  0.5518922438885500  0.0387283367299029
  0.0546945901667582  0.6071639746088091  0.0394415731577471
  0.2548869656202690  0.3854516297812258  0.0410154214055088
  0.3535722339346967  0.4423073476933859  0.0431547460040169
  0.3521295526283975  0.5545546369557225  0.0451332087179448
  0.2527931971065935  0.6088473330431606  0.0407656357897938
  0.7610585036030251  0.4416530144254013  0.0589824898399648
  0.8586273206923641  0.3840517817647247  0.0519001229067811
  0.9571192273889064  0.4395652607658023  0.0451934432054498
  0.9556023465988301  0.5502368513090661  0.0436203414659005
  0.8545472404769586  0.6021378803084282  0.0504074002684490
  0.0547167593331718  0.7184723406528687  0.0396675748164798
  0.1542627342702604  0.7747307361967624  0.0405086040998507
  0.1555944302665318  0.8856712917884348  0.0427784868834092
  0.0552955046409700  0.9402103012630649  0.0443962295842068
  0.2539551539887607  0.7192577086790379  0.0422458609057215
  0.3548371535497629  0.7724433958951983  0.0483099502336770
  0.3564237969183475  0.8844291732294171  0.0497118117906230
  0.2565598644994897  0.9405964641824066  0.0457183795981873
  0.4524718705033157  0.7123042182948403  0.0567279189240654
  0.5539796768617709  0.8809691656370551  0.0639235534704917
  0.4562716782888818  0.9401489759842495  0.0557050659880074
  0.7562155624316155  0.8834381798362905  0.0610394713694205
  0.6550941257521105  0.9390698086638251  0.0640687129561489
  0.8546048003283713  0.7160046105413457  0.0506077809573248
  0.9542245544109957  0.7727195867281458  0.0435842468039323
  0.9548479830061196  0.8842508498284604  0.0464522523327215
  0.8552306338243312  0.9400511171984073  0.0528006816692781
  0.4537341390015602  0.3910404910335514  0.0486208135338894
  0.5502392949218592  0.7693341100743866  0.0698531434635552
  0.7599704343189589  0.7727503934081179  0.0649261645874121
  0.4483708049317565  0.6033796502163945  0.0546745445773441
  0.6636681878729963  0.3881716006951075  0.0652251048638765
  0.7600268873358879  0.5483996963952672  0.0586047696050900
  0.6600998188359084  0.6971533134468355  0.1175689830535696
  0.5549055077954167  0.4890277030726982  0.0729308853262121
  0.6050632630701407  0.5675758002292356  0.1529411624298755
  0.7047486312925203  0.7523658903976694  0.1979576827938561
  0.7038116673663063  0.7011977149606600  0.2340474691700481
  0.5428588961144849  0.5794434448766730  0.1820615968945681
 
  0.00000000E+00  0.00000000E+00  0.00000000E+00
  0.00000000E+00  0.00000000E+00  0.00000000E+00
  0.00000000E+00  0.00000000E+00  0.00000000E+00
  0.00000000E+00  0.00000000E+00  0.00000000E+00
  0.00000000E+00  0.00000000E+00  0.00000000E+00
  0.00000000E+00  0.00000000E+00  0.00000000E+00
  0.00000000E+00  0.00000000E+00  0.00000000E+00
  0.00000000E+00  0.00000000E+00  0.00000000E+00
  0.00000000E+00  0.00000000E+00  0.00000000E+00
  0.00000000E+00  0.00000000E+00  0.00000000E+00
  0.00000000E+00  0.00000000E+00  0.00000000E+00
  0.00000000E+00  0.00000000E+00  0.00000000E+00
  0.00000000E+00  0.00000000E+00  0.00000000E+00
  0.00000000E+00  0.00000000E+00  0.00000000E+00
  0.00000000E+00  0.00000000E+00  0.00000000E+00
  0.00000000E+00  0.00000000E+00  0.00000000E+00
  0.00000000E+00  0.00000000E+00  0.00000000E+00
  0.00000000E+00  0.00000000E+00  0.00000000E+00
  0.00000000E+00  0.00000000E+00  0.00000000E+00
  0.00000000E+00  0.00000000E+00  0.00000000E+00
  0.00000000E+00  0.00000000E+00  0.00000000E+00
  0.00000000E+00  0.00000000E+00  0.00000000E+00
  0.00000000E+00  0.00000000E+00  0.00000000E+00
  0.00000000E+00  0.00000000E+00  0.00000000E+00
  0.00000000E+00  0.00000000E+00  0.00000000E+00
  0.00000000E+00  0.00000000E+00  0.00000000E+00
  0.00000000E+00  0.00000000E+00  0.00000000E+00
  0.00000000E+00  0.00000000E+00  0.00000000E+00
  0.00000000E+00  0.00000000E+00  0.00000000E+00
  0.00000000E+00  0.00000000E+00  0.00000000E+00
  0.00000000E+00  0.00000000E+00  0.00000000E+00
  0.00000000E+00  0.00000000E+00  0.00000000E+00
  0.00000000E+00  0.00000000E+00  0.00000000E+00
  0.00000000E+00  0.00000000E+00  0.00000000E+00
  0.00000000E+00  0.00000000E+00  0.00000000E+00
  0.00000000E+00  0.00000000E+00  0.00000000E+00
  0.00000000E+00  0.00000000E+00  0.00000000E+00
  0.00000000E+00  0.00000000E+00  0.00000000E+00
  0.00000000E+00  0.00000000E+00  0.00000000E+00
  0.00000000E+00  0.00000000E+00  0.00000000E+00
  0.00000000E+00  0.00000000E+00  0.00000000E+00
  0.00000000E+00  0.00000000E+00  0.00000000E+00
  0.00000000E+00  0.00000000E+00  0.00000000E+00
  0.00000000E+00  0.00000000E+00  0.00000000E+00
  0.00000000E+00  0.00000000E+00  0.00000000E+00
  0.00000000E+00  0.00000000E+00  0.00000000E+00
  0.00000000E+00  0.00000000E+00  0.00000000E+00
  0.00000000E+00  0.00000000E+00  0.00000000E+00
  0.00000000E+00  0.00000000E+00  0.00000000E+00
  0.00000000E+00  0.00000000E+00  0.00000000E+00
  0.00000000E+00  0.00000000E+00  0.00000000E+00
  0.00000000E+00  0.00000000E+00  0.00000000E+00
  0.00000000E+00  0.00000000E+00  0.00000000E+00
  0.00000000E+00  0.00000000E+00  0.00000000E+00
  0.00000000E+00  0.00000000E+00  0.00000000E+00
  0.00000000E+00  0.00000000E+00  0.00000000E+00
  0.00000000E+00  0.00000000E+00  0.00000000E+00
  0.00000000E+00  0.00000000E+00  0.00000000E+00
  0.00000000E+00  0.00000000E+00  0.00000000E+00
  0.00000000E+00  0.00000000E+00  0.00000000E+00
  0.00000000E+00  0.00000000E+00  0.00000000E+00
  0.00000000E+00  0.00000000E+00  0.00000000E+00
