CONTCAR\(5)                             
   1.00000000000000     
    12.3312997818000003    0.0000000000000000    0.0000000000000000
     0.0001127485000000   12.8291997905000006    0.0000000000000000
     0.0005937186000000    0.0011528207000000   19.9943999824000009
   C    N    Fe   Ni   O 
    54     2     1     1     2
Direct
  0.0550536047134879  0.0551906415977531  0.0501745138669998
  0.1553368773502949  0.1110100898059676  0.0504625449574115
  0.1563577133196011  0.2219521381366246  0.0504672238533996
  0.0563620221266742  0.2765825345720034  0.0500090928044411
  0.2554951355409235  0.0564466694316163  0.0515815674028505
  0.3560406960703018  0.1119495914472207  0.0541364364230096
  0.3570225488076894  0.2234697968565988  0.0547738471564440
  0.2566516151074728  0.2779121232738654  0.0519611636496323
  0.4556209892851514  0.0560541031081190  0.0565168600286106
  0.5559756334221776  0.1117944514998871  0.0591012565213653
  0.5569065429605499  0.2233633577833174  0.0612120329408829
  0.4571537164635543  0.2805674119940377  0.0591795475638018
  0.6549261578487716  0.0526984262729620  0.0585006880164612
  0.7549039150261433  0.1097472292895532  0.0561032699294919
  0.7559211686862770  0.2220645812556983  0.0565068510592607
  0.6574010655491735  0.2810731717472523  0.0618894174589905
  0.8544278489319549  0.0535955905964676  0.0534057302108023
  0.9547460942437659  0.1099049036752562  0.0513579523291622
  0.9557805085927114  0.2212703229033831  0.0511848733833367
  0.8560440053737699  0.2771489530414480  0.0532771213627553
  0.0577123477975066  0.3876491866089487  0.0495313098709407
  0.1568496796004861  0.4439684323452242  0.0497980502096055
  0.1572458305886331  0.5555323661532622  0.0494803152777684
  0.0575791839910938  0.6104411794174229  0.0488099555963741
  0.2569590175550430  0.3890721060368262  0.0514871819917276
  0.3564910343954197  0.4452117544531433  0.0546188438778793
  0.3581289884644041  0.5585311808093463  0.0543422829617759
  0.2566595838260540  0.6120812265931141  0.0507993225305496
  0.7595710481253729  0.4476769494859335  0.0576519862542577
  0.8577487890118279  0.3887963969503599  0.0526600968561420
  0.9580749314215181  0.4428701385130103  0.0501218721491862
  0.9587808864997583  0.5533542861090531  0.0498414677669953
  0.8586156700735161  0.6067418755013176  0.0520760412430426
  0.0562439661077330  0.7217692174775736  0.0486944891920458
  0.1546388013165476  0.7780988861194964  0.0488618580335584
  0.1544830529127061  0.8894241121666708  0.0492967589728974
  0.0544032734976583  0.9440664366195417  0.0496300872613758
  0.2542894664625044  0.7228481398203221  0.0500393799985556
  0.3523320548629124  0.7794923999933561  0.0522351090713194
  0.3536244533124815  0.8902358301733027  0.0527545783555469
  0.2541578544826982  0.9456015095299425  0.0508436859303223
  0.4510562351546311  0.7241364393069617  0.0579577683759068
  0.5522058252615356  0.8854319017327943  0.0595708342077053
  0.4539045218166441  0.9445517892781290  0.0561634734515024
  0.7538926502909464  0.8828807029221514  0.0564525476458142
  0.6541810439461204  0.9405214222143170  0.0589804510633168
  0.8572650539486698  0.7197576207332793  0.0517138056541647
  0.9560490678330668  0.7762815434122318  0.0497428907721207
  0.9545550874658509  0.8875404151745095  0.0505370846123618
  0.8537463096992596  0.9413997079666515  0.0532522267727717
  0.4556808333595727  0.3916539856137708  0.0607881358751963
  0.4577522577880600  0.6129529794704426  0.0605760176424937
  0.6600640734681323  0.3915919589562427  0.0675318684051543
  0.7569115495009953  0.7711485994183737  0.0561152863889457
  0.7624877881257841  0.5559300386699469  0.0561009096055086
  0.5469026617712286  0.7792121133182186  0.0618159807022962
  0.6464678709638996  0.6692417470124419  0.0692543763567822
  0.5572146100201523  0.4885742384076378  0.0900295934693848
  0.6437502855104239  0.6570879527886554  0.1572030361197645
  0.6178044053487294  0.5527552044370603  0.1666270495578273
 
  0.00000000E+00  0.00000000E+00  0.00000000E+00
  0.00000000E+00  0.00000000E+00  0.00000000E+00
  0.00000000E+00  0.00000000E+00  0.00000000E+00
  0.00000000E+00  0.00000000E+00  0.00000000E+00
  0.00000000E+00  0.00000000E+00  0.00000000E+00
  0.00000000E+00  0.00000000E+00  0.00000000E+00
  0.00000000E+00  0.00000000E+00  0.00000000E+00
  0.00000000E+00  0.00000000E+00  0.00000000E+00
  0.00000000E+00  0.00000000E+00  0.00000000E+00
  0.00000000E+00  0.00000000E+00  0.00000000E+00
  0.00000000E+00  0.00000000E+00  0.00000000E+00
  0.00000000E+00  0.00000000E+00  0.00000000E+00
  0.00000000E+00  0.00000000E+00  0.00000000E+00
  0.00000000E+00  0.00000000E+00  0.00000000E+00
  0.00000000E+00  0.00000000E+00  0.00000000E+00
  0.00000000E+00  0.00000000E+00  0.00000000E+00
  0.00000000E+00  0.00000000E+00  0.00000000E+00
  0.00000000E+00  0.00000000E+00  0.00000000E+00
  0.00000000E+00  0.00000000E+00  0.00000000E+00
  0.00000000E+00  0.00000000E+00  0.00000000E+00
  0.00000000E+00  0.00000000E+00  0.00000000E+00
  0.00000000E+00  0.00000000E+00  0.00000000E+00
  0.00000000E+00  0.00000000E+00  0.00000000E+00
  0.00000000E+00  0.00000000E+00  0.00000000E+00
  0.00000000E+00  0.00000000E+00  0.00000000E+00
  0.00000000E+00  0.00000000E+00  0.00000000E+00
  0.00000000E+00  0.00000000E+00  0.00000000E+00
  0.00000000E+00  0.00000000E+00  0.00000000E+00
  0.00000000E+00  0.00000000E+00  0.00000000E+00
  0.00000000E+00  0.00000000E+00  0.00000000E+00
  0.00000000E+00  0.00000000E+00  0.00000000E+00
  0.00000000E+00  0.00000000E+00  0.00000000E+00
  0.00000000E+00  0.00000000E+00  0.00000000E+00
  0.00000000E+00  0.00000000E+00  0.00000000E+00
  0.00000000E+00  0.00000000E+00  0.00000000E+00
  0.00000000E+00  0.00000000E+00  0.00000000E+00
  0.00000000E+00  0.00000000E+00  0.00000000E+00
  0.00000000E+00  0.00000000E+00  0.00000000E+00
  0.00000000E+00  0.00000000E+00  0.00000000E+00
  0.00000000E+00  0.00000000E+00  0.00000000E+00
  0.00000000E+00  0.00000000E+00  0.00000000E+00
  0.00000000E+00  0.00000000E+00  0.00000000E+00
  0.00000000E+00  0.00000000E+00  0.00000000E+00
  0.00000000E+00  0.00000000E+00  0.00000000E+00
  0.00000000E+00  0.00000000E+00  0.00000000E+00
  0.00000000E+00  0.00000000E+00  0.00000000E+00
  0.00000000E+00  0.00000000E+00  0.00000000E+00
  0.00000000E+00  0.00000000E+00  0.00000000E+00
  0.00000000E+00  0.00000000E+00  0.00000000E+00
  0.00000000E+00  0.00000000E+00  0.00000000E+00
  0.00000000E+00  0.00000000E+00  0.00000000E+00
  0.00000000E+00  0.00000000E+00  0.00000000E+00
  0.00000000E+00  0.00000000E+00  0.00000000E+00
  0.00000000E+00  0.00000000E+00  0.00000000E+00
  0.00000000E+00  0.00000000E+00  0.00000000E+00
  0.00000000E+00  0.00000000E+00  0.00000000E+00
  0.00000000E+00  0.00000000E+00  0.00000000E+00
  0.00000000E+00  0.00000000E+00  0.00000000E+00
  0.00000000E+00  0.00000000E+00  0.00000000E+00
  0.00000000E+00  0.00000000E+00  0.00000000E+00
