CONTCAR\(4)                             
   1.00000000000000     
    12.3312997818000003    0.0000000000000000    0.0000000000000000
     0.0001127485000000   12.8291997905000006    0.0000000000000000
     0.0005937186000000    0.0011528207000000   19.9943999824000009
   C    N    Fe   Ni   H 
    52     4     1     1     1
Direct
  0.0557915899024967  0.0544551561658370  0.0513132758432977
  0.1563373384735031  0.1100153097832062  0.0508116963988300
  0.1566532724409124  0.2206526038906974  0.0491925530182585
  0.0563085932349298  0.2756882267562729  0.0488116508255634
  0.2571121856397275  0.0555446220053774  0.0526261263697566
  0.3576248100213498  0.1113332772282659  0.0554157200643180
  0.3579310244441583  0.2233236194670851  0.0540493394975679
  0.2566824312269209  0.2765437953305855  0.0493727071722690
  0.4576878948930475  0.0552724294804546  0.0595511760578758
  0.5581615672594331  0.1123628028223943  0.0628088332207995
  0.5587524905428793  0.2261803315202156  0.0634911403629080
  0.4575575951631419  0.2825650283998546  0.0580663038073289
  0.6562675290400024  0.0512931771325618  0.0630653465069337
  0.7552489668423196  0.1090505183681990  0.0603452269351657
  0.7565703731840354  0.2222461179232675  0.0608963405754935
  0.6600668436132199  0.2834291953052239  0.0657895438645383
  0.8549905984125307  0.0528914941502286  0.0564699427823647
  0.9554735862089733  0.1088704799409442  0.0532414480716514
  0.9563892808346725  0.2203676720541051  0.0523006802091732
  0.8570348843863462  0.2766451642331482  0.0557487554530874
  0.0564889178568193  0.3869155057437540  0.0466823667223239
  0.1551709432650068  0.4430672693892824  0.0449983546440399
  0.1551298112486882  0.5543947544625594  0.0443858492803371
  0.0565565046207721  0.6102520800679918  0.0449390016147991
  0.2546192061260544  0.3874947621431681  0.0468656156477713
  0.3523545184502163  0.4439200601834941  0.0495494102872518
  0.3524705543108637  0.5563093380276236  0.0506914580312007
  0.2538127420596230  0.6113102063636331  0.0467316580917020
  0.7609194585920724  0.4460452179814398  0.0611290238247974
  0.8586330245134527  0.3880850760390773  0.0539252872964590
  0.9577582955260021  0.4428166363938836  0.0485276777963396
  0.9578913028710959  0.5539049176037455  0.0476470613998605
  0.8590047400290159  0.6077457317431664  0.0527835284314910
  0.0566060841767905  0.7212447945271759  0.0462823777321857
  0.1552566394780837  0.7779038520609485  0.0472864621233165
  0.1557926649299672  0.8887139759835530  0.0494627531946797
  0.0555779078533016  0.9435059234544451  0.0504137485152271
  0.2541715919218541  0.7221002749289391  0.0484190828894745
  0.3531650002001545  0.7770753311395997  0.0539198261887931
  0.3552308598203156  0.8884266007038613  0.0553408534164716
  0.2560344592334483  0.9443534659291167  0.0521370631863022
  0.4505230554753001  0.7194288138234178  0.0610121978913347
  0.5534350287626658  0.8816074669133467  0.0650464196120272
  0.4559474001385065  0.9428684911478846  0.0600784707226429
  0.7567524632353738  0.8805362540648362  0.0596858469514346
  0.6557583939194689  0.9368130469238006  0.0636631064126010
  0.8589175635672115  0.7203211512167341  0.0526471277236615
  0.9572644809798662  0.7761546542091644  0.0494251261371676
  0.9561564826710255  0.8874271150860701  0.0514929737751559
  0.8551559342982589  0.9407339057757653  0.0557640928420683
  0.4529662551622037  0.3937428601217894  0.0555691852083113
  0.4522219706540094  0.6076494840575332  0.0600370999534815
  0.6652900212173631  0.3929834147993544  0.0702173359663986
  0.7619476762314734  0.5552154202831966  0.0604224613722241
  0.5474928298325559  0.7742185850996164  0.0689593312770703
  0.7613360043528403  0.7716269744681321  0.0584236390737351
  0.6510535100702708  0.6657683494485264  0.0723107319291820
  0.5572245816550551  0.4970038302876655  0.0755977261315577
  0.6071180579283214  0.5780034024447903  0.1297008486679168
 
  0.00000000E+00  0.00000000E+00  0.00000000E+00
  0.00000000E+00  0.00000000E+00  0.00000000E+00
  0.00000000E+00  0.00000000E+00  0.00000000E+00
  0.00000000E+00  0.00000000E+00  0.00000000E+00
  0.00000000E+00  0.00000000E+00  0.00000000E+00
  0.00000000E+00  0.00000000E+00  0.00000000E+00
  0.00000000E+00  0.00000000E+00  0.00000000E+00
  0.00000000E+00  0.00000000E+00  0.00000000E+00
  0.00000000E+00  0.00000000E+00  0.00000000E+00
  0.00000000E+00  0.00000000E+00  0.00000000E+00
  0.00000000E+00  0.00000000E+00  0.00000000E+00
  0.00000000E+00  0.00000000E+00  0.00000000E+00
  0.00000000E+00  0.00000000E+00  0.00000000E+00
  0.00000000E+00  0.00000000E+00  0.00000000E+00
  0.00000000E+00  0.00000000E+00  0.00000000E+00
  0.00000000E+00  0.00000000E+00  0.00000000E+00
  0.00000000E+00  0.00000000E+00  0.00000000E+00
  0.00000000E+00  0.00000000E+00  0.00000000E+00
  0.00000000E+00  0.00000000E+00  0.00000000E+00
  0.00000000E+00  0.00000000E+00  0.00000000E+00
  0.00000000E+00  0.00000000E+00  0.00000000E+00
  0.00000000E+00  0.00000000E+00  0.00000000E+00
  0.00000000E+00  0.00000000E+00  0.00000000E+00
  0.00000000E+00  0.00000000E+00  0.00000000E+00
  0.00000000E+00  0.00000000E+00  0.00000000E+00
  0.00000000E+00  0.00000000E+00  0.00000000E+00
  0.00000000E+00  0.00000000E+00  0.00000000E+00
  0.00000000E+00  0.00000000E+00  0.00000000E+00
  0.00000000E+00  0.00000000E+00  0.00000000E+00
  0.00000000E+00  0.00000000E+00  0.00000000E+00
  0.00000000E+00  0.00000000E+00  0.00000000E+00
  0.00000000E+00  0.00000000E+00  0.00000000E+00
  0.00000000E+00  0.00000000E+00  0.00000000E+00
  0.00000000E+00  0.00000000E+00  0.00000000E+00
  0.00000000E+00  0.00000000E+00  0.00000000E+00
  0.00000000E+00  0.00000000E+00  0.00000000E+00
  0.00000000E+00  0.00000000E+00  0.00000000E+00
  0.00000000E+00  0.00000000E+00  0.00000000E+00
  0.00000000E+00  0.00000000E+00  0.00000000E+00
  0.00000000E+00  0.00000000E+00  0.00000000E+00
  0.00000000E+00  0.00000000E+00  0.00000000E+00
  0.00000000E+00  0.00000000E+00  0.00000000E+00
  0.00000000E+00  0.00000000E+00  0.00000000E+00
  0.00000000E+00  0.00000000E+00  0.00000000E+00
  0.00000000E+00  0.00000000E+00  0.00000000E+00
  0.00000000E+00  0.00000000E+00  0.00000000E+00
  0.00000000E+00  0.00000000E+00  0.00000000E+00
  0.00000000E+00  0.00000000E+00  0.00000000E+00
  0.00000000E+00  0.00000000E+00  0.00000000E+00
  0.00000000E+00  0.00000000E+00  0.00000000E+00
  0.00000000E+00  0.00000000E+00  0.00000000E+00
  0.00000000E+00  0.00000000E+00  0.00000000E+00
  0.00000000E+00  0.00000000E+00  0.00000000E+00
  0.00000000E+00  0.00000000E+00  0.00000000E+00
  0.00000000E+00  0.00000000E+00  0.00000000E+00
  0.00000000E+00  0.00000000E+00  0.00000000E+00
  0.00000000E+00  0.00000000E+00  0.00000000E+00
  0.00000000E+00  0.00000000E+00  0.00000000E+00
  0.00000000E+00  0.00000000E+00  0.00000000E+00
