an6                                     
   1.00000000000000     
    12.3312997818000003    0.0000000000000000    0.0000000000000000
     0.0001127485000000   12.8291997905000006    0.0000000000000000
     0.0005937186000000    0.0011528207000000   19.9943999824000009
   C    N    Fe   Ni
    51     5     1     1
Direct
  0.0555033883154394  0.0539161136075947  0.0557752821216064
  0.1560418932876960  0.1097980454146707  0.0557816688753318
  0.1563028341398264  0.2206193109734512  0.0557647145802946
  0.0563925540108548  0.2755238643993788  0.0557487075115790
  0.2565050088596028  0.0556479281422022  0.0557943183457978
  0.3568297247699014  0.1117242115725783  0.0557699023386725
  0.3564681560653512  0.2233860415728911  0.0557501221934485
  0.2558583024065292  0.2770668440984518  0.0557626592970698
  0.4572684153428775  0.0564544991071680  0.0557325543195340
  0.5566559189925908  0.1145273898999496  0.0556841952353709
  0.5575328810952929  0.2293192753369901  0.0556684288093411
  0.4549227241034400  0.2841061476969435  0.0556916076802900
  0.6543014562820174  0.0532435736626569  0.0556801244690808
  0.7544071013954345  0.1100900152414192  0.0557070498192406
  0.7558426236179050  0.2230038086673680  0.0557101607209814
  0.6590479524802431  0.2854874421747935  0.0556674675288476
  0.8542954269411203  0.0529920470760466  0.0557141592154501
  0.9550002916482534  0.1085929273599465  0.0557428153886373
  0.9561677642424045  0.2200522597803643  0.0557427158389512
  0.8571430429011839  0.2764944333556859  0.0557292494363455
  0.0577771094065599  0.3863427693662465  0.0557447484999430
  0.1563596683310134  0.4433363956754626  0.0557669697858554
  0.1568270779913385  0.5540359772514938  0.0557763290500465
  0.0582428054048113  0.6100685896202752  0.0557583159401859
  0.2553121612527992  0.3884488603991832  0.0557630262191697
  0.3545528454099005  0.4436502993325975  0.0557316319508998
  0.3555544796377408  0.5566300927504915  0.0557273478513238
  0.2559375329693303  0.6102989407854805  0.0557662755845721
  0.7631142608429748  0.4460264293818829  0.0556666318365131
  0.8603704160128892  0.3876950280831828  0.0557085298458397
  0.9596778167353681  0.4421097069973147  0.0557207799053361
  0.9598986891777372  0.5528594960834531  0.0557078127281228
  0.8609968369688898  0.6063590711299818  0.0556485110848038
  0.0571870466127363  0.7208389251457968  0.0557705930743729
  0.1557012058687262  0.7773344368243056  0.0558006068048921
  0.1556586535662163  0.8883561649892966  0.0558054483159054
  0.0552007660956159  0.9430450856638496  0.0557837825376565
  0.2544057855036621  0.7216480672420377  0.0557818755696194
  0.3528289412377551  0.7773840855513739  0.0557520881371573
  0.3550124776421781  0.8887943324261259  0.0557698185946236
  0.2556534190355244  0.9442663225545541  0.0558027052883383
  0.4505037403024383  0.7198666646028516  0.0556831239536239
  0.5526799377708510  0.8832641082219272  0.0556615679100259
  0.4558423677933309  0.9437295736509660  0.0557266530383781
  0.7541988002701898  0.8811398833886107  0.0556507424665951
  0.6534860236765105  0.9389768775464347  0.0556569744668299
  0.8593835240030216  0.7181901229153955  0.0556469549068980
  0.9575349171628709  0.7753726946443515  0.0557156786036965
  0.9552629076876493  0.8867233264311027  0.0557357227786095
  0.8538748698740799  0.9405388338706085  0.0556906852776000
  0.7584755596437344  0.7691794614296871  0.0556293343408735
  0.4503398619314899  0.3908287277924178  0.0556802909888966
  0.4532674976943895  0.6114420887306742  0.0556702510888818
  0.6659561422041252  0.3950733213060034  0.0556422608911741
  0.7633138491495829  0.5543213436519545  0.0556269594576304
  0.5470630145053390  0.7733563075327058  0.0556298107089698
  0.6469064034262770  0.6636867419019723  0.0556251133314621
  0.5604831693024044  0.5012746139873795  0.0556461554587724
 
  0.00000000E+00  0.00000000E+00  0.00000000E+00
  0.00000000E+00  0.00000000E+00  0.00000000E+00
  0.00000000E+00  0.00000000E+00  0.00000000E+00
  0.00000000E+00  0.00000000E+00  0.00000000E+00
  0.00000000E+00  0.00000000E+00  0.00000000E+00
  0.00000000E+00  0.00000000E+00  0.00000000E+00
  0.00000000E+00  0.00000000E+00  0.00000000E+00
  0.00000000E+00  0.00000000E+00  0.00000000E+00
  0.00000000E+00  0.00000000E+00  0.00000000E+00
  0.00000000E+00  0.00000000E+00  0.00000000E+00
  0.00000000E+00  0.00000000E+00  0.00000000E+00
  0.00000000E+00  0.00000000E+00  0.00000000E+00
  0.00000000E+00  0.00000000E+00  0.00000000E+00
  0.00000000E+00  0.00000000E+00  0.00000000E+00
  0.00000000E+00  0.00000000E+00  0.00000000E+00
  0.00000000E+00  0.00000000E+00  0.00000000E+00
  0.00000000E+00  0.00000000E+00  0.00000000E+00
  0.00000000E+00  0.00000000E+00  0.00000000E+00
  0.00000000E+00  0.00000000E+00  0.00000000E+00
  0.00000000E+00  0.00000000E+00  0.00000000E+00
  0.00000000E+00  0.00000000E+00  0.00000000E+00
  0.00000000E+00  0.00000000E+00  0.00000000E+00
  0.00000000E+00  0.00000000E+00  0.00000000E+00
  0.00000000E+00  0.00000000E+00  0.00000000E+00
  0.00000000E+00  0.00000000E+00  0.00000000E+00
  0.00000000E+00  0.00000000E+00  0.00000000E+00
  0.00000000E+00  0.00000000E+00  0.00000000E+00
  0.00000000E+00  0.00000000E+00  0.00000000E+00
  0.00000000E+00  0.00000000E+00  0.00000000E+00
  0.00000000E+00  0.00000000E+00  0.00000000E+00
  0.00000000E+00  0.00000000E+00  0.00000000E+00
  0.00000000E+00  0.00000000E+00  0.00000000E+00
  0.00000000E+00  0.00000000E+00  0.00000000E+00
  0.00000000E+00  0.00000000E+00  0.00000000E+00
  0.00000000E+00  0.00000000E+00  0.00000000E+00
  0.00000000E+00  0.00000000E+00  0.00000000E+00
  0.00000000E+00  0.00000000E+00  0.00000000E+00
  0.00000000E+00  0.00000000E+00  0.00000000E+00
  0.00000000E+00  0.00000000E+00  0.00000000E+00
  0.00000000E+00  0.00000000E+00  0.00000000E+00
  0.00000000E+00  0.00000000E+00  0.00000000E+00
  0.00000000E+00  0.00000000E+00  0.00000000E+00
  0.00000000E+00  0.00000000E+00  0.00000000E+00
  0.00000000E+00  0.00000000E+00  0.00000000E+00
  0.00000000E+00  0.00000000E+00  0.00000000E+00
  0.00000000E+00  0.00000000E+00  0.00000000E+00
  0.00000000E+00  0.00000000E+00  0.00000000E+00
  0.00000000E+00  0.00000000E+00  0.00000000E+00
  0.00000000E+00  0.00000000E+00  0.00000000E+00
  0.00000000E+00  0.00000000E+00  0.00000000E+00
  0.00000000E+00  0.00000000E+00  0.00000000E+00
  0.00000000E+00  0.00000000E+00  0.00000000E+00
  0.00000000E+00  0.00000000E+00  0.00000000E+00
  0.00000000E+00  0.00000000E+00  0.00000000E+00
  0.00000000E+00  0.00000000E+00  0.00000000E+00
  0.00000000E+00  0.00000000E+00  0.00000000E+00
  0.00000000E+00  0.00000000E+00  0.00000000E+00
  0.00000000E+00  0.00000000E+00  0.00000000E+00
