1h\(2)                                  
   1.00000000000000     
    12.3312997818000003    0.0000000000000000    0.0000000000000000
     0.0001127485000000   12.8291997905000006    0.0000000000000000
     0.0005937186000000    0.0011528207000000   19.9943999824000009
   C    N    Fe   Ni
    52     4     1     1
Direct
  0.0557682018848605  0.0540569716957216  0.0537315881301888
  0.1560318289623240  0.1097475414153580  0.0541838589950257
  0.1559934235064779  0.2204139978076243  0.0534140249820804
  0.0564196595585212  0.2759316275739143  0.0523780640662887
  0.2566577636794391  0.0554549309711020  0.0557926008999714
  0.3569679028011533  0.1115152141483447  0.0573765762058911
  0.3564578284859076  0.2231177197285902  0.0571196651575549
  0.2555515281336267  0.2762566939217935  0.0545910595254069
  0.4573393434629154  0.0565804728628187  0.0591320254766645
  0.5573096257878837  0.1145374896051573  0.0594061493553718
  0.5576920248702270  0.2287964091567161  0.0595789974352396
  0.4547543510230239  0.2835218675738831  0.0593007863256111
  0.6562906225054195  0.0539868833973633  0.0584181669588810
  0.7555808996488883  0.1108384535008716  0.0565523342751518
  0.7566926610680852  0.2233657483978800  0.0563939240757387
  0.6597626620456534  0.2852665438385565  0.0585203017664414
  0.8549093270429172  0.0535537685064783  0.0550109925049907
  0.9555794401566660  0.1089029282090392  0.0538539627563850
  0.9566112235885328  0.2203661981897438  0.0532326837540396
  0.8576145688816417  0.2769421941559479  0.0541533839370688
  0.0573400299531190  0.3872116900811916  0.0515459271442234
  0.1558625141185866  0.4434751341492481  0.0519551265355271
  0.1559922457846517  0.5544577135397855  0.0521940170279074
  0.0570226470345160  0.6105061062265611  0.0514969524586781
  0.2545728366483992  0.3870052651474437  0.0538315373047697
  0.3531111948886034  0.4413677784202801  0.0571035285238180
  0.3545926688654515  0.5541290154277737  0.0577584775760383
  0.2551922203136441  0.6099652106333440  0.0547517687880275
  0.7628419486242541  0.4454969808279432  0.0553346684000444
  0.8603709735293316  0.3880233256317034  0.0532254493281297
  0.9590021280030716  0.4433346547488007  0.0516380073365341
  0.9582880651011568  0.5544157147531441  0.0515545573599492
  0.8582992676849409  0.6079629885582906  0.0527529181232884
  0.0561800301898721  0.7211976991914957  0.0522225739544753
  0.1550964943004335  0.7773148907217188  0.0535979905776403
  0.1559208384333111  0.8883131737053026  0.0542332895063977
  0.0556193049478798  0.9431383987141190  0.0536009603276776
  0.2540742561479489  0.7214376994006398  0.0553249865162838
  0.3524920571256331  0.7773106700139835  0.0583535720526356
  0.3554851695973775  0.8887222261227332  0.0582666531097209
  0.2559453315522511  0.9442268403938270  0.0560245102376064
  0.4505122515141042  0.7196996249586800  0.0620054167898199
  0.5551105174212114  0.8851990702240993  0.0611557893356574
  0.4563912947145236  0.9443266022832405  0.0599026539939443
  0.7562714281294595  0.8817490902271935  0.0562260625720304
  0.6561812523864211  0.9404184083133804  0.0587811543457181
  0.8572810713843636  0.7207715891869951  0.0531913033534068
  0.9564036558313942  0.7760551834630089  0.0527450735041499
  0.9559726328314566  0.8873804966503595  0.0534853642822290
  0.8549988110976739  0.9411728027301237  0.0548160971963408
  0.4545160256170034  0.6077246094100457  0.0621981760661726
  0.5498311287726124  0.7747419294553719  0.0634045938267555
  0.4495525254033827  0.3904562305523027  0.0604705304028615
  0.6662308693695388  0.3939725709384571  0.0588806731474110
  0.7617963390946627  0.5538481211908131  0.0544477618059357
  0.7591502701402405  0.7722463623428414  0.0548711429965054
  0.6447668348317735  0.6626643016205161  0.0589962392646966
  0.5609560255215846  0.5027164133863118  0.0646133433430092
 
  0.00000000E+00  0.00000000E+00  0.00000000E+00
  0.00000000E+00  0.00000000E+00  0.00000000E+00
  0.00000000E+00  0.00000000E+00  0.00000000E+00
  0.00000000E+00  0.00000000E+00  0.00000000E+00
  0.00000000E+00  0.00000000E+00  0.00000000E+00
  0.00000000E+00  0.00000000E+00  0.00000000E+00
  0.00000000E+00  0.00000000E+00  0.00000000E+00
  0.00000000E+00  0.00000000E+00  0.00000000E+00
  0.00000000E+00  0.00000000E+00  0.00000000E+00
  0.00000000E+00  0.00000000E+00  0.00000000E+00
  0.00000000E+00  0.00000000E+00  0.00000000E+00
  0.00000000E+00  0.00000000E+00  0.00000000E+00
  0.00000000E+00  0.00000000E+00  0.00000000E+00
  0.00000000E+00  0.00000000E+00  0.00000000E+00
  0.00000000E+00  0.00000000E+00  0.00000000E+00
  0.00000000E+00  0.00000000E+00  0.00000000E+00
  0.00000000E+00  0.00000000E+00  0.00000000E+00
  0.00000000E+00  0.00000000E+00  0.00000000E+00
  0.00000000E+00  0.00000000E+00  0.00000000E+00
  0.00000000E+00  0.00000000E+00  0.00000000E+00
  0.00000000E+00  0.00000000E+00  0.00000000E+00
  0.00000000E+00  0.00000000E+00  0.00000000E+00
  0.00000000E+00  0.00000000E+00  0.00000000E+00
  0.00000000E+00  0.00000000E+00  0.00000000E+00
  0.00000000E+00  0.00000000E+00  0.00000000E+00
  0.00000000E+00  0.00000000E+00  0.00000000E+00
  0.00000000E+00  0.00000000E+00  0.00000000E+00
  0.00000000E+00  0.00000000E+00  0.00000000E+00
  0.00000000E+00  0.00000000E+00  0.00000000E+00
  0.00000000E+00  0.00000000E+00  0.00000000E+00
  0.00000000E+00  0.00000000E+00  0.00000000E+00
  0.00000000E+00  0.00000000E+00  0.00000000E+00
  0.00000000E+00  0.00000000E+00  0.00000000E+00
  0.00000000E+00  0.00000000E+00  0.00000000E+00
  0.00000000E+00  0.00000000E+00  0.00000000E+00
  0.00000000E+00  0.00000000E+00  0.00000000E+00
  0.00000000E+00  0.00000000E+00  0.00000000E+00
  0.00000000E+00  0.00000000E+00  0.00000000E+00
  0.00000000E+00  0.00000000E+00  0.00000000E+00
  0.00000000E+00  0.00000000E+00  0.00000000E+00
  0.00000000E+00  0.00000000E+00  0.00000000E+00
  0.00000000E+00  0.00000000E+00  0.00000000E+00
  0.00000000E+00  0.00000000E+00  0.00000000E+00
  0.00000000E+00  0.00000000E+00  0.00000000E+00
  0.00000000E+00  0.00000000E+00  0.00000000E+00
  0.00000000E+00  0.00000000E+00  0.00000000E+00
  0.00000000E+00  0.00000000E+00  0.00000000E+00
  0.00000000E+00  0.00000000E+00  0.00000000E+00
  0.00000000E+00  0.00000000E+00  0.00000000E+00
  0.00000000E+00  0.00000000E+00  0.00000000E+00
  0.00000000E+00  0.00000000E+00  0.00000000E+00
  0.00000000E+00  0.00000000E+00  0.00000000E+00
  0.00000000E+00  0.00000000E+00  0.00000000E+00
  0.00000000E+00  0.00000000E+00  0.00000000E+00
  0.00000000E+00  0.00000000E+00  0.00000000E+00
  0.00000000E+00  0.00000000E+00  0.00000000E+00
  0.00000000E+00  0.00000000E+00  0.00000000E+00
  0.00000000E+00  0.00000000E+00  0.00000000E+00
