CONTCAR\(4)                             
   1.00000000000000     
    12.3312997818000003    0.0000000000000000    0.0000000000000000
     0.0001127485000000   12.8291997905000006    0.0000000000000000
     0.0005937186000000    0.0011528207000000   19.9943999824000009
   C    N    Fe   Ni   H 
    54     2     1     1     1
Direct
  0.0559547983492045  0.0555220367801070  0.0503797434765509
  0.1562752848340640  0.1105967662420117  0.0499550030325203
  0.1561950407067425  0.2213689591884047  0.0481741857138496
  0.0562695551566631  0.2765202353641878  0.0470564906979656
  0.2565360423204922  0.0557718573698344  0.0521520051975097
  0.3567048741534892  0.1116285614757889  0.0557427228229678
  0.3563844817218351  0.2236250087417045  0.0547294707975110
  0.2558889457208877  0.2771322043164900  0.0492744072989971
  0.4561486973422290  0.0556731128990160  0.0605461398891835
  0.5553110267717882  0.1136242977634609  0.0644330199579340
  0.5555248411169411  0.2261833990901903  0.0654790933409326
  0.4548442886547981  0.2828566295317484  0.0597368463461694
  0.6551086835461306  0.0541646234438707  0.0651079647330986
  0.7552736102846399  0.1111155032920044  0.0612789791992652
  0.7559171540340982  0.2232934191458803  0.0613855564884655
  0.6568962679156742  0.2828073463920880  0.0681636339634321
  0.8549919602213730  0.0548164057197139  0.0567820102846301
  0.9554621208315299  0.1103257406997365  0.0524721890026347
  0.9559513741651069  0.2213796708329861  0.0509501532551728
  0.8564407439827262  0.2774574024341100  0.0547579117651682
  0.0572350177431747  0.3876036025033079  0.0442450769206439
  0.1561368774213315  0.4436427637781342  0.0433192835694553
  0.1564083031604092  0.5549010522731014  0.0424360494953144
  0.0576356622895568  0.6108101822100078  0.0424773204758625
  0.2554967415018506  0.3881760010662448  0.0469835197252178
  0.3547171853779053  0.4427659083293332  0.0514306016889437
  0.3544761977394022  0.5566075386318278  0.0525174056498754
  0.2549425737795664  0.6109006574413933  0.0460461973876854
  0.7614486396323801  0.4467454313018890  0.0623215909309565
  0.8587331663698702  0.3885678613120166  0.0525391130711812
  0.9579480244895339  0.4433986926175170  0.0457655472263575
  0.9590882291178536  0.5544114262260761  0.0447967405406700
  0.8606335378545069  0.6101343086794710  0.0508416979235498
  0.0569009953680970  0.7225164540984925  0.0442315118501495
  0.1556168940921689  0.7782274708002487  0.0458148501150617
  0.1560400362962114  0.8894687153690918  0.0482619137520978
  0.0559804526241135  0.9447748203731618  0.0494409848276081
  0.2546787679251403  0.7220655296925431  0.0476591577690562
  0.3538216022903485  0.7763051511943552  0.0537635464208519
  0.3558075280283847  0.8881683993300431  0.0552391343178931
  0.2561634482310566  0.9444577114913016  0.0513902703767128
  0.4511198150229507  0.7174372399843016  0.0624296988757255
  0.5539174184618419  0.8835871166302942  0.0676991439534833
  0.4556655409890610  0.9433073273135655  0.0612516621420642
  0.7554849003008732  0.8847410155933005  0.0629914415059176
  0.6550153525404004  0.9419385932802562  0.0667793869170010
  0.8592800629944924  0.7227900911062750  0.0528094234013200
  0.9574668957219701  0.7785577350196681  0.0480395914162013
  0.9559692847513196  0.8893442020020962  0.0510684592530526
  0.8549918515658461  0.9429765020355189  0.0568033125700123
  0.6624743025790181  0.3929097796287226  0.0739517801368310
  0.7631631640024195  0.5577758003739143  0.0613669527072201
  0.5498697394904672  0.7727281148085733  0.0722715002979259
  0.7591768060681564  0.7731087680942125  0.0633444505164657
  0.4513940601457857  0.3913368196670715  0.0579592972093880
  0.4489297645207327  0.6079987729800608  0.0627177206515605
  0.6556465767208290  0.6647138149786497  0.0887842979491765
  0.5557784037849671  0.4936690316667727  0.0797118074799329
  0.6141862921756237  0.5572163243938784  0.1360510257176224
 
  0.00000000E+00  0.00000000E+00  0.00000000E+00
  0.00000000E+00  0.00000000E+00  0.00000000E+00
  0.00000000E+00  0.00000000E+00  0.00000000E+00
  0.00000000E+00  0.00000000E+00  0.00000000E+00
  0.00000000E+00  0.00000000E+00  0.00000000E+00
  0.00000000E+00  0.00000000E+00  0.00000000E+00
  0.00000000E+00  0.00000000E+00  0.00000000E+00
  0.00000000E+00  0.00000000E+00  0.00000000E+00
  0.00000000E+00  0.00000000E+00  0.00000000E+00
  0.00000000E+00  0.00000000E+00  0.00000000E+00
  0.00000000E+00  0.00000000E+00  0.00000000E+00
  0.00000000E+00  0.00000000E+00  0.00000000E+00
  0.00000000E+00  0.00000000E+00  0.00000000E+00
  0.00000000E+00  0.00000000E+00  0.00000000E+00
  0.00000000E+00  0.00000000E+00  0.00000000E+00
  0.00000000E+00  0.00000000E+00  0.00000000E+00
  0.00000000E+00  0.00000000E+00  0.00000000E+00
  0.00000000E+00  0.00000000E+00  0.00000000E+00
  0.00000000E+00  0.00000000E+00  0.00000000E+00
  0.00000000E+00  0.00000000E+00  0.00000000E+00
  0.00000000E+00  0.00000000E+00  0.00000000E+00
  0.00000000E+00  0.00000000E+00  0.00000000E+00
  0.00000000E+00  0.00000000E+00  0.00000000E+00
  0.00000000E+00  0.00000000E+00  0.00000000E+00
  0.00000000E+00  0.00000000E+00  0.00000000E+00
  0.00000000E+00  0.00000000E+00  0.00000000E+00
  0.00000000E+00  0.00000000E+00  0.00000000E+00
  0.00000000E+00  0.00000000E+00  0.00000000E+00
  0.00000000E+00  0.00000000E+00  0.00000000E+00
  0.00000000E+00  0.00000000E+00  0.00000000E+00
  0.00000000E+00  0.00000000E+00  0.00000000E+00
  0.00000000E+00  0.00000000E+00  0.00000000E+00
  0.00000000E+00  0.00000000E+00  0.00000000E+00
  0.00000000E+00  0.00000000E+00  0.00000000E+00
  0.00000000E+00  0.00000000E+00  0.00000000E+00
  0.00000000E+00  0.00000000E+00  0.00000000E+00
  0.00000000E+00  0.00000000E+00  0.00000000E+00
  0.00000000E+00  0.00000000E+00  0.00000000E+00
  0.00000000E+00  0.00000000E+00  0.00000000E+00
  0.00000000E+00  0.00000000E+00  0.00000000E+00
  0.00000000E+00  0.00000000E+00  0.00000000E+00
  0.00000000E+00  0.00000000E+00  0.00000000E+00
  0.00000000E+00  0.00000000E+00  0.00000000E+00
  0.00000000E+00  0.00000000E+00  0.00000000E+00
  0.00000000E+00  0.00000000E+00  0.00000000E+00
  0.00000000E+00  0.00000000E+00  0.00000000E+00
  0.00000000E+00  0.00000000E+00  0.00000000E+00
  0.00000000E+00  0.00000000E+00  0.00000000E+00
  0.00000000E+00  0.00000000E+00  0.00000000E+00
  0.00000000E+00  0.00000000E+00  0.00000000E+00
  0.00000000E+00  0.00000000E+00  0.00000000E+00
  0.00000000E+00  0.00000000E+00  0.00000000E+00
  0.00000000E+00  0.00000000E+00  0.00000000E+00
  0.00000000E+00  0.00000000E+00  0.00000000E+00
  0.00000000E+00  0.00000000E+00  0.00000000E+00
  0.00000000E+00  0.00000000E+00  0.00000000E+00
  0.00000000E+00  0.00000000E+00  0.00000000E+00
  0.00000000E+00  0.00000000E+00  0.00000000E+00
  0.00000000E+00  0.00000000E+00  0.00000000E+00
