CONTCAR\(3)                             
   1.00000000000000     
    12.3312997818000003    0.0000000000000000    0.0000000000000000
     0.0001127485000000   12.8291997905000006    0.0000000000000000
     0.0005937186000000    0.0011528207000000   19.9943999824000009
   C    N    Fe   Ni   O 
    53     3     1     1     2
Direct
  0.0553396726570778  0.0541297581383028  0.0502523690245130
  0.1558427918377743  0.1102264241258636  0.0503177875718257
  0.1567824974821359  0.2210705366441803  0.0497200772524241
  0.0566408217874052  0.2757001007509340  0.0493274544343633
  0.2564004302697278  0.0560543848486400  0.0516866726202000
  0.3568807117607730  0.1123260449340313  0.0537419583310498
  0.3577841853452461  0.2242102894249434  0.0531648280576409
  0.2567698145105290  0.2775524728732028  0.0504545518642730
  0.4566263166206120  0.0565556249838793  0.0566098182693284
  0.5570814595862887  0.1132178044568377  0.0588022598030291
  0.5583737555735688  0.2260507345365967  0.0597644211351748
  0.4579654651894662  0.2829624445609283  0.0563663455734133
  0.6551378314241099  0.0530108817508168  0.0585532534435717
  0.7550805701325329  0.1091564345595905  0.0561342338873205
  0.7568573244531552  0.2216129174563883  0.0565217413809135
  0.6600430341300394  0.2820251246734862  0.0608949264251491
  0.8546180677667712  0.0527446617347102  0.0533394791762264
  0.9551909059927646  0.1086989678123253  0.0513305976467469
  0.9566414482468809  0.2200186791189018  0.0510042950742353
  0.8572766987147192  0.2759234663643552  0.0532052344751247
  0.0570999888590779  0.3868228500988257  0.0484586803906276
  0.1557495071902842  0.4436237566758853  0.0485338142584364
  0.1557513700535431  0.5549585375188314  0.0483969545375076
  0.0564205772358324  0.6099662209746936  0.0479107024802028
  0.2554989372734687  0.3886488368646185  0.0498419217861741
  0.3536758867994678  0.4456008646292005  0.0522189504991399
  0.3549382577703973  0.5579294040604513  0.0539065537351471
  0.2549538317440022  0.6118915169347575  0.0503380982586992
  0.7604264791145618  0.4444551496082635  0.0563950388973510
  0.8586916930788694  0.3870024177301100  0.0519858173013117
  0.9580002362055929  0.4420132846382797  0.0490149700906335
  0.9576500865421614  0.5526516120511672  0.0486978339874025
  0.8574456799924079  0.6051420877165278  0.0505241552323442
  0.0557377511937974  0.7211132471777871  0.0481528733287330
  0.1545357847283581  0.7777615071044096  0.0491319922027822
  0.1547938013146827  0.8887805835929005  0.0497267397054447
  0.0543911661982881  0.9430113607643402  0.0498032202326083
  0.2540348072476584  0.7225729656139687  0.0507290619612835
  0.3529664371483424  0.7781779015761214  0.0538218346358963
  0.3543579908023878  0.8894413157043655  0.0538884357763523
  0.2549312800575705  0.9448993528841442  0.0514584530503243
  0.4515978564916823  0.7216830820849600  0.0594701229115176
  0.5524762098210414  0.8848904176565628  0.0601738805805273
  0.4545565931246203  0.9445617731328881  0.0570227653604608
  0.7535874272786232  0.8823460478444570  0.0564708146365165
  0.6541225959415573  0.9400830298477192  0.0591858187130380
  0.8566140252709070  0.7176872582832132  0.0507829657954697
  0.9554783248342212  0.7749904337250539  0.0490788762436068
  0.9544044696419949  0.8864628272557086  0.0503528216896640
  0.8536975031541182  0.9406669667789651  0.0530678909198387
  0.4538311605811049  0.3940883626302603  0.0557961241106610
  0.4556850006983035  0.6097375343293195  0.0619038005894359
  0.7564913764886904  0.7703517550902337  0.0562105604293725
  0.6648037950535991  0.3902659556681787  0.0646179599714052
  0.7602432784339775  0.5525724660724405  0.0535464229262055
  0.5477443010110178  0.7780753783126312  0.0623331126582742
  0.6476148600558634  0.6702551947078463  0.0718169261530898
  0.5591166873821292  0.4908312726243191  0.0813059930912431
  0.6159243257867864  0.5458340731772758  0.1633057692917054
  0.6489547939174216  0.6488037161093890  0.1608189641330701
 
  0.00000000E+00  0.00000000E+00  0.00000000E+00
  0.00000000E+00  0.00000000E+00  0.00000000E+00
  0.00000000E+00  0.00000000E+00  0.00000000E+00
  0.00000000E+00  0.00000000E+00  0.00000000E+00
  0.00000000E+00  0.00000000E+00  0.00000000E+00
  0.00000000E+00  0.00000000E+00  0.00000000E+00
  0.00000000E+00  0.00000000E+00  0.00000000E+00
  0.00000000E+00  0.00000000E+00  0.00000000E+00
  0.00000000E+00  0.00000000E+00  0.00000000E+00
  0.00000000E+00  0.00000000E+00  0.00000000E+00
  0.00000000E+00  0.00000000E+00  0.00000000E+00
  0.00000000E+00  0.00000000E+00  0.00000000E+00
  0.00000000E+00  0.00000000E+00  0.00000000E+00
  0.00000000E+00  0.00000000E+00  0.00000000E+00
  0.00000000E+00  0.00000000E+00  0.00000000E+00
  0.00000000E+00  0.00000000E+00  0.00000000E+00
  0.00000000E+00  0.00000000E+00  0.00000000E+00
  0.00000000E+00  0.00000000E+00  0.00000000E+00
  0.00000000E+00  0.00000000E+00  0.00000000E+00
  0.00000000E+00  0.00000000E+00  0.00000000E+00
  0.00000000E+00  0.00000000E+00  0.00000000E+00
  0.00000000E+00  0.00000000E+00  0.00000000E+00
  0.00000000E+00  0.00000000E+00  0.00000000E+00
  0.00000000E+00  0.00000000E+00  0.00000000E+00
  0.00000000E+00  0.00000000E+00  0.00000000E+00
  0.00000000E+00  0.00000000E+00  0.00000000E+00
  0.00000000E+00  0.00000000E+00  0.00000000E+00
  0.00000000E+00  0.00000000E+00  0.00000000E+00
  0.00000000E+00  0.00000000E+00  0.00000000E+00
  0.00000000E+00  0.00000000E+00  0.00000000E+00
  0.00000000E+00  0.00000000E+00  0.00000000E+00
  0.00000000E+00  0.00000000E+00  0.00000000E+00
  0.00000000E+00  0.00000000E+00  0.00000000E+00
  0.00000000E+00  0.00000000E+00  0.00000000E+00
  0.00000000E+00  0.00000000E+00  0.00000000E+00
  0.00000000E+00  0.00000000E+00  0.00000000E+00
  0.00000000E+00  0.00000000E+00  0.00000000E+00
  0.00000000E+00  0.00000000E+00  0.00000000E+00
  0.00000000E+00  0.00000000E+00  0.00000000E+00
  0.00000000E+00  0.00000000E+00  0.00000000E+00
  0.00000000E+00  0.00000000E+00  0.00000000E+00
  0.00000000E+00  0.00000000E+00  0.00000000E+00
  0.00000000E+00  0.00000000E+00  0.00000000E+00
  0.00000000E+00  0.00000000E+00  0.00000000E+00
  0.00000000E+00  0.00000000E+00  0.00000000E+00
  0.00000000E+00  0.00000000E+00  0.00000000E+00
  0.00000000E+00  0.00000000E+00  0.00000000E+00
  0.00000000E+00  0.00000000E+00  0.00000000E+00
  0.00000000E+00  0.00000000E+00  0.00000000E+00
  0.00000000E+00  0.00000000E+00  0.00000000E+00
  0.00000000E+00  0.00000000E+00  0.00000000E+00
  0.00000000E+00  0.00000000E+00  0.00000000E+00
  0.00000000E+00  0.00000000E+00  0.00000000E+00
  0.00000000E+00  0.00000000E+00  0.00000000E+00
  0.00000000E+00  0.00000000E+00  0.00000000E+00
  0.00000000E+00  0.00000000E+00  0.00000000E+00
  0.00000000E+00  0.00000000E+00  0.00000000E+00
  0.00000000E+00  0.00000000E+00  0.00000000E+00
  0.00000000E+00  0.00000000E+00  0.00000000E+00
  0.00000000E+00  0.00000000E+00  0.00000000E+00
