CONTCAR\(11)                            
   1.00000000000000     
    12.3312997818000003    0.0000000000000000    0.0000000000000000
     0.0001127485000000   12.8291997905000006    0.0000000000000000
     0.0005937186000000    0.0011528207000000   19.9943999824000009
   C    N    Fe   Ni   H 
    52     4     1     1     2
Direct
  0.0559565442830124  0.0545071898883853  0.0534463154361692
  0.1565780811556741  0.1107614989445504  0.0531664507790765
  0.1575431658622862  0.2216959331534879  0.0526444107465074
  0.0573384590800874  0.2759026549957200  0.0525459757536764
  0.2569651856064367  0.0566255126199297  0.0536654619438218
  0.3575364726300491  0.1126717371600797  0.0545481661468037
  0.3584218784697373  0.2246253786550914  0.0540389470767265
  0.2576935768429503  0.2785418602899296  0.0526578709403179
  0.4574394812420361  0.0567019295279804  0.0560829987567403
  0.5577894558486494  0.1130486793122817  0.0575763310113906
  0.5593490420384146  0.2264178435915287  0.0577912855872418
  0.4588031113167158  0.2832645179867539  0.0553238031575765
  0.6553223411240441  0.0524023243683759  0.0581082152700762
  0.7552640018681810  0.1090742286151899  0.0571213538240273
  0.7569755818781349  0.2218445703972974  0.0572402546530996
  0.6599491816088209  0.2825140284305064  0.0591183437717960
  0.8549294640343928  0.0525078214195167  0.0556591654631305
  0.9555828033721603  0.1086232317508578  0.0542112945558003
  0.9570042040750804  0.2200566533879141  0.0538056403298357
  0.8578506350280409  0.2759051212120716  0.0550886430409751
  0.0580879590117897  0.3868646195234291  0.0518351847258537
  0.1568483034447182  0.4439583781840820  0.0515254854822026
  0.1564603982676619  0.5549587817086292  0.0513270392985474
  0.0575708820273150  0.6102241743064996  0.0512848645984166
  0.2565904143134402  0.3898948373093066  0.0520394163413509
  0.3556356969354350  0.4474524077766001  0.0524111830055817
  0.3550457538185089  0.5596797790705251  0.0528056051463886
  0.2553638489290052  0.6123632044830227  0.0520187489600699
  0.7622565427886254  0.4451298510828783  0.0570354434596997
  0.8599474977488071  0.3871359797716954  0.0541994473904852
  0.9593013709469349  0.4420590791262495  0.0522779210619612
  0.9589308717403308  0.5527958052694085  0.0519847561236550
  0.8594664376934787  0.6056741884249778  0.0538110516661809
  0.0564507151294728  0.7212786491225471  0.0516223080293995
  0.1549833287167091  0.7783317928667028  0.0520106447684017
  0.1554138624460203  0.8892560476259109  0.0526931105205998
  0.0550274065121385  0.9434735213795775  0.0531674260086909
  0.2539209058440605  0.7232239416491595  0.0522915843485518
  0.3527115691321684  0.7785394420161210  0.0537677088029019
  0.3548075868686800  0.8898586930102040  0.0544644518815437
  0.2556206854750152  0.9452844893362979  0.0534782853161371
  0.4505786151902813  0.7213601762126283  0.0557933549248841
  0.5524566718058445  0.8843033019123410  0.0584400469683527
  0.4555348623520201  0.9443335022479480  0.0562231150885200
  0.7539276725665373  0.8809325895496576  0.0579411808560048
  0.6539240676643322  0.9387819828288013  0.0586573663074281
  0.8580625422532040  0.7175457537517697  0.0544198233614099
  0.9565914877165856  0.7751869745985308  0.0527269328128958
  0.9550859768626005  0.8866269896673139  0.0537889254339431
  0.8538730100797124  0.9401610967316214  0.0557618758132647
  0.4546025838771067  0.3937239032864067  0.0537860910703595
  0.7573625418823835  0.7687046786435808  0.0589234704215091
  0.4529452160105110  0.6128745101810154  0.0546957568312581
  0.6651851908445942  0.3920808948749584  0.0609688445359180
  0.7618544048866331  0.5531418042661509  0.0568234685696969
  0.5468763349864268  0.7753331676590884  0.0601217556614356
  0.6450380398402159  0.6678354559123458  0.0699368842428855
  0.5619471932241998  0.4942952060252439  0.0624243894754570
  0.6085250820947450  0.5835329911146555  0.1383953135156337
  0.6277237697068647  0.6433645547846522  0.1538288089277307
 
  0.00000000E+00  0.00000000E+00  0.00000000E+00
  0.00000000E+00  0.00000000E+00  0.00000000E+00
  0.00000000E+00  0.00000000E+00  0.00000000E+00
  0.00000000E+00  0.00000000E+00  0.00000000E+00
  0.00000000E+00  0.00000000E+00  0.00000000E+00
  0.00000000E+00  0.00000000E+00  0.00000000E+00
  0.00000000E+00  0.00000000E+00  0.00000000E+00
  0.00000000E+00  0.00000000E+00  0.00000000E+00
  0.00000000E+00  0.00000000E+00  0.00000000E+00
  0.00000000E+00  0.00000000E+00  0.00000000E+00
  0.00000000E+00  0.00000000E+00  0.00000000E+00
  0.00000000E+00  0.00000000E+00  0.00000000E+00
  0.00000000E+00  0.00000000E+00  0.00000000E+00
  0.00000000E+00  0.00000000E+00  0.00000000E+00
  0.00000000E+00  0.00000000E+00  0.00000000E+00
  0.00000000E+00  0.00000000E+00  0.00000000E+00
  0.00000000E+00  0.00000000E+00  0.00000000E+00
  0.00000000E+00  0.00000000E+00  0.00000000E+00
  0.00000000E+00  0.00000000E+00  0.00000000E+00
  0.00000000E+00  0.00000000E+00  0.00000000E+00
  0.00000000E+00  0.00000000E+00  0.00000000E+00
  0.00000000E+00  0.00000000E+00  0.00000000E+00
  0.00000000E+00  0.00000000E+00  0.00000000E+00
  0.00000000E+00  0.00000000E+00  0.00000000E+00
  0.00000000E+00  0.00000000E+00  0.00000000E+00
  0.00000000E+00  0.00000000E+00  0.00000000E+00
  0.00000000E+00  0.00000000E+00  0.00000000E+00
  0.00000000E+00  0.00000000E+00  0.00000000E+00
  0.00000000E+00  0.00000000E+00  0.00000000E+00
  0.00000000E+00  0.00000000E+00  0.00000000E+00
  0.00000000E+00  0.00000000E+00  0.00000000E+00
  0.00000000E+00  0.00000000E+00  0.00000000E+00
  0.00000000E+00  0.00000000E+00  0.00000000E+00
  0.00000000E+00  0.00000000E+00  0.00000000E+00
  0.00000000E+00  0.00000000E+00  0.00000000E+00
  0.00000000E+00  0.00000000E+00  0.00000000E+00
  0.00000000E+00  0.00000000E+00  0.00000000E+00
  0.00000000E+00  0.00000000E+00  0.00000000E+00
  0.00000000E+00  0.00000000E+00  0.00000000E+00
  0.00000000E+00  0.00000000E+00  0.00000000E+00
  0.00000000E+00  0.00000000E+00  0.00000000E+00
  0.00000000E+00  0.00000000E+00  0.00000000E+00
  0.00000000E+00  0.00000000E+00  0.00000000E+00
  0.00000000E+00  0.00000000E+00  0.00000000E+00
  0.00000000E+00  0.00000000E+00  0.00000000E+00
  0.00000000E+00  0.00000000E+00  0.00000000E+00
  0.00000000E+00  0.00000000E+00  0.00000000E+00
  0.00000000E+00  0.00000000E+00  0.00000000E+00
  0.00000000E+00  0.00000000E+00  0.00000000E+00
  0.00000000E+00  0.00000000E+00  0.00000000E+00
  0.00000000E+00  0.00000000E+00  0.00000000E+00
  0.00000000E+00  0.00000000E+00  0.00000000E+00
  0.00000000E+00  0.00000000E+00  0.00000000E+00
  0.00000000E+00  0.00000000E+00  0.00000000E+00
  0.00000000E+00  0.00000000E+00  0.00000000E+00
  0.00000000E+00  0.00000000E+00  0.00000000E+00
  0.00000000E+00  0.00000000E+00  0.00000000E+00
  0.00000000E+00  0.00000000E+00  0.00000000E+00
  0.00000000E+00  0.00000000E+00  0.00000000E+00
  0.00000000E+00  0.00000000E+00  0.00000000E+00
