POSCAR\(2)                              
   1.00000000000000     
    12.3312997818000003    0.0000000000000000    0.0000000000000000
     0.0001127485000000   12.8291997905000006    0.0000000000000000
     0.0005937186000000    0.0011528207000000   19.9943999824000009
   C    N    Fe   Ni
    53     3     1     1
Direct
  0.0556290614617625  0.0546726086104321  0.0558108200096812
  0.1560920971307223  0.1107878579416541  0.0558343234301137
  0.1573207985571937  0.2217426950532154  0.0558060110482140
  0.0571942486673645  0.2758482163980235  0.0557636677617492
  0.2561491872546672  0.0563660039336678  0.0558420764182742
  0.3568622675574515  0.1119614028833171  0.0558055081170684
  0.3581029566641921  0.2238876727754572  0.0557602014546479
  0.2577332851430807  0.2783552220427423  0.0557819663491669
  0.4561715141463508  0.0555283595482160  0.0557670558617068
  0.5566603006651937  0.1112246719729068  0.0557177508517814
  0.5577900700563205  0.2230282968953418  0.0556922173088478
  0.4585249378020467  0.2813919304678533  0.0556909441570825
  0.6551457413786158  0.0512640845431378  0.0556705029172869
  0.7553452555900898  0.1082563167393127  0.0556769754924160
  0.7566959184656564  0.2206421722135974  0.0556810786191248
  0.6585570212915784  0.2799656293676306  0.0556569240424494
  0.8547555788719816  0.0520788168216795  0.0556956467354170
  0.9553137583955783  0.1087997907329889  0.0557459120455095
  0.9566190227416564  0.2201732037784778  0.0557316473347542
  0.8570086862988188  0.2760216156159587  0.0556925325973052
  0.0585126870822449  0.3868220645427474  0.0557472273772323
  0.1575446758216967  0.4436592992239023  0.0557765026698184
  0.1569470920646417  0.5546396108243535  0.0557921272975034
  0.0577263863859765  0.6098051028938655  0.0557671375982978
  0.2578010235856547  0.3897459142963331  0.0557584970227698
  0.3577315251655048  0.4468493833942828  0.0556909703797503
  0.3566970161133626  0.5599407522998273  0.0556916439653182
  0.2559783931022944  0.6120626612268494  0.0557762032643882
  0.7615300388115817  0.4463774152625611  0.0556196527590430
  0.8594460049866003  0.3875610308885987  0.0556656923940368
  0.9594592880613970  0.4419000584307212  0.0556901222218285
  0.9590912085827067  0.5525103748962469  0.0556868289205472
  0.8592687474003480  0.6062348142688719  0.0556374288985664
  0.0564590892190912  0.7210506743202610  0.0557950206278014
  0.1544709358979056  0.7780601372394005  0.0558373452480430
  0.1547577081135927  0.8891501763159420  0.0558521221931497
  0.0547639986104399  0.9435759894525396  0.0558207147706909
  0.2533726584157378  0.7228365484429474  0.0558034007642486
  0.3514023839239701  0.7789544716719061  0.0557588998052489
  0.3536732070195607  0.8898583786266033  0.0557933100304104
  0.2547137299945392  0.9452957757475944  0.0558484135223899
  0.4489940212073585  0.7226446911204479  0.0556644573895615
  0.5516072497242809  0.8840210873645445  0.0556535624303189
  0.4544350444680882  0.9437354800970957  0.0557463702984138
  0.7537026853667580  0.8806270014356193  0.0556341800160359
  0.6538480762355916  0.9384950282169935  0.0556356951332982
  0.8584872012123064  0.7182438559551380  0.0556559399718324
  0.9568460813960313  0.7753873415102276  0.0557349133793246
  0.9550566578916468  0.8865617418942590  0.0557501619312158
  0.8536723646004524  0.9398036412985156  0.0556843724809916
  0.4570172845925465  0.3928083328682995  0.0556453505627044
  0.6619084916301168  0.3905601930315758  0.0556189393578503
  0.7575120395087891  0.7681212551371254  0.0556240372536829
  0.7619072109649245  0.5557131127335797  0.0555922310599708
  0.5459149819449424  0.7758671194980395  0.0556152266402247
  0.4533210564501927  0.6151646856699634  0.0556257511271602
  0.6438671206120025  0.6679130230477692  0.0555846311304612
  0.5642929936948139  0.4940852715188085  0.0556011515532547
 
  0.00000000E+00  0.00000000E+00  0.00000000E+00
  0.00000000E+00  0.00000000E+00  0.00000000E+00
  0.00000000E+00  0.00000000E+00  0.00000000E+00
  0.00000000E+00  0.00000000E+00  0.00000000E+00
  0.00000000E+00  0.00000000E+00  0.00000000E+00
  0.00000000E+00  0.00000000E+00  0.00000000E+00
  0.00000000E+00  0.00000000E+00  0.00000000E+00
  0.00000000E+00  0.00000000E+00  0.00000000E+00
  0.00000000E+00  0.00000000E+00  0.00000000E+00
  0.00000000E+00  0.00000000E+00  0.00000000E+00
  0.00000000E+00  0.00000000E+00  0.00000000E+00
  0.00000000E+00  0.00000000E+00  0.00000000E+00
  0.00000000E+00  0.00000000E+00  0.00000000E+00
  0.00000000E+00  0.00000000E+00  0.00000000E+00
  0.00000000E+00  0.00000000E+00  0.00000000E+00
  0.00000000E+00  0.00000000E+00  0.00000000E+00
  0.00000000E+00  0.00000000E+00  0.00000000E+00
  0.00000000E+00  0.00000000E+00  0.00000000E+00
  0.00000000E+00  0.00000000E+00  0.00000000E+00
  0.00000000E+00  0.00000000E+00  0.00000000E+00
  0.00000000E+00  0.00000000E+00  0.00000000E+00
  0.00000000E+00  0.00000000E+00  0.00000000E+00
  0.00000000E+00  0.00000000E+00  0.00000000E+00
  0.00000000E+00  0.00000000E+00  0.00000000E+00
  0.00000000E+00  0.00000000E+00  0.00000000E+00
  0.00000000E+00  0.00000000E+00  0.00000000E+00
  0.00000000E+00  0.00000000E+00  0.00000000E+00
  0.00000000E+00  0.00000000E+00  0.00000000E+00
  0.00000000E+00  0.00000000E+00  0.00000000E+00
  0.00000000E+00  0.00000000E+00  0.00000000E+00
  0.00000000E+00  0.00000000E+00  0.00000000E+00
  0.00000000E+00  0.00000000E+00  0.00000000E+00
  0.00000000E+00  0.00000000E+00  0.00000000E+00
  0.00000000E+00  0.00000000E+00  0.00000000E+00
  0.00000000E+00  0.00000000E+00  0.00000000E+00
  0.00000000E+00  0.00000000E+00  0.00000000E+00
  0.00000000E+00  0.00000000E+00  0.00000000E+00
  0.00000000E+00  0.00000000E+00  0.00000000E+00
  0.00000000E+00  0.00000000E+00  0.00000000E+00
  0.00000000E+00  0.00000000E+00  0.00000000E+00
  0.00000000E+00  0.00000000E+00  0.00000000E+00
  0.00000000E+00  0.00000000E+00  0.00000000E+00
  0.00000000E+00  0.00000000E+00  0.00000000E+00
  0.00000000E+00  0.00000000E+00  0.00000000E+00
  0.00000000E+00  0.00000000E+00  0.00000000E+00
  0.00000000E+00  0.00000000E+00  0.00000000E+00
  0.00000000E+00  0.00000000E+00  0.00000000E+00
  0.00000000E+00  0.00000000E+00  0.00000000E+00
  0.00000000E+00  0.00000000E+00  0.00000000E+00
  0.00000000E+00  0.00000000E+00  0.00000000E+00
  0.00000000E+00  0.00000000E+00  0.00000000E+00
  0.00000000E+00  0.00000000E+00  0.00000000E+00
  0.00000000E+00  0.00000000E+00  0.00000000E+00
  0.00000000E+00  0.00000000E+00  0.00000000E+00
  0.00000000E+00  0.00000000E+00  0.00000000E+00
  0.00000000E+00  0.00000000E+00  0.00000000E+00
  0.00000000E+00  0.00000000E+00  0.00000000E+00
  0.00000000E+00  0.00000000E+00  0.00000000E+00
