CONTCAR\(3)                             
   1.00000000000000     
    12.3312997818000003    0.0000000000000000    0.0000000000000000
     0.0001127485000000   12.8291997905000006    0.0000000000000000
     0.0005937186000000    0.0011528207000000   19.9943999824000009
   C    N    Fe   Ni   O    H 
    55     1     1     1     1     1
Direct
  0.0550989850498487  0.0549299337380589  0.0490299028580662
  0.1553948352757794  0.1103159048113873  0.0492669934260993
  0.1558284014176648  0.2211815668446858  0.0482733895960986
  0.0559236123600504  0.2762768320570521  0.0470449866666129
  0.2557571113707309  0.0557923531894311  0.0512255368566733
  0.3559782384888635  0.1118684068408096  0.0540847927993842
  0.3564629588473260  0.2233906130396001  0.0539926471040918
  0.2557880823867465  0.2771005051440381  0.0498768895753788
  0.4556355379404304  0.0561960628780402  0.0575031202608506
  0.5558678797341282  0.1127586024401086  0.0599682227701438
  0.5565124189276884  0.2242985096391621  0.0617554466290930
  0.4563300692898190  0.2811690734604117  0.0590855804488193
  0.6555161071309575  0.0545569777590132  0.0591899572431898
  0.7552969038977545  0.1110107985887424  0.0559232412371046
  0.7558190642996615  0.2229924491906370  0.0560408763982749
  0.6571827233501630  0.2819912817661111  0.0620474753254737
  0.8546657456090710  0.0543716063549649  0.0527390848039760
  0.9549266415470796  0.1100212189599730  0.0500298447942884
  0.9555549048047698  0.2212599397068679  0.0491341208538684
  0.8559590845204431  0.2774611065699913  0.0515975295311518
  0.0567178104834735  0.3873981766505425  0.0455445642116848
  0.1555257814856611  0.4436195321098310  0.0458363725176673
  0.1556220303305042  0.5551969482207386  0.0456760111514544
  0.0564229343593006  0.6106333845050214  0.0449279700133317
  0.2551371580433556  0.3880102802793917  0.0486741605425592
  0.3538306458267192  0.4439037779358617  0.0532576630323438
  0.3541807578079790  0.5564525143058541  0.0535429362036766
  0.2546512486606732  0.6115728129698578  0.0485627771960858
  0.7594181923462556  0.4476078001078461  0.0554255360924910
  0.8575166859740860  0.3888102039386634  0.0500710897647142
  0.9573799918205717  0.4430071685598118  0.0462195054227223
  0.9579169473338810  0.5536424185140205  0.0457102351547365
  0.8578641478714446  0.6071031835735236  0.0484031443331478
  0.0555536967516459  0.7219899966280517  0.0458411944054448
  0.1544657696331124  0.7779874580199170  0.0471135832762914
  0.1548930588763498  0.8891598846063394  0.0483816381649577
  0.0546609494108491  0.9439511418893073  0.0485865106818811
  0.2540819055792957  0.7225376101736602  0.0490384770947937
  0.3531205307228773  0.7777132245926198  0.0536318243028752
  0.3548091623636266  0.8889576681695256  0.0540687001110619
  0.2550884708352785  0.9447188387606876  0.0508353214860859
  0.4518966905644946  0.7203284688980898  0.0614919902653421
  0.5542983623871887  0.8869834424531378  0.0628459476008003
  0.4549051847852538  0.9445567847278747  0.0582227239792735
  0.7543800592144189  0.8848294934981641  0.0569300825379450
  0.6550881219148360  0.9430691757611447  0.0604366330542687
  0.8559600303138891  0.7204467139730322  0.0499331807370798
  0.9553939448092289  0.7766830209962743  0.0478044474409255
  0.9546330964913824  0.8878595643563949  0.0494278343009314
  0.8541172811406812  0.9423334616972987  0.0527531237141740
  0.4539084280987346  0.3920971086818023  0.0607122004264026
  0.6599191017824571  0.3926982681129618  0.0672300838230999
  0.5504977630201050  0.7772285644304836  0.0681404184046254
  0.7557787879132387  0.7730793095208188  0.0568228545953039
  0.4532100593018377  0.6084734441787220  0.0634264490235392
  0.7626326955122585  0.5553827153735790  0.0526756022262031
  0.6506143583055725  0.6688252796528587  0.0796608685474409
  0.5548549271498064  0.4905139766907235  0.0884616057264000
  0.6263794500079926  0.5818956135909720  0.1564625482553488
  0.5694345205207243  0.6101477639154977  0.1850925690022351
 
  0.00000000E+00  0.00000000E+00  0.00000000E+00
  0.00000000E+00  0.00000000E+00  0.00000000E+00
  0.00000000E+00  0.00000000E+00  0.00000000E+00
  0.00000000E+00  0.00000000E+00  0.00000000E+00
  0.00000000E+00  0.00000000E+00  0.00000000E+00
  0.00000000E+00  0.00000000E+00  0.00000000E+00
  0.00000000E+00  0.00000000E+00  0.00000000E+00
  0.00000000E+00  0.00000000E+00  0.00000000E+00
  0.00000000E+00  0.00000000E+00  0.00000000E+00
  0.00000000E+00  0.00000000E+00  0.00000000E+00
  0.00000000E+00  0.00000000E+00  0.00000000E+00
  0.00000000E+00  0.00000000E+00  0.00000000E+00
  0.00000000E+00  0.00000000E+00  0.00000000E+00
  0.00000000E+00  0.00000000E+00  0.00000000E+00
  0.00000000E+00  0.00000000E+00  0.00000000E+00
  0.00000000E+00  0.00000000E+00  0.00000000E+00
  0.00000000E+00  0.00000000E+00  0.00000000E+00
  0.00000000E+00  0.00000000E+00  0.00000000E+00
  0.00000000E+00  0.00000000E+00  0.00000000E+00
  0.00000000E+00  0.00000000E+00  0.00000000E+00
  0.00000000E+00  0.00000000E+00  0.00000000E+00
  0.00000000E+00  0.00000000E+00  0.00000000E+00
  0.00000000E+00  0.00000000E+00  0.00000000E+00
  0.00000000E+00  0.00000000E+00  0.00000000E+00
  0.00000000E+00  0.00000000E+00  0.00000000E+00
  0.00000000E+00  0.00000000E+00  0.00000000E+00
  0.00000000E+00  0.00000000E+00  0.00000000E+00
  0.00000000E+00  0.00000000E+00  0.00000000E+00
  0.00000000E+00  0.00000000E+00  0.00000000E+00
  0.00000000E+00  0.00000000E+00  0.00000000E+00
  0.00000000E+00  0.00000000E+00  0.00000000E+00
  0.00000000E+00  0.00000000E+00  0.00000000E+00
  0.00000000E+00  0.00000000E+00  0.00000000E+00
  0.00000000E+00  0.00000000E+00  0.00000000E+00
  0.00000000E+00  0.00000000E+00  0.00000000E+00
  0.00000000E+00  0.00000000E+00  0.00000000E+00
  0.00000000E+00  0.00000000E+00  0.00000000E+00
  0.00000000E+00  0.00000000E+00  0.00000000E+00
  0.00000000E+00  0.00000000E+00  0.00000000E+00
  0.00000000E+00  0.00000000E+00  0.00000000E+00
  0.00000000E+00  0.00000000E+00  0.00000000E+00
  0.00000000E+00  0.00000000E+00  0.00000000E+00
  0.00000000E+00  0.00000000E+00  0.00000000E+00
  0.00000000E+00  0.00000000E+00  0.00000000E+00
  0.00000000E+00  0.00000000E+00  0.00000000E+00
  0.00000000E+00  0.00000000E+00  0.00000000E+00
  0.00000000E+00  0.00000000E+00  0.00000000E+00
  0.00000000E+00  0.00000000E+00  0.00000000E+00
  0.00000000E+00  0.00000000E+00  0.00000000E+00
  0.00000000E+00  0.00000000E+00  0.00000000E+00
  0.00000000E+00  0.00000000E+00  0.00000000E+00
  0.00000000E+00  0.00000000E+00  0.00000000E+00
  0.00000000E+00  0.00000000E+00  0.00000000E+00
  0.00000000E+00  0.00000000E+00  0.00000000E+00
  0.00000000E+00  0.00000000E+00  0.00000000E+00
  0.00000000E+00  0.00000000E+00  0.00000000E+00
  0.00000000E+00  0.00000000E+00  0.00000000E+00
  0.00000000E+00  0.00000000E+00  0.00000000E+00
  0.00000000E+00  0.00000000E+00  0.00000000E+00
  0.00000000E+00  0.00000000E+00  0.00000000E+00
