POSCAR\(2)                              
   1.00000000000000     
    12.3312997818000003    0.0000000000000000    0.0000000000000000
     0.0001127485000000   12.8291997905000006    0.0000000000000000
     0.0005937186000000    0.0011528207000000   19.9943999824000009
   C    N    Fe   Ni
    53     3     1     1
Direct
  0.0560571482848665  0.0544810950655069  0.0558126723720630
  0.1564993450098061  0.1109831320636544  0.0558355202950807
  0.1575687719278193  0.2220174651854160  0.0558052486468801
  0.0574054930579695  0.2759586791788120  0.0557619011009724
  0.2565941428184342  0.0567385689682705  0.0558468924177558
  0.3571675064872379  0.1128037954121451  0.0558016561729392
  0.3583109022790079  0.2247136792851528  0.0557579294082096
  0.2577731367933269  0.2788169312800075  0.0557847002195696
  0.4566414996582993  0.0566604706922939  0.0557653822713700
  0.5571781635925670  0.1121958182531752  0.0557114774582859
  0.5584221688124704  0.2246459851215726  0.0556798425548428
  0.4588535569451307  0.2828474282325830  0.0556860091884233
  0.6551547037333235  0.0518636682988465  0.0556701585313162
  0.7553861687337167  0.1082128872957342  0.0556756260336130
  0.7574365677499367  0.2203354437612365  0.0556622879523745
  0.6594679036715088  0.2799188859440375  0.0556411578303194
  0.8550013373259210  0.0520473206479565  0.0556988717119094
  0.9556418453448994  0.1083554716941503  0.0557438560705981
  0.9572941432919564  0.2195671734770050  0.0557218951827184
  0.8580812215963179  0.2749320199322907  0.0556658141979296
  0.0580146649717588  0.3870328866999559  0.0557468891427919
  0.1570035167814581  0.4438282363249081  0.0557901062703864
  0.1566505600773998  0.5549150618528373  0.0558029634019366
  0.0571814092415921  0.6096215483377645  0.0557804636400948
  0.2571170623274873  0.3900866178177557  0.0557735836919948
  0.3566875026514095  0.4474083380863150  0.0556984848250137
  0.3564900762754635  0.5599685636880647  0.0557031765937170
  0.2558342251958448  0.6122033707609981  0.0557851034785236
  0.7609144380637142  0.4423248857290905  0.0556009600939896
  0.8596144144131304  0.3860176313628829  0.0556313099648771
  0.9586560060761127  0.4420503572331433  0.0556820673334818
  0.9579973263787015  0.5527533147305475  0.0556933184068031
  0.8576236794544921  0.6062166211562412  0.0556354947357159
  0.0563351601168428  0.7210358511299528  0.0557999516998778
  0.1545984915242027  0.7779950281556512  0.0558454017561910
  0.1550969941761074  0.8891823941033187  0.0558603487590192
  0.0550538653871004  0.9435482418635477  0.0558283142135444
  0.2535343898196324  0.7229426635043367  0.0558107163320351
  0.3518619029211552  0.7786717637623991  0.0557662111217703
  0.3541184751132862  0.8899850061005756  0.0557995563200368
  0.2550238921382252  0.9453815706726215  0.0558539437479866
  0.4499512718777233  0.7225362758572571  0.0556679577800534
  0.5514956525523451  0.8852091613037208  0.0556426944889515
  0.4545459153629043  0.9447502946842889  0.0557428247417582
  0.7536060128347175  0.8807471881114644  0.0556384342845372
  0.6536813207442945  0.9389712193114428  0.0556366760201938
  0.8585108327937129  0.7187013484791648  0.0556507178082607
  0.9566752667496837  0.7756900030671550  0.0557363412741575
  0.9551556241688219  0.8868441363282192  0.0557602008490241
  0.8538352402137961  0.9399399213384975  0.0556919032361942
  0.4557152775691380  0.3938329759852726  0.0556393348093109
  0.7561089514026526  0.5539692686074628  0.0556020269914122
  0.7575003203052916  0.7685986373539487  0.0556233081276292
  0.6643611917791262  0.3869348747291672  0.0555963329646986
  0.5454761272144295  0.7772600675670590  0.0556080089583031
  0.4542845155047925  0.6136740471653295  0.0556423299969402
  0.6422622470720372  0.6673809511276135  0.0556137925514570
  0.5669005196349108  0.4923338211201521  0.0555898459701413
 
  0.00000000E+00  0.00000000E+00  0.00000000E+00
  0.00000000E+00  0.00000000E+00  0.00000000E+00
  0.00000000E+00  0.00000000E+00  0.00000000E+00
  0.00000000E+00  0.00000000E+00  0.00000000E+00
  0.00000000E+00  0.00000000E+00  0.00000000E+00
  0.00000000E+00  0.00000000E+00  0.00000000E+00
  0.00000000E+00  0.00000000E+00  0.00000000E+00
  0.00000000E+00  0.00000000E+00  0.00000000E+00
  0.00000000E+00  0.00000000E+00  0.00000000E+00
  0.00000000E+00  0.00000000E+00  0.00000000E+00
  0.00000000E+00  0.00000000E+00  0.00000000E+00
  0.00000000E+00  0.00000000E+00  0.00000000E+00
  0.00000000E+00  0.00000000E+00  0.00000000E+00
  0.00000000E+00  0.00000000E+00  0.00000000E+00
  0.00000000E+00  0.00000000E+00  0.00000000E+00
  0.00000000E+00  0.00000000E+00  0.00000000E+00
  0.00000000E+00  0.00000000E+00  0.00000000E+00
  0.00000000E+00  0.00000000E+00  0.00000000E+00
  0.00000000E+00  0.00000000E+00  0.00000000E+00
  0.00000000E+00  0.00000000E+00  0.00000000E+00
  0.00000000E+00  0.00000000E+00  0.00000000E+00
  0.00000000E+00  0.00000000E+00  0.00000000E+00
  0.00000000E+00  0.00000000E+00  0.00000000E+00
  0.00000000E+00  0.00000000E+00  0.00000000E+00
  0.00000000E+00  0.00000000E+00  0.00000000E+00
  0.00000000E+00  0.00000000E+00  0.00000000E+00
  0.00000000E+00  0.00000000E+00  0.00000000E+00
  0.00000000E+00  0.00000000E+00  0.00000000E+00
  0.00000000E+00  0.00000000E+00  0.00000000E+00
  0.00000000E+00  0.00000000E+00  0.00000000E+00
  0.00000000E+00  0.00000000E+00  0.00000000E+00
  0.00000000E+00  0.00000000E+00  0.00000000E+00
  0.00000000E+00  0.00000000E+00  0.00000000E+00
  0.00000000E+00  0.00000000E+00  0.00000000E+00
  0.00000000E+00  0.00000000E+00  0.00000000E+00
  0.00000000E+00  0.00000000E+00  0.00000000E+00
  0.00000000E+00  0.00000000E+00  0.00000000E+00
  0.00000000E+00  0.00000000E+00  0.00000000E+00
  0.00000000E+00  0.00000000E+00  0.00000000E+00
  0.00000000E+00  0.00000000E+00  0.00000000E+00
  0.00000000E+00  0.00000000E+00  0.00000000E+00
  0.00000000E+00  0.00000000E+00  0.00000000E+00
  0.00000000E+00  0.00000000E+00  0.00000000E+00
  0.00000000E+00  0.00000000E+00  0.00000000E+00
  0.00000000E+00  0.00000000E+00  0.00000000E+00
  0.00000000E+00  0.00000000E+00  0.00000000E+00
  0.00000000E+00  0.00000000E+00  0.00000000E+00
  0.00000000E+00  0.00000000E+00  0.00000000E+00
  0.00000000E+00  0.00000000E+00  0.00000000E+00
  0.00000000E+00  0.00000000E+00  0.00000000E+00
  0.00000000E+00  0.00000000E+00  0.00000000E+00
  0.00000000E+00  0.00000000E+00  0.00000000E+00
  0.00000000E+00  0.00000000E+00  0.00000000E+00
  0.00000000E+00  0.00000000E+00  0.00000000E+00
  0.00000000E+00  0.00000000E+00  0.00000000E+00
  0.00000000E+00  0.00000000E+00  0.00000000E+00
  0.00000000E+00  0.00000000E+00  0.00000000E+00
  0.00000000E+00  0.00000000E+00  0.00000000E+00
