CONTCAR                                 
   1.00000000000000     
    12.3312997818000003    0.0000000000000000    0.0000000000000000
     0.0001127485000000   12.8291997905000006    0.0000000000000000
     0.0005937186000000    0.0011528207000000   19.9943999824000009
   C    N    Fe   Ni   H 
    52     4     1     1     1
Direct
  0.0553739432477493  0.0551025250833828  0.0515826198022145
  0.1559524109059013  0.1105211480635848  0.0517478958241844
  0.1562562792430497  0.2213858839151072  0.0501583198262745
  0.0560677357752896  0.2762212576440908  0.0486842369724635
  0.2563211812329259  0.0560323446238217  0.0542140580716476
  0.3567897823847814  0.1117016934630793  0.0573843914944936
  0.3566815961417175  0.2236378759434927  0.0562704362112827
  0.2560659200295276  0.2773749113470241  0.0514119214670888
  0.4565000528974384  0.0556257823502848  0.0613791559188079
  0.5556557890260739  0.1134523057894368  0.0640698300188657
  0.5562471351431976  0.2270908570444201  0.0651369450964780
  0.4552312723007144  0.2832591765763178  0.0605838392681569
  0.6541769484642613  0.0529091057773972  0.0634741839453410
  0.7541728081140536  0.1104543371728111  0.0600672513225895
  0.7551449610992702  0.2234461450454275  0.0603911159885618
  0.6572543032383192  0.2846775263827523  0.0666809623342255
  0.8540904821731318  0.0539016224417960  0.0560994996171406
  0.9546227363437534  0.1098596961752729  0.0529482492113159
  0.9553676393610739  0.2212968263091079  0.0516116371492870
  0.8558094133071147  0.2778311774049197  0.0545366429068133
  0.0576696017359387  0.3869708804319746  0.0462842230164142
  0.1565641727592186  0.4436805544906054  0.0459844686946775
  0.1568560440995537  0.5545094281079739  0.0453885593382129
  0.0584266988466529  0.6106863980138766  0.0447031781670499
  0.2561042073368512  0.3887023824315445  0.0493452768467801
  0.3551547020980758  0.4440746997735132  0.0534951105135462
  0.3548869868206285  0.5570990486635736  0.0545932023969926
  0.2555816742831906  0.6107526729479803  0.0491686337237049
  0.7623640453175582  0.4494872491184824  0.0599621631482317
  0.8588107277968777  0.3894064438517443  0.0521668909889259
  0.9589667363999381  0.4428091402441016  0.0469358779044989
  0.9604275309358598  0.5535007701564058  0.0460095518958722
  0.8622916887543792  0.6083194274481127  0.0504445619694079
  0.0573659440405764  0.7218254915416732  0.0463526402858884
  0.1557697952471072  0.7780433706302334  0.0485640821220849
  0.1556015183036137  0.8892000179007069  0.0506229251110346
  0.0552536508423273  0.9442141847484140  0.0507773468852900
  0.2545370234980312  0.7219505800808143  0.0507187633571634
  0.3529472549131846  0.7773770714553905  0.0562362818566631
  0.3547755009506168  0.8886805559179024  0.0573886510102561
  0.2555626665915152  0.9447005875154969  0.0538446279981936
  0.4501188143018631  0.7194457763521104  0.0628906974626423
  0.5524425982818373  0.8822498631406690  0.0657782574396519
  0.4554147883226384  0.9428982984151026  0.0619301954007174
  0.7544591426574316  0.8821669294019143  0.0592454426293944
  0.6535544645216335  0.9389815240132857  0.0638236963426268
  0.8598957506439248  0.7202099312550015  0.0508846211576757
  0.9577742779650490  0.7770200608437213  0.0486382843601628
  0.9553586691466486  0.8880502356447036  0.0512040471188156
  0.8538758900486961  0.9415526024029516  0.0554139637051325
  0.6629758659914443  0.3964598064052505  0.0716763094288381
  0.7588727512772554  0.7703158870892307  0.0572526310792083
  0.4518063255401972  0.3913269759392475  0.0596160912115507
  0.4506456139659230  0.6113728314633821  0.0635325608512401
  0.7664025955361642  0.5582495455700789  0.0578065746876135
  0.5471095285219464  0.7724533845367969  0.0688149248643938
  0.6518954049460646  0.6635904816796604  0.0714259940711339
  0.5551448004125922  0.4947052850927312  0.0800359027378550
  0.6201022259176647  0.5638775257301138  0.1286895907732306
 
  0.00000000E+00  0.00000000E+00  0.00000000E+00
  0.00000000E+00  0.00000000E+00  0.00000000E+00
  0.00000000E+00  0.00000000E+00  0.00000000E+00
  0.00000000E+00  0.00000000E+00  0.00000000E+00
  0.00000000E+00  0.00000000E+00  0.00000000E+00
  0.00000000E+00  0.00000000E+00  0.00000000E+00
  0.00000000E+00  0.00000000E+00  0.00000000E+00
  0.00000000E+00  0.00000000E+00  0.00000000E+00
  0.00000000E+00  0.00000000E+00  0.00000000E+00
  0.00000000E+00  0.00000000E+00  0.00000000E+00
  0.00000000E+00  0.00000000E+00  0.00000000E+00
  0.00000000E+00  0.00000000E+00  0.00000000E+00
  0.00000000E+00  0.00000000E+00  0.00000000E+00
  0.00000000E+00  0.00000000E+00  0.00000000E+00
  0.00000000E+00  0.00000000E+00  0.00000000E+00
  0.00000000E+00  0.00000000E+00  0.00000000E+00
  0.00000000E+00  0.00000000E+00  0.00000000E+00
  0.00000000E+00  0.00000000E+00  0.00000000E+00
  0.00000000E+00  0.00000000E+00  0.00000000E+00
  0.00000000E+00  0.00000000E+00  0.00000000E+00
  0.00000000E+00  0.00000000E+00  0.00000000E+00
  0.00000000E+00  0.00000000E+00  0.00000000E+00
  0.00000000E+00  0.00000000E+00  0.00000000E+00
  0.00000000E+00  0.00000000E+00  0.00000000E+00
  0.00000000E+00  0.00000000E+00  0.00000000E+00
  0.00000000E+00  0.00000000E+00  0.00000000E+00
  0.00000000E+00  0.00000000E+00  0.00000000E+00
  0.00000000E+00  0.00000000E+00  0.00000000E+00
  0.00000000E+00  0.00000000E+00  0.00000000E+00
  0.00000000E+00  0.00000000E+00  0.00000000E+00
  0.00000000E+00  0.00000000E+00  0.00000000E+00
  0.00000000E+00  0.00000000E+00  0.00000000E+00
  0.00000000E+00  0.00000000E+00  0.00000000E+00
  0.00000000E+00  0.00000000E+00  0.00000000E+00
  0.00000000E+00  0.00000000E+00  0.00000000E+00
  0.00000000E+00  0.00000000E+00  0.00000000E+00
  0.00000000E+00  0.00000000E+00  0.00000000E+00
  0.00000000E+00  0.00000000E+00  0.00000000E+00
  0.00000000E+00  0.00000000E+00  0.00000000E+00
  0.00000000E+00  0.00000000E+00  0.00000000E+00
  0.00000000E+00  0.00000000E+00  0.00000000E+00
  0.00000000E+00  0.00000000E+00  0.00000000E+00
  0.00000000E+00  0.00000000E+00  0.00000000E+00
  0.00000000E+00  0.00000000E+00  0.00000000E+00
  0.00000000E+00  0.00000000E+00  0.00000000E+00
  0.00000000E+00  0.00000000E+00  0.00000000E+00
  0.00000000E+00  0.00000000E+00  0.00000000E+00
  0.00000000E+00  0.00000000E+00  0.00000000E+00
  0.00000000E+00  0.00000000E+00  0.00000000E+00
  0.00000000E+00  0.00000000E+00  0.00000000E+00
  0.00000000E+00  0.00000000E+00  0.00000000E+00
  0.00000000E+00  0.00000000E+00  0.00000000E+00
  0.00000000E+00  0.00000000E+00  0.00000000E+00
  0.00000000E+00  0.00000000E+00  0.00000000E+00
  0.00000000E+00  0.00000000E+00  0.00000000E+00
  0.00000000E+00  0.00000000E+00  0.00000000E+00
  0.00000000E+00  0.00000000E+00  0.00000000E+00
  0.00000000E+00  0.00000000E+00  0.00000000E+00
  0.00000000E+00  0.00000000E+00  0.00000000E+00
