CONTCAR                                 
   1.00000000000000     
    12.3312997818000003    0.0000000000000000    0.0000000000000000
     0.0001127485000000   12.8291997905000006    0.0000000000000000
     0.0005937186000000    0.0011528207000000   19.9943999824000009
   C    N    Fe   Ni   O    H 
    53     3     1     1     2     2
Direct
  0.0549854956459816  0.0549021955980580  0.0462881326048592
  0.1554551558951020  0.1099041931982009  0.0458787951976002
  0.1552147338475578  0.2209572162331898  0.0457595617387209
  0.0545354717266749  0.2759273784774833  0.0470153911693762
  0.2557518731559232  0.0540880584173862  0.0467556879234280
  0.3563861496496444  0.1087851145667858  0.0506672374979502
  0.3562483133508935  0.2208815076765811  0.0502486059164244
  0.2558083228112664  0.2762239287221079  0.0458726782687004
  0.4560106089487142  0.0517521898102883  0.0553184146653362
  0.5558181003331240  0.1077504283725366  0.0608768987754475
  0.5555924430946848  0.2201388578930998  0.0626020093260837
  0.4560278421972624  0.2778413962237356  0.0556751235950742
  0.6549478071616733  0.0482610210680917  0.0627077725394574
  0.7542615360282883  0.1071125008636050  0.0605453385167687
  0.7545712785417791  0.2198626677612475  0.0627218666018204
  0.6555089588561267  0.2777423166691205  0.0680762136431522
  0.8543732610545448  0.0526875810488317  0.0544119635100903
  0.9542377827478926  0.1094097330609905  0.0504125918421009
  0.9540535308488621  0.2209296693154947  0.0513703185098679
  0.8540084867476158  0.2767723998068705  0.0574462781187795
  0.0542771133811521  0.3871234821418531  0.0450492237241754
  0.1542381397131326  0.4423646279877434  0.0415473556088045
  0.1540449550077593  0.5534221120031696  0.0390120129865891
  0.0549783426560668  0.6093848071682892  0.0389756588492161
  0.2548589047455644  0.3876333720681815  0.0435245613979473
  0.3548125326016166  0.4437598983572391  0.0459478550085379
  0.3534119902064488  0.5570919582641383  0.0455362730521938
  0.2533277642430583  0.6100741038372615  0.0403347139340149
  0.7552547061623287  0.4475339500799084  0.0685643736729636
  0.8542889967500075  0.3891596420636924  0.0574814543918897
  0.9544426696496782  0.4431072905994712  0.0486212002063289
  0.9552700688312989  0.5542032568362830  0.0450475364835591
  0.8572902661008996  0.6111839848985503  0.0532160797885028
  0.0558693438524385  0.7208470066307140  0.0381289616642221
  0.1547287957939203  0.7770035100460037  0.0384884869954072
  0.1552191595624654  0.8880656294951296  0.0413064533027775
  0.0555935610094376  0.9440388396055989  0.0435844114145839
  0.2536223417143167  0.7208200757813235  0.0404248086711823
  0.3530108819205342  0.7751041165553637  0.0463292368060694
  0.3547079933457746  0.8861796083702880  0.0483118179413476
  0.2554519416034816  0.9428780961477877  0.0448504460084327
  0.4505959035935567  0.7169041274331911  0.0545355498930413
  0.5523486801623135  0.8774802075818872  0.0619640653299710
  0.4554155775295466  0.9393307892159980  0.0548465321036287
  0.7578966781480996  0.8809426023665292  0.0605894375182754
  0.6548543229691748  0.9343800943405692  0.0638088545478573
  0.8598790989783608  0.7233900933273574  0.0513580958964253
  0.9576706722665951  0.7777654917610369  0.0424650045666064
  0.9562647299707077  0.8882034090549712  0.0455277736899303
  0.8553547792961828  0.9410486755511299  0.0527098573625277
  0.4542693679389566  0.3892380776296948  0.0537122666621933
  0.6572937485122713  0.3884006744378024  0.0746054443472489
  0.7586079305402477  0.5616311916279199  0.0702942898356657
  0.4492453987096799  0.6094656859364823  0.0532711934482763
  0.5465660182927216  0.7690912845787297  0.0656420222925604
  0.7650648228986530  0.7737749629499392  0.0640162466498984
  0.6706595776145191  0.6746736595282792  0.1110801883335212
  0.5520435012166703  0.4868874354557440  0.0804681354759165
  0.5887439306138569  0.5727456218247065  0.1599864598311158
  0.7575320529582709  0.6953996964703819  0.1827786985647118
  0.7297426787091874  0.6497358656100806  0.2181826174836979
  0.5196628155854377  0.6025806185958783  0.1743834652971254
 
  0.00000000E+00  0.00000000E+00  0.00000000E+00
  0.00000000E+00  0.00000000E+00  0.00000000E+00
  0.00000000E+00  0.00000000E+00  0.00000000E+00
  0.00000000E+00  0.00000000E+00  0.00000000E+00
  0.00000000E+00  0.00000000E+00  0.00000000E+00
  0.00000000E+00  0.00000000E+00  0.00000000E+00
  0.00000000E+00  0.00000000E+00  0.00000000E+00
  0.00000000E+00  0.00000000E+00  0.00000000E+00
  0.00000000E+00  0.00000000E+00  0.00000000E+00
  0.00000000E+00  0.00000000E+00  0.00000000E+00
  0.00000000E+00  0.00000000E+00  0.00000000E+00
  0.00000000E+00  0.00000000E+00  0.00000000E+00
  0.00000000E+00  0.00000000E+00  0.00000000E+00
  0.00000000E+00  0.00000000E+00  0.00000000E+00
  0.00000000E+00  0.00000000E+00  0.00000000E+00
  0.00000000E+00  0.00000000E+00  0.00000000E+00
  0.00000000E+00  0.00000000E+00  0.00000000E+00
  0.00000000E+00  0.00000000E+00  0.00000000E+00
  0.00000000E+00  0.00000000E+00  0.00000000E+00
  0.00000000E+00  0.00000000E+00  0.00000000E+00
  0.00000000E+00  0.00000000E+00  0.00000000E+00
  0.00000000E+00  0.00000000E+00  0.00000000E+00
  0.00000000E+00  0.00000000E+00  0.00000000E+00
  0.00000000E+00  0.00000000E+00  0.00000000E+00
  0.00000000E+00  0.00000000E+00  0.00000000E+00
  0.00000000E+00  0.00000000E+00  0.00000000E+00
  0.00000000E+00  0.00000000E+00  0.00000000E+00
  0.00000000E+00  0.00000000E+00  0.00000000E+00
  0.00000000E+00  0.00000000E+00  0.00000000E+00
  0.00000000E+00  0.00000000E+00  0.00000000E+00
  0.00000000E+00  0.00000000E+00  0.00000000E+00
  0.00000000E+00  0.00000000E+00  0.00000000E+00
  0.00000000E+00  0.00000000E+00  0.00000000E+00
  0.00000000E+00  0.00000000E+00  0.00000000E+00
  0.00000000E+00  0.00000000E+00  0.00000000E+00
  0.00000000E+00  0.00000000E+00  0.00000000E+00
  0.00000000E+00  0.00000000E+00  0.00000000E+00
  0.00000000E+00  0.00000000E+00  0.00000000E+00
  0.00000000E+00  0.00000000E+00  0.00000000E+00
  0.00000000E+00  0.00000000E+00  0.00000000E+00
  0.00000000E+00  0.00000000E+00  0.00000000E+00
  0.00000000E+00  0.00000000E+00  0.00000000E+00
  0.00000000E+00  0.00000000E+00  0.00000000E+00
  0.00000000E+00  0.00000000E+00  0.00000000E+00
  0.00000000E+00  0.00000000E+00  0.00000000E+00
  0.00000000E+00  0.00000000E+00  0.00000000E+00
  0.00000000E+00  0.00000000E+00  0.00000000E+00
  0.00000000E+00  0.00000000E+00  0.00000000E+00
  0.00000000E+00  0.00000000E+00  0.00000000E+00
  0.00000000E+00  0.00000000E+00  0.00000000E+00
  0.00000000E+00  0.00000000E+00  0.00000000E+00
  0.00000000E+00  0.00000000E+00  0.00000000E+00
  0.00000000E+00  0.00000000E+00  0.00000000E+00
  0.00000000E+00  0.00000000E+00  0.00000000E+00
  0.00000000E+00  0.00000000E+00  0.00000000E+00
  0.00000000E+00  0.00000000E+00  0.00000000E+00
  0.00000000E+00  0.00000000E+00  0.00000000E+00
  0.00000000E+00  0.00000000E+00  0.00000000E+00
  0.00000000E+00  0.00000000E+00  0.00000000E+00
  0.00000000E+00  0.00000000E+00  0.00000000E+00
  0.00000000E+00  0.00000000E+00  0.00000000E+00
  0.00000000E+00  0.00000000E+00  0.00000000E+00
