CONTCAR\(2)                             
   1.00000000000000     
    12.3312997818000003    0.0000000000000000    0.0000000000000000
     0.0001127485000000   12.8291997905000006    0.0000000000000000
     0.0005937186000000    0.0011528207000000   19.9943999824000009
   C    N    Fe   Ni   O 
    53     3     1     1     1
Direct
  0.0561209121559635  0.0543362511505597  0.0507650907817466
  0.1566576496625177  0.1096306231969638  0.0507010659859031
  0.1565428897774782  0.2203434651031372  0.0487286337721410
  0.0563611266880746  0.2757045914925368  0.0472508822873882
  0.2574509498532702  0.0551199565963947  0.0532842238244318
  0.3577018289700090  0.1115357483020569  0.0565955626215721
  0.3576465251880132  0.2234623342774493  0.0554709168703058
  0.2562953044684875  0.2762163434558527  0.0498229508429402
  0.4577026176215341  0.0557646703261906  0.0613214352751641
  0.5581609616901656  0.1132409945158417  0.0641297844769523
  0.5585853161630741  0.2266895182929996  0.0650431661376706
  0.4571727164066700  0.2829712035672790  0.0610539447956844
  0.6570309557865738  0.0531346527637509  0.0635185894348304
  0.7559870261270448  0.1102350554219239  0.0596422312657190
  0.7568474684169981  0.2230130795032624  0.0595296463212435
  0.6601413137706494  0.2839483288415011  0.0652510052089693
  0.8554798764039537  0.0537701291760703  0.0556178847414037
  0.9559629657423050  0.1091580446374411  0.0523116279856191
  0.9565982418204182  0.2205014815692110  0.0507798859425003
  0.8572912975823385  0.2768658918487027  0.0537335419126951
  0.0559844047647288  0.3869531721792452  0.0442325306564048
  0.1545847565829183  0.4430553636462006  0.0435699680795804
  0.1542448309505717  0.5545384447616394  0.0430044481212583
  0.0556574029400858  0.6104786720491386  0.0423313657656725
  0.2536988195921770  0.3869842559353491  0.0472714857712179
  0.3509059834896824  0.4432203590697533  0.0526404030516989
  0.3502502048528446  0.5549126155699579  0.0538632283840932
  0.2529774711417909  0.6110307653304785  0.0473903911863920
  0.7602538135736687  0.4457767047122402  0.0573238001844707
  0.8583660939674684  0.3879343780101365  0.0508661173089992
  0.9570785673811426  0.4430191927626681  0.0450090254267127
  0.9568578751622748  0.5543070882123183  0.0436343136949487
  0.8567955363477232  0.6074199868231479  0.0473085157896160
  0.0559325730237227  0.7215861029681826  0.0441016617787387
  0.1552551817330031  0.7777063445705106  0.0468550255590258
  0.1563250723234947  0.8885447064929101  0.0494132247987829
  0.0560476459532488  0.9433931870761810  0.0497046008193856
  0.2543703832911615  0.7220075585088095  0.0496221840556199
  0.3541135259520584  0.7757379709324439  0.0572004065040088
  0.3564507486557704  0.8876061205190683  0.0577483155834890
  0.2569570156437209  0.9436960939002225  0.0531378281927320
  0.4517767309410488  0.7165611309977248  0.0672650443793138
  0.5554859855432788  0.8839147462147844  0.0684958738736748
  0.4567565394381580  0.9433799152368709  0.0626873708353538
  0.7570099357594146  0.8828667237900544  0.0594376334551976
  0.6567700080031293  0.9397340471681276  0.0649118861358324
  0.8565714832421524  0.7212076173374785  0.0491056344303597
  0.9562626948240186  0.7763607737588329  0.0468919462296023
  0.9561856208869098  0.8876669393701400  0.0501073887917746
  0.8556608274073970  0.9417147392101369  0.0547688127979630
  0.4516346454712119  0.3940107649185854  0.0612537753536077
  0.4492393476593034  0.6043542732921356  0.0669404248827332
  0.5500782700934778  0.7738854977984055  0.0760247191184316
  0.6648728930688332  0.3931631321638833  0.0685568154132783
  0.7614490667078363  0.5536654542902960  0.0533079995651521
  0.7598153098146317  0.7737685254985994  0.0573149340872041
  0.6558018521620098  0.6697504128559701  0.0846263418705979
  0.5538414289923015  0.4960396923330488  0.0861297579066310
  0.6134617173661220  0.5890642736951979  0.1474627296755406
 
  0.00000000E+00  0.00000000E+00  0.00000000E+00
  0.00000000E+00  0.00000000E+00  0.00000000E+00
  0.00000000E+00  0.00000000E+00  0.00000000E+00
  0.00000000E+00  0.00000000E+00  0.00000000E+00
  0.00000000E+00  0.00000000E+00  0.00000000E+00
  0.00000000E+00  0.00000000E+00  0.00000000E+00
  0.00000000E+00  0.00000000E+00  0.00000000E+00
  0.00000000E+00  0.00000000E+00  0.00000000E+00
  0.00000000E+00  0.00000000E+00  0.00000000E+00
  0.00000000E+00  0.00000000E+00  0.00000000E+00
  0.00000000E+00  0.00000000E+00  0.00000000E+00
  0.00000000E+00  0.00000000E+00  0.00000000E+00
  0.00000000E+00  0.00000000E+00  0.00000000E+00
  0.00000000E+00  0.00000000E+00  0.00000000E+00
  0.00000000E+00  0.00000000E+00  0.00000000E+00
  0.00000000E+00  0.00000000E+00  0.00000000E+00
  0.00000000E+00  0.00000000E+00  0.00000000E+00
  0.00000000E+00  0.00000000E+00  0.00000000E+00
  0.00000000E+00  0.00000000E+00  0.00000000E+00
  0.00000000E+00  0.00000000E+00  0.00000000E+00
  0.00000000E+00  0.00000000E+00  0.00000000E+00
  0.00000000E+00  0.00000000E+00  0.00000000E+00
  0.00000000E+00  0.00000000E+00  0.00000000E+00
  0.00000000E+00  0.00000000E+00  0.00000000E+00
  0.00000000E+00  0.00000000E+00  0.00000000E+00
  0.00000000E+00  0.00000000E+00  0.00000000E+00
  0.00000000E+00  0.00000000E+00  0.00000000E+00
  0.00000000E+00  0.00000000E+00  0.00000000E+00
  0.00000000E+00  0.00000000E+00  0.00000000E+00
  0.00000000E+00  0.00000000E+00  0.00000000E+00
  0.00000000E+00  0.00000000E+00  0.00000000E+00
  0.00000000E+00  0.00000000E+00  0.00000000E+00
  0.00000000E+00  0.00000000E+00  0.00000000E+00
  0.00000000E+00  0.00000000E+00  0.00000000E+00
  0.00000000E+00  0.00000000E+00  0.00000000E+00
  0.00000000E+00  0.00000000E+00  0.00000000E+00
  0.00000000E+00  0.00000000E+00  0.00000000E+00
  0.00000000E+00  0.00000000E+00  0.00000000E+00
  0.00000000E+00  0.00000000E+00  0.00000000E+00
  0.00000000E+00  0.00000000E+00  0.00000000E+00
  0.00000000E+00  0.00000000E+00  0.00000000E+00
  0.00000000E+00  0.00000000E+00  0.00000000E+00
  0.00000000E+00  0.00000000E+00  0.00000000E+00
  0.00000000E+00  0.00000000E+00  0.00000000E+00
  0.00000000E+00  0.00000000E+00  0.00000000E+00
  0.00000000E+00  0.00000000E+00  0.00000000E+00
  0.00000000E+00  0.00000000E+00  0.00000000E+00
  0.00000000E+00  0.00000000E+00  0.00000000E+00
  0.00000000E+00  0.00000000E+00  0.00000000E+00
  0.00000000E+00  0.00000000E+00  0.00000000E+00
  0.00000000E+00  0.00000000E+00  0.00000000E+00
  0.00000000E+00  0.00000000E+00  0.00000000E+00
  0.00000000E+00  0.00000000E+00  0.00000000E+00
  0.00000000E+00  0.00000000E+00  0.00000000E+00
  0.00000000E+00  0.00000000E+00  0.00000000E+00
  0.00000000E+00  0.00000000E+00  0.00000000E+00
  0.00000000E+00  0.00000000E+00  0.00000000E+00
  0.00000000E+00  0.00000000E+00  0.00000000E+00
  0.00000000E+00  0.00000000E+00  0.00000000E+00
