CONTCAR\(2)                             
   1.00000000000000     
    12.3312997818000003    0.0000000000000000    0.0000000000000000
     0.0001127485000000   12.8291997905000006    0.0000000000000000
     0.0005937186000000    0.0011528207000000   19.9943999824000009
   C    N    Fe   Ni   O 
    55     1     1     1     2
Direct
  0.0561974514058114  0.0552439616371691  0.0500272813002513
  0.1564600321471942  0.1101990638732737  0.0498128002899413
  0.1560255884677696  0.2210843532968656  0.0492494678589239
  0.0557173738198445  0.2765986308364075  0.0481738219664283
  0.2569115942825963  0.0548939681492703  0.0508345613006360
  0.3572168182596152  0.1104151139313938  0.0536558814715357
  0.3570048538530112  0.2221661347624950  0.0543641163488179
  0.2560997640337933  0.2762550958533906  0.0508393951469175
  0.4569997873493513  0.0538555061797313  0.0562261514680186
  0.5570656187440171  0.1100959797173803  0.0597068894860259
  0.5567930661011556  0.2220217362419120  0.0618907585454467
  0.4568218886011568  0.2797595677652820  0.0591626256690867
  0.6572070331662604  0.0522427656684438  0.0601271134629692
  0.7561614111301996  0.1098351709138052  0.0577498501391128
  0.7559645856138297  0.2220354518121856  0.0578135336175457
  0.6567158710957286  0.2795189054285179  0.0633203069075545
  0.8557507804705652  0.0539933424193630  0.0547052362899462
  0.9556766584009756  0.1100650586532372  0.0515447059706382
  0.9554150324448070  0.2215761898385230  0.0503963088077662
  0.8555806151053141  0.2778900941172076  0.0529040577375015
  0.0555564743164523  0.3878656039078638  0.0465216981580361
  0.1550440996400720  0.4430392740338117  0.0468774787432442
  0.1552997718011524  0.5543778033707574  0.0460397270139681
  0.0562747093490851  0.6103455714363711  0.0449031413995841
  0.2548211161320715  0.3870529801718189  0.0498902782082404
  0.3535267081474482  0.4425748370855573  0.0540087101487871
  0.3537391540288584  0.5547998858102930  0.0534084683942134
  0.2547069613993732  0.6103517499980532  0.0482536121972562
  0.7561894258035325  0.4479398824724688  0.0572507559905247
  0.8557151583383210  0.3897377887416033  0.0508872372826333
  0.9557381588036858  0.4442066414064210  0.0466229046680218
  0.9566042215976164  0.5552631025573397  0.0457168988266502
  0.8570001996233481  0.6116328669777591  0.0494200653721033
  0.0566855776997516  0.7217078665187354  0.0458672117654345
  0.1559261775978675  0.7774253419107395  0.0463058240623577
  0.1565817215661902  0.8885869297130360  0.0478189876836357
  0.0567534846196091  0.9443948340284930  0.0493591719166028
  0.2552761498188959  0.7213301504144679  0.0473662605147493
  0.3550554539479557  0.7756393906536815  0.0501085267771893
  0.3566557972162078  0.8870171614713473  0.0510537199547986
  0.2569670452417029  0.9435468332137523  0.0495001858451499
  0.4537195054631301  0.7173287345744631  0.0572376855419325
  0.5565839157665174  0.8837247551499875  0.0603529666956085
  0.4570090731248329  0.9419920273595392  0.0553264193318639
  0.7579659741130355  0.8831195749362888  0.0601092524747506
  0.6574288875804842  0.9396592563925731  0.0614257197795823
  0.8584625122013650  0.7238653004880186  0.0524773797014868
  0.9575652471874689  0.7782975549774006  0.0490798895182999
  0.9572553878522242  0.8889343321463742  0.0512579532502944
  0.8563990489679248  0.9420915095466347  0.0552889842238842
  0.4542493231686193  0.3909122108917557  0.0604707579569184
  0.4537216814568780  0.6061910828139871  0.0615992025693875
  0.6585172944101565  0.3902118345461880  0.0687761466523590
  0.7573299843514515  0.5603491526574363  0.0557253627538016
  0.5522832277900934  0.7735151168910810  0.0642329645126083
  0.7612467634048857  0.7742743210879768  0.0614722310158935
  0.6549775081629291  0.6730306608629727  0.0912378415137670
  0.5559262534418097  0.4913059204595785  0.0861572990114265
  0.6006506925797280  0.6732892621985372  0.1756975321732358
  0.6354542707942855  0.5692648890289747  0.1582486836146563
 
  0.00000000E+00  0.00000000E+00  0.00000000E+00
  0.00000000E+00  0.00000000E+00  0.00000000E+00
  0.00000000E+00  0.00000000E+00  0.00000000E+00
  0.00000000E+00  0.00000000E+00  0.00000000E+00
  0.00000000E+00  0.00000000E+00  0.00000000E+00
  0.00000000E+00  0.00000000E+00  0.00000000E+00
  0.00000000E+00  0.00000000E+00  0.00000000E+00
  0.00000000E+00  0.00000000E+00  0.00000000E+00
  0.00000000E+00  0.00000000E+00  0.00000000E+00
  0.00000000E+00  0.00000000E+00  0.00000000E+00
  0.00000000E+00  0.00000000E+00  0.00000000E+00
  0.00000000E+00  0.00000000E+00  0.00000000E+00
  0.00000000E+00  0.00000000E+00  0.00000000E+00
  0.00000000E+00  0.00000000E+00  0.00000000E+00
  0.00000000E+00  0.00000000E+00  0.00000000E+00
  0.00000000E+00  0.00000000E+00  0.00000000E+00
  0.00000000E+00  0.00000000E+00  0.00000000E+00
  0.00000000E+00  0.00000000E+00  0.00000000E+00
  0.00000000E+00  0.00000000E+00  0.00000000E+00
  0.00000000E+00  0.00000000E+00  0.00000000E+00
  0.00000000E+00  0.00000000E+00  0.00000000E+00
  0.00000000E+00  0.00000000E+00  0.00000000E+00
  0.00000000E+00  0.00000000E+00  0.00000000E+00
  0.00000000E+00  0.00000000E+00  0.00000000E+00
  0.00000000E+00  0.00000000E+00  0.00000000E+00
  0.00000000E+00  0.00000000E+00  0.00000000E+00
  0.00000000E+00  0.00000000E+00  0.00000000E+00
  0.00000000E+00  0.00000000E+00  0.00000000E+00
  0.00000000E+00  0.00000000E+00  0.00000000E+00
  0.00000000E+00  0.00000000E+00  0.00000000E+00
  0.00000000E+00  0.00000000E+00  0.00000000E+00
  0.00000000E+00  0.00000000E+00  0.00000000E+00
  0.00000000E+00  0.00000000E+00  0.00000000E+00
  0.00000000E+00  0.00000000E+00  0.00000000E+00
  0.00000000E+00  0.00000000E+00  0.00000000E+00
  0.00000000E+00  0.00000000E+00  0.00000000E+00
  0.00000000E+00  0.00000000E+00  0.00000000E+00
  0.00000000E+00  0.00000000E+00  0.00000000E+00
  0.00000000E+00  0.00000000E+00  0.00000000E+00
  0.00000000E+00  0.00000000E+00  0.00000000E+00
  0.00000000E+00  0.00000000E+00  0.00000000E+00
  0.00000000E+00  0.00000000E+00  0.00000000E+00
  0.00000000E+00  0.00000000E+00  0.00000000E+00
  0.00000000E+00  0.00000000E+00  0.00000000E+00
  0.00000000E+00  0.00000000E+00  0.00000000E+00
  0.00000000E+00  0.00000000E+00  0.00000000E+00
  0.00000000E+00  0.00000000E+00  0.00000000E+00
  0.00000000E+00  0.00000000E+00  0.00000000E+00
  0.00000000E+00  0.00000000E+00  0.00000000E+00
  0.00000000E+00  0.00000000E+00  0.00000000E+00
  0.00000000E+00  0.00000000E+00  0.00000000E+00
  0.00000000E+00  0.00000000E+00  0.00000000E+00
  0.00000000E+00  0.00000000E+00  0.00000000E+00
  0.00000000E+00  0.00000000E+00  0.00000000E+00
  0.00000000E+00  0.00000000E+00  0.00000000E+00
  0.00000000E+00  0.00000000E+00  0.00000000E+00
  0.00000000E+00  0.00000000E+00  0.00000000E+00
  0.00000000E+00  0.00000000E+00  0.00000000E+00
  0.00000000E+00  0.00000000E+00  0.00000000E+00
  0.00000000E+00  0.00000000E+00  0.00000000E+00
