CONTCAR\(2)                             
   1.00000000000000     
    12.3312997818000003    0.0000000000000000    0.0000000000000000
     0.0001127485000000   12.8291997905000006    0.0000000000000000
     0.0005937186000000    0.0011528207000000   19.9943999824000009
   C    N    Fe   Ni   O    H 
    53     3     1     1     2     2
Direct
  0.0570629729594969  0.0509612829139202  0.0456072223443525
  0.1575919806749798  0.1059968319426739  0.0453309828864989
  0.1570402594246201  0.2168301360873983  0.0435912440905942
  0.0567657404871064  0.2725198088890013  0.0431720975234670
  0.2585554724450222  0.0512006593712180  0.0478606215385172
  0.3588226121157962  0.1074800943975741  0.0517376066903208
  0.3584772334361329  0.2196111582750531  0.0499291840763020
  0.2568354338593321  0.2724447200397282  0.0440819514324724
  0.4588078846031768  0.0514427531780155  0.0575956887036854
  0.5587217776877429  0.1094289210183426  0.0619897183505077
  0.5589520519761768  0.2228495021684975  0.0622331981354254
  0.4579678059346292  0.2792168447224729  0.0553035934485055
  0.6578689220197584  0.0495374572561892  0.0629251074204562
  0.7570050812870431  0.1068095866620724  0.0586557718634422
  0.7577987257045532  0.2193029770215189  0.0589756212937451
  0.6606482981833742  0.2799700993315334  0.0645635827202800
  0.8566999661512544  0.0509867794275113  0.0529838621063713
  0.9568752389812546  0.1061819199702625  0.0484441229583416
  0.9571115667246756  0.2174527058667554  0.0477316112924123
  0.8577278295049482  0.2736502420271399  0.0527454399128689
  0.0557467073850011  0.3838877836248907  0.0403552177229788
  0.1544430917701997  0.4396195954189518  0.0380818524823570
  0.1537686504369096  0.5511848439978033  0.0367261400667700
  0.0547905059039749  0.6071661671956966  0.0371640653735740
  0.2537407842453314  0.3832128914458082  0.0410112706904325
  0.3510868336939957  0.4393883370721147  0.0448982123833328
  0.3502299221991793  0.5510710062543080  0.0463773246257949
  0.2529372031234334  0.6073699660570352  0.0399909540514853
  0.7602047864026474  0.4425001390346078  0.0598775505749609
  0.8582571190201765  0.3851254301830259  0.0513137186796218
  0.9566448450169954  0.4401821166562260  0.0433231669229386
  0.9554703322236048  0.5514459786522008  0.0414100596646926
  0.8548824448413677  0.6047002528517743  0.0485659370194370
  0.0563347939095040  0.7183140914010507  0.0381029073001512
  0.1563378644657137  0.7740681655017488  0.0399731864902282
  0.1575205390698820  0.8849339161928440  0.0429928690026798
  0.0572295493140616  0.9400545482157597  0.0440786387880602
  0.2557955665502724  0.7181954603807073  0.0422838304318340
  0.3565239007070615  0.7711060157842902  0.0503360983519990
  0.3581621777132977  0.8830347780891065  0.0519261469874614
  0.2584122915467751  0.9396272108442895  0.0471604816642062
  0.4544643930110357  0.7106703554931536  0.0610623864106388
  0.5571819887183674  0.8790629856139133  0.0665284443494830
  0.4583486243222794  0.9385917537615769  0.0586168978281371
  0.7593468102464275  0.8810332905267352  0.0595434992534011
  0.6579741607068280  0.9364802554892878  0.0651918346412948
  0.8569252804847527  0.7188873536622624  0.0485956817793819
  0.9568219808732348  0.7734123301015779  0.0423286760877680
  0.9572168897358954  0.8846522757735844  0.0455267600980164
  0.8573537067611202  0.9393014657276167  0.0519059659217854
  0.4521883162724278  0.3904384954215547  0.0529687373814675
  0.4497666295204195  0.5985557598391836  0.0602013890408818
  0.5523335691383489  0.7678762858025895  0.0729543054737030
  0.6650158837671692  0.3883959253038007  0.0688837688513801
  0.7593128663537385  0.5515715588530178  0.0584272846403589
  0.7629982344415359  0.7731995503320290  0.0608498688437896
  0.6661214881028691  0.6837355786216139  0.1062535253771138
  0.5530522732343904  0.4904294329907256  0.0788634428657158
  0.6053199644213894  0.5738832840754028  0.1555788095468474
  0.6885075503740388  0.7610179276280747  0.1803216445109497
  0.6649310807085119  0.7194239622973124  0.2187274224423603
  0.5412017931047897  0.5952471322638699  0.1807618025919428
 
  0.00000000E+00  0.00000000E+00  0.00000000E+00
  0.00000000E+00  0.00000000E+00  0.00000000E+00
  0.00000000E+00  0.00000000E+00  0.00000000E+00
  0.00000000E+00  0.00000000E+00  0.00000000E+00
  0.00000000E+00  0.00000000E+00  0.00000000E+00
  0.00000000E+00  0.00000000E+00  0.00000000E+00
  0.00000000E+00  0.00000000E+00  0.00000000E+00
  0.00000000E+00  0.00000000E+00  0.00000000E+00
  0.00000000E+00  0.00000000E+00  0.00000000E+00
  0.00000000E+00  0.00000000E+00  0.00000000E+00
  0.00000000E+00  0.00000000E+00  0.00000000E+00
  0.00000000E+00  0.00000000E+00  0.00000000E+00
  0.00000000E+00  0.00000000E+00  0.00000000E+00
  0.00000000E+00  0.00000000E+00  0.00000000E+00
  0.00000000E+00  0.00000000E+00  0.00000000E+00
  0.00000000E+00  0.00000000E+00  0.00000000E+00
  0.00000000E+00  0.00000000E+00  0.00000000E+00
  0.00000000E+00  0.00000000E+00  0.00000000E+00
  0.00000000E+00  0.00000000E+00  0.00000000E+00
  0.00000000E+00  0.00000000E+00  0.00000000E+00
  0.00000000E+00  0.00000000E+00  0.00000000E+00
  0.00000000E+00  0.00000000E+00  0.00000000E+00
  0.00000000E+00  0.00000000E+00  0.00000000E+00
  0.00000000E+00  0.00000000E+00  0.00000000E+00
  0.00000000E+00  0.00000000E+00  0.00000000E+00
  0.00000000E+00  0.00000000E+00  0.00000000E+00
  0.00000000E+00  0.00000000E+00  0.00000000E+00
  0.00000000E+00  0.00000000E+00  0.00000000E+00
  0.00000000E+00  0.00000000E+00  0.00000000E+00
  0.00000000E+00  0.00000000E+00  0.00000000E+00
  0.00000000E+00  0.00000000E+00  0.00000000E+00
  0.00000000E+00  0.00000000E+00  0.00000000E+00
  0.00000000E+00  0.00000000E+00  0.00000000E+00
  0.00000000E+00  0.00000000E+00  0.00000000E+00
  0.00000000E+00  0.00000000E+00  0.00000000E+00
  0.00000000E+00  0.00000000E+00  0.00000000E+00
  0.00000000E+00  0.00000000E+00  0.00000000E+00
  0.00000000E+00  0.00000000E+00  0.00000000E+00
  0.00000000E+00  0.00000000E+00  0.00000000E+00
  0.00000000E+00  0.00000000E+00  0.00000000E+00
  0.00000000E+00  0.00000000E+00  0.00000000E+00
  0.00000000E+00  0.00000000E+00  0.00000000E+00
  0.00000000E+00  0.00000000E+00  0.00000000E+00
  0.00000000E+00  0.00000000E+00  0.00000000E+00
  0.00000000E+00  0.00000000E+00  0.00000000E+00
  0.00000000E+00  0.00000000E+00  0.00000000E+00
  0.00000000E+00  0.00000000E+00  0.00000000E+00
  0.00000000E+00  0.00000000E+00  0.00000000E+00
  0.00000000E+00  0.00000000E+00  0.00000000E+00
  0.00000000E+00  0.00000000E+00  0.00000000E+00
  0.00000000E+00  0.00000000E+00  0.00000000E+00
  0.00000000E+00  0.00000000E+00  0.00000000E+00
  0.00000000E+00  0.00000000E+00  0.00000000E+00
  0.00000000E+00  0.00000000E+00  0.00000000E+00
  0.00000000E+00  0.00000000E+00  0.00000000E+00
  0.00000000E+00  0.00000000E+00  0.00000000E+00
  0.00000000E+00  0.00000000E+00  0.00000000E+00
  0.00000000E+00  0.00000000E+00  0.00000000E+00
  0.00000000E+00  0.00000000E+00  0.00000000E+00
  0.00000000E+00  0.00000000E+00  0.00000000E+00
  0.00000000E+00  0.00000000E+00  0.00000000E+00
  0.00000000E+00  0.00000000E+00  0.00000000E+00
