CONTCAR                                 
   1.00000000000000     
    12.3312997818000003    0.0000000000000000    0.0000000000000000
     0.0001127485000000   12.8291997905000006    0.0000000000000000
     0.0005937186000000    0.0011528207000000   19.9943999824000009
   C    N    Fe   Ni   O 
    54     2     1     1     2
Direct
  0.0558075418644821  0.0558482843122845  0.0506971820557243
  0.1557966906806822  0.1113830367259002  0.0504991387561523
  0.1560086095943090  0.2222851970070344  0.0493166279803652
  0.0562705699104744  0.2775688255990862  0.0479590413342116
  0.2560304130972665  0.0566930481193640  0.0520571641372355
  0.3564336406894310  0.1124963672905008  0.0549648144251036
  0.3565116219703168  0.2241514166446438  0.0549831728018069
  0.2559103666232062  0.2778119023123273  0.0507265911980813
  0.4558070353681595  0.0566877580579402  0.0583172037935631
  0.5558028711682576  0.1130503283767463  0.0614284742154873
  0.5557816561236397  0.2251977607227862  0.0630548570758934
  0.4553244301932454  0.2823164894356116  0.0597355212203366
  0.6562637558978779  0.0540974828368758  0.0610984064893518
  0.7558987409886223  0.1109054857354655  0.0578864212827192
  0.7565743273072262  0.2227753922810925  0.0574763884339523
  0.6573238426275623  0.2809998508888256  0.0635961251681361
  0.8550606761628867  0.0545305446733034  0.0549337519005001
  0.9554437382213231  0.1105081784820266  0.0518853925462503
  0.9560967454485397  0.2217601268757630  0.0503923543143671
  0.8566274738530474  0.2778483228934621  0.0525080048499069
  0.0572787726124008  0.3889414034027469  0.0459356362581534
  0.1565439632867831  0.4445013886222825  0.0460732019797742
  0.1567475785980197  0.5559017255051958  0.0457335327910547
  0.0569934027964893  0.6112873215256834  0.0453874069188044
  0.2560682269575373  0.3884520567951137  0.0490854102514129
  0.3557910389789007  0.4427759705728642  0.0530797192162148
  0.3576584692546487  0.5559438058246928  0.0530378960760327
  0.2565304528294223  0.6111706731913868  0.0480921260632456
  0.7602401624679640  0.4467991240944111  0.0569211390223175
  0.8585609819952039  0.3892295104633663  0.0504923869228509
  0.9575974386850238  0.4448809922672142  0.0462633767958661
  0.9573741316184737  0.5559243008616730  0.0459967360217057
  0.8568143544545086  0.6111961050072163  0.0489526946541774
  0.0558403593111963  0.7225318825584652  0.0466768198308352
  0.1547773445913888  0.7781079532777906  0.0475510440594509
  0.1555289690298246  0.8895814607513148  0.0491904733083902
  0.0557469981626359  0.9449333114279146  0.0501822274333363
  0.2544524327251380  0.7222780262477603  0.0484974387749685
  0.3527120234458123  0.7785431640760722  0.0525277832846305
  0.3550525484928410  0.8897958854473630  0.0536267042753737
  0.2554568462374202  0.9455771009318378  0.0512072136953141
  0.4508687878012676  0.7220394488500081  0.0606144430881064
  0.5543740012214706  0.8874123622397400  0.0633944778283634
  0.4550932269806804  0.9450946594675245  0.0582906398774453
  0.7561425230262010  0.8833423535482176  0.0592151413120452
  0.6562343328045149  0.9418644922983161  0.0623054513357327
  0.8564240750552258  0.7242256492013428  0.0513693365975673
  0.9560268107405525  0.7786581730467217  0.0493067146992583
  0.9558843644868119  0.8892610336911041  0.0514408957151047
  0.8549501493317920  0.9424130154345998  0.0552151847239511
  0.4562452183071579  0.6100469402066853  0.0620838299556805
  0.6631207000035328  0.3898817208104320  0.0682528871212190
  0.7582353400598421  0.5580768389667486  0.0542200108914933
  0.5483011516936578  0.7789180981081408  0.0678575609083031
  0.4522227934388987  0.3909950037321959  0.0596968999191568
  0.7588191701527447  0.7740685470249458  0.0578967434023573
  0.6406576800149292  0.6638648562273256  0.0738158295662638
  0.5603791165568447  0.4901492723027148  0.0844724409951700
  0.6410942315908605  0.6435729140383685  0.1613974844206422
  0.6150549934108358  0.5387158116814608  0.1669364370290647
 
  0.00000000E+00  0.00000000E+00  0.00000000E+00
  0.00000000E+00  0.00000000E+00  0.00000000E+00
  0.00000000E+00  0.00000000E+00  0.00000000E+00
  0.00000000E+00  0.00000000E+00  0.00000000E+00
  0.00000000E+00  0.00000000E+00  0.00000000E+00
  0.00000000E+00  0.00000000E+00  0.00000000E+00
  0.00000000E+00  0.00000000E+00  0.00000000E+00
  0.00000000E+00  0.00000000E+00  0.00000000E+00
  0.00000000E+00  0.00000000E+00  0.00000000E+00
  0.00000000E+00  0.00000000E+00  0.00000000E+00
  0.00000000E+00  0.00000000E+00  0.00000000E+00
  0.00000000E+00  0.00000000E+00  0.00000000E+00
  0.00000000E+00  0.00000000E+00  0.00000000E+00
  0.00000000E+00  0.00000000E+00  0.00000000E+00
  0.00000000E+00  0.00000000E+00  0.00000000E+00
  0.00000000E+00  0.00000000E+00  0.00000000E+00
  0.00000000E+00  0.00000000E+00  0.00000000E+00
  0.00000000E+00  0.00000000E+00  0.00000000E+00
  0.00000000E+00  0.00000000E+00  0.00000000E+00
  0.00000000E+00  0.00000000E+00  0.00000000E+00
  0.00000000E+00  0.00000000E+00  0.00000000E+00
  0.00000000E+00  0.00000000E+00  0.00000000E+00
  0.00000000E+00  0.00000000E+00  0.00000000E+00
  0.00000000E+00  0.00000000E+00  0.00000000E+00
  0.00000000E+00  0.00000000E+00  0.00000000E+00
  0.00000000E+00  0.00000000E+00  0.00000000E+00
  0.00000000E+00  0.00000000E+00  0.00000000E+00
  0.00000000E+00  0.00000000E+00  0.00000000E+00
  0.00000000E+00  0.00000000E+00  0.00000000E+00
  0.00000000E+00  0.00000000E+00  0.00000000E+00
  0.00000000E+00  0.00000000E+00  0.00000000E+00
  0.00000000E+00  0.00000000E+00  0.00000000E+00
  0.00000000E+00  0.00000000E+00  0.00000000E+00
  0.00000000E+00  0.00000000E+00  0.00000000E+00
  0.00000000E+00  0.00000000E+00  0.00000000E+00
  0.00000000E+00  0.00000000E+00  0.00000000E+00
  0.00000000E+00  0.00000000E+00  0.00000000E+00
  0.00000000E+00  0.00000000E+00  0.00000000E+00
  0.00000000E+00  0.00000000E+00  0.00000000E+00
  0.00000000E+00  0.00000000E+00  0.00000000E+00
  0.00000000E+00  0.00000000E+00  0.00000000E+00
  0.00000000E+00  0.00000000E+00  0.00000000E+00
  0.00000000E+00  0.00000000E+00  0.00000000E+00
  0.00000000E+00  0.00000000E+00  0.00000000E+00
  0.00000000E+00  0.00000000E+00  0.00000000E+00
  0.00000000E+00  0.00000000E+00  0.00000000E+00
  0.00000000E+00  0.00000000E+00  0.00000000E+00
  0.00000000E+00  0.00000000E+00  0.00000000E+00
  0.00000000E+00  0.00000000E+00  0.00000000E+00
  0.00000000E+00  0.00000000E+00  0.00000000E+00
  0.00000000E+00  0.00000000E+00  0.00000000E+00
  0.00000000E+00  0.00000000E+00  0.00000000E+00
  0.00000000E+00  0.00000000E+00  0.00000000E+00
  0.00000000E+00  0.00000000E+00  0.00000000E+00
  0.00000000E+00  0.00000000E+00  0.00000000E+00
  0.00000000E+00  0.00000000E+00  0.00000000E+00
  0.00000000E+00  0.00000000E+00  0.00000000E+00
  0.00000000E+00  0.00000000E+00  0.00000000E+00
  0.00000000E+00  0.00000000E+00  0.00000000E+00
  0.00000000E+00  0.00000000E+00  0.00000000E+00
