CONTCAR\(2)\(3)                         
   1.00000000000000     
    12.3312997818000003    0.0000000000000000    0.0000000000000000
     0.0001127485000000   12.8291997905000006    0.0000000000000000
     0.0005937186000000    0.0011528207000000   19.9943999824000009
   C    N    Fe   Ni   O 
    53     3     1     1     1
Direct
  0.0550779215265191  0.0542544907563569  0.0518828652487870
  0.1554307806810772  0.1097353809003521  0.0522205009958744
  0.1557168029127720  0.2204800874639604  0.0509765753318630
  0.0559785549373512  0.2756871462122537  0.0492505881365636
  0.2559499793222960  0.0554366964541646  0.0540315645166074
  0.3563593733990819  0.1112012990372311  0.0575437866380690
  0.3563043898565558  0.2230453488983831  0.0572425246804641
  0.2555549860026600  0.2763153806131150  0.0522923506853806
  0.4560883551187037  0.0556406814198243  0.0612126510095060
  0.5554782958314671  0.1131792838616121  0.0642762216187382
  0.5560320844279364  0.2262928908853133  0.0657300708422243
  0.4548463996018678  0.2822796501941486  0.0622597017255332
  0.6545036052404853  0.0532494128003709  0.0635420981812436
  0.7544618429733869  0.1101226263688167  0.0599079716629230
  0.7553630068014832  0.2228475023113081  0.0594822616293628
  0.6573814164086194  0.2834604177296039  0.0655682524653783
  0.8540821446246103  0.0533640690833477  0.0562053376752109
  0.9545901778094219  0.1092904837429882  0.0532363628206666
  0.9553702995540733  0.2207454946708453  0.0519391015786460
  0.8558047304392929  0.2773161307669522  0.0541863245901271
  0.0576713293654083  0.3866699953449800  0.0464073900550680
  0.1564965761345867  0.4430245997804235  0.0457486015581823
  0.1570995203308266  0.5543411996141051  0.0446693284141860
  0.0581597767414259  0.6099781991902901  0.0440770197596156
  0.2557456386042537  0.3871077495850105  0.0493627112552204
  0.3548367458062965  0.4419987033686806  0.0532504701145578
  0.3567837287887397  0.5553586407761238  0.0515891392434227
  0.2564510844336429  0.6101178823787176  0.0468903603368274
  0.7611198838346889  0.4487386972473068  0.0563650570154951
  0.8584719215142684  0.3888477343032913  0.0512190495291138
  0.9585915495077387  0.4424583148500466  0.0464517537566759
  0.9597796204436908  0.5529892936032287  0.0450582998490603
  0.8603731264163821  0.6071866084797338  0.0472440798547378
  0.0570413955109989  0.7213526905244658  0.0452067169785565
  0.1557518326730259  0.7771990228854143  0.0468985342105736
  0.1553077924709788  0.8884470614849849  0.0494383713370585
  0.0549280227617098  0.9432241880508232  0.0505143647050957
  0.2554067254556365  0.7212659955709452  0.0481932188999694
  0.3537538861672045  0.7775289661257375  0.0535568530750544
  0.3546721001472946  0.8887659499123229  0.0554637128528181
  0.2551343886998429  0.9443773347408539  0.0525912098555617
  0.4522642239338735  0.7212137178220686  0.0600154347321712
  0.5529280978389323  0.8837272783215187  0.0650330568878501
  0.4548702893157461  0.9433515151329318  0.0607644244962891
  0.7542042278018810  0.8823344505109179  0.0600902344194753
  0.6542471849115714  0.9400072185733791  0.0642041188252879
  0.8582517119379479  0.7196227571043800  0.0494099189002377
  0.9569087949355169  0.7761639676011309  0.0477393047260124
  0.9549590987934291  0.8871937914917937  0.0510170547455494
  0.8538232517567415  0.9410819213321990  0.0556310131241955
  0.6627698860332656  0.3945534715363474  0.0697296418678779
  0.7577597363861291  0.7701786350856168  0.0577710635593851
  0.4554579523881127  0.6095142137045533  0.0597708956894092
  0.4510073776997964  0.3906964566882937  0.0622741987176787
  0.7647346698646170  0.5567650044886883  0.0513218378618109
  0.5485838346925125  0.7762080723445397  0.0671009228683686
  0.6492438797661022  0.6650139227576570  0.0734142033172278
  0.5543743541688256  0.4920505117901764  0.0881491830035641
  0.6253795994966839  0.5833997597253749  0.1421001555675812
 
  0.00000000E+00  0.00000000E+00  0.00000000E+00
  0.00000000E+00  0.00000000E+00  0.00000000E+00
  0.00000000E+00  0.00000000E+00  0.00000000E+00
  0.00000000E+00  0.00000000E+00  0.00000000E+00
  0.00000000E+00  0.00000000E+00  0.00000000E+00
  0.00000000E+00  0.00000000E+00  0.00000000E+00
  0.00000000E+00  0.00000000E+00  0.00000000E+00
  0.00000000E+00  0.00000000E+00  0.00000000E+00
  0.00000000E+00  0.00000000E+00  0.00000000E+00
  0.00000000E+00  0.00000000E+00  0.00000000E+00
  0.00000000E+00  0.00000000E+00  0.00000000E+00
  0.00000000E+00  0.00000000E+00  0.00000000E+00
  0.00000000E+00  0.00000000E+00  0.00000000E+00
  0.00000000E+00  0.00000000E+00  0.00000000E+00
  0.00000000E+00  0.00000000E+00  0.00000000E+00
  0.00000000E+00  0.00000000E+00  0.00000000E+00
  0.00000000E+00  0.00000000E+00  0.00000000E+00
  0.00000000E+00  0.00000000E+00  0.00000000E+00
  0.00000000E+00  0.00000000E+00  0.00000000E+00
  0.00000000E+00  0.00000000E+00  0.00000000E+00
  0.00000000E+00  0.00000000E+00  0.00000000E+00
  0.00000000E+00  0.00000000E+00  0.00000000E+00
  0.00000000E+00  0.00000000E+00  0.00000000E+00
  0.00000000E+00  0.00000000E+00  0.00000000E+00
  0.00000000E+00  0.00000000E+00  0.00000000E+00
  0.00000000E+00  0.00000000E+00  0.00000000E+00
  0.00000000E+00  0.00000000E+00  0.00000000E+00
  0.00000000E+00  0.00000000E+00  0.00000000E+00
  0.00000000E+00  0.00000000E+00  0.00000000E+00
  0.00000000E+00  0.00000000E+00  0.00000000E+00
  0.00000000E+00  0.00000000E+00  0.00000000E+00
  0.00000000E+00  0.00000000E+00  0.00000000E+00
  0.00000000E+00  0.00000000E+00  0.00000000E+00
  0.00000000E+00  0.00000000E+00  0.00000000E+00
  0.00000000E+00  0.00000000E+00  0.00000000E+00
  0.00000000E+00  0.00000000E+00  0.00000000E+00
  0.00000000E+00  0.00000000E+00  0.00000000E+00
  0.00000000E+00  0.00000000E+00  0.00000000E+00
  0.00000000E+00  0.00000000E+00  0.00000000E+00
  0.00000000E+00  0.00000000E+00  0.00000000E+00
  0.00000000E+00  0.00000000E+00  0.00000000E+00
  0.00000000E+00  0.00000000E+00  0.00000000E+00
  0.00000000E+00  0.00000000E+00  0.00000000E+00
  0.00000000E+00  0.00000000E+00  0.00000000E+00
  0.00000000E+00  0.00000000E+00  0.00000000E+00
  0.00000000E+00  0.00000000E+00  0.00000000E+00
  0.00000000E+00  0.00000000E+00  0.00000000E+00
  0.00000000E+00  0.00000000E+00  0.00000000E+00
  0.00000000E+00  0.00000000E+00  0.00000000E+00
  0.00000000E+00  0.00000000E+00  0.00000000E+00
  0.00000000E+00  0.00000000E+00  0.00000000E+00
  0.00000000E+00  0.00000000E+00  0.00000000E+00
  0.00000000E+00  0.00000000E+00  0.00000000E+00
  0.00000000E+00  0.00000000E+00  0.00000000E+00
  0.00000000E+00  0.00000000E+00  0.00000000E+00
  0.00000000E+00  0.00000000E+00  0.00000000E+00
  0.00000000E+00  0.00000000E+00  0.00000000E+00
  0.00000000E+00  0.00000000E+00  0.00000000E+00
  0.00000000E+00  0.00000000E+00  0.00000000E+00
