CONTCAR\(2)\(3)                         
   1.00000000000000     
    12.3312997818000003    0.0000000000000000    0.0000000000000000
     0.0001127485000000   12.8291997905000006    0.0000000000000000
     0.0005937186000000    0.0011528207000000   19.9943999824000009
   C    N    Fe   Ni   H 
    53     3     1     1     2
Direct
  0.0545001268885725  0.0536222526986910  0.0511079027157649
  0.1547907310138824  0.1091076412433424  0.0508643225846964
  0.1552925239929461  0.2198719914803816  0.0497517352178119
  0.0556143653380801  0.2749497921245050  0.0491265558358048
  0.2552994737274105  0.0548363242360447  0.0523547016097356
  0.3557661857053262  0.1104785734018948  0.0554910934926965
  0.3559077391869947  0.2223509601539887  0.0547996888462209
  0.2552123288773281  0.2757073382318496  0.0504383126056878
  0.4554605600887106  0.0550104664486026  0.0592696824197769
  0.5549644597090603  0.1127069881614103  0.0629518022922577
  0.5556426752130985  0.2256555585261489  0.0642057309812873
  0.4544218596647813  0.2816242941781917  0.0589382204107104
  0.6540010647882102  0.0523044049197583  0.0632024724041913
  0.7541904672008002  0.1092491257386392  0.0603079602153298
  0.7553116519158868  0.2219976677547272  0.0608438933346201
  0.6575180071752843  0.2828795148383900  0.0667947541079632
  0.8534961431752816  0.0524205393020220  0.0563347207169951
  0.9540410681331538  0.1085144470540756  0.0530459136141510
  0.9550194237960135  0.2199254313057048  0.0521705762373701
  0.8556634166255230  0.2765273059408190  0.0554614713134599
  0.0574261017790550  0.3860709003788909  0.0470897839855464
  0.1560503817085254  0.4424816346378110  0.0457620165663673
  0.1565920395714507  0.5538004656643042  0.0446876887530147
  0.0575220196187296  0.6093248963429958  0.0449873913121681
  0.2553270871720896  0.3865404131838385  0.0481832393559968
  0.3544357687051700  0.4413497682073503  0.0510006300213942
  0.3563443546406732  0.5552357227404406  0.0507791747528372
  0.2558305819039560  0.6097199977102956  0.0464536338369435
  0.7620943773657080  0.4477240539175192  0.0611825595032359
  0.8587042307350741  0.3882181538413214  0.0535975384833948
  0.9586030972770301  0.4418203766366664  0.0484297655495219
  0.9594184079987405  0.5522400557792411  0.0475133707090584
  0.8602385547158965  0.6067130080280713  0.0520703254767822
  0.0562499045599343  0.7207192701161323  0.0458022010656130
  0.1548356845142087  0.7766120532337991  0.0465570598429121
  0.1544810812642733  0.8878568043968506  0.0486570453968350
  0.0541173417758136  0.9424891698828343  0.0499769747957787
  0.2544401008962883  0.7208058560290017  0.0474298552369593
  0.3526373407268139  0.7772972209986968  0.0521917976871452
  0.3537544828824823  0.8885058450045179  0.0539117903120161
  0.2542334209202411  0.9439416991055893  0.0512140411746489
  0.4507584770014515  0.7212379923462048  0.0587688766495359
  0.5519464290479903  0.8827485281826276  0.0638302403027478
  0.4540173818593074  0.9427945466948381  0.0590157425260177
  0.7533825267502062  0.8811072731938540  0.0601261320609252
  0.6538677424811564  0.9391754312864856  0.0636646022456506
  0.8579494204782332  0.7187595719131763  0.0520398210249877
  0.9561075386872350  0.7754419036502492  0.0487579794378701
  0.9542672977947145  0.8864415616584537  0.0511000628164528
  0.8529436896269846  0.9399408075123692  0.0557729198817054
  0.6630087446299955  0.3937478057587947  0.0722747441267862
  0.7560531896366884  0.7676055411714360  0.0588066402232928
  0.4552936814448659  0.6094641151775698  0.0589244630009953
  0.4508079323212554  0.3900143613357993  0.0569132212568291
  0.7645514627666787  0.5568784392502807  0.0590247581241861
  0.5473796183588734  0.7758208989319904  0.0661270901547531
  0.6459829834933775  0.6643991512172419  0.0718078705244744
  0.5563686752645609  0.4943578270909059  0.0769553730442070
  0.6787635236418952  0.6856635042957673  0.1410598693686600
  0.6143390317660196  0.5688127217566045  0.1276702094552102
 
  0.00000000E+00  0.00000000E+00  0.00000000E+00
  0.00000000E+00  0.00000000E+00  0.00000000E+00
  0.00000000E+00  0.00000000E+00  0.00000000E+00
  0.00000000E+00  0.00000000E+00  0.00000000E+00
  0.00000000E+00  0.00000000E+00  0.00000000E+00
  0.00000000E+00  0.00000000E+00  0.00000000E+00
  0.00000000E+00  0.00000000E+00  0.00000000E+00
  0.00000000E+00  0.00000000E+00  0.00000000E+00
  0.00000000E+00  0.00000000E+00  0.00000000E+00
  0.00000000E+00  0.00000000E+00  0.00000000E+00
  0.00000000E+00  0.00000000E+00  0.00000000E+00
  0.00000000E+00  0.00000000E+00  0.00000000E+00
  0.00000000E+00  0.00000000E+00  0.00000000E+00
  0.00000000E+00  0.00000000E+00  0.00000000E+00
  0.00000000E+00  0.00000000E+00  0.00000000E+00
  0.00000000E+00  0.00000000E+00  0.00000000E+00
  0.00000000E+00  0.00000000E+00  0.00000000E+00
  0.00000000E+00  0.00000000E+00  0.00000000E+00
  0.00000000E+00  0.00000000E+00  0.00000000E+00
  0.00000000E+00  0.00000000E+00  0.00000000E+00
  0.00000000E+00  0.00000000E+00  0.00000000E+00
  0.00000000E+00  0.00000000E+00  0.00000000E+00
  0.00000000E+00  0.00000000E+00  0.00000000E+00
  0.00000000E+00  0.00000000E+00  0.00000000E+00
  0.00000000E+00  0.00000000E+00  0.00000000E+00
  0.00000000E+00  0.00000000E+00  0.00000000E+00
  0.00000000E+00  0.00000000E+00  0.00000000E+00
  0.00000000E+00  0.00000000E+00  0.00000000E+00
  0.00000000E+00  0.00000000E+00  0.00000000E+00
  0.00000000E+00  0.00000000E+00  0.00000000E+00
  0.00000000E+00  0.00000000E+00  0.00000000E+00
  0.00000000E+00  0.00000000E+00  0.00000000E+00
  0.00000000E+00  0.00000000E+00  0.00000000E+00
  0.00000000E+00  0.00000000E+00  0.00000000E+00
  0.00000000E+00  0.00000000E+00  0.00000000E+00
  0.00000000E+00  0.00000000E+00  0.00000000E+00
  0.00000000E+00  0.00000000E+00  0.00000000E+00
  0.00000000E+00  0.00000000E+00  0.00000000E+00
  0.00000000E+00  0.00000000E+00  0.00000000E+00
  0.00000000E+00  0.00000000E+00  0.00000000E+00
  0.00000000E+00  0.00000000E+00  0.00000000E+00
  0.00000000E+00  0.00000000E+00  0.00000000E+00
  0.00000000E+00  0.00000000E+00  0.00000000E+00
  0.00000000E+00  0.00000000E+00  0.00000000E+00
  0.00000000E+00  0.00000000E+00  0.00000000E+00
  0.00000000E+00  0.00000000E+00  0.00000000E+00
  0.00000000E+00  0.00000000E+00  0.00000000E+00
  0.00000000E+00  0.00000000E+00  0.00000000E+00
  0.00000000E+00  0.00000000E+00  0.00000000E+00
  0.00000000E+00  0.00000000E+00  0.00000000E+00
  0.00000000E+00  0.00000000E+00  0.00000000E+00
  0.00000000E+00  0.00000000E+00  0.00000000E+00
  0.00000000E+00  0.00000000E+00  0.00000000E+00
  0.00000000E+00  0.00000000E+00  0.00000000E+00
  0.00000000E+00  0.00000000E+00  0.00000000E+00
  0.00000000E+00  0.00000000E+00  0.00000000E+00
  0.00000000E+00  0.00000000E+00  0.00000000E+00
  0.00000000E+00  0.00000000E+00  0.00000000E+00
  0.00000000E+00  0.00000000E+00  0.00000000E+00
  0.00000000E+00  0.00000000E+00  0.00000000E+00
