CONTCAR\(8)                             
   1.00000000000000     
    12.3312997818000003    0.0000000000000000    0.0000000000000000
     0.0001127485000000   12.8291997905000006    0.0000000000000000
     0.0005937186000000    0.0011528207000000   19.9943999824000009
   C    N    Fe   Ni   O 
    53     3     1     1     2
Direct
  0.0552320697801401  0.0555996642083165  0.0505946547606737
  0.1555621877063210  0.1112879154961864  0.0506878141679208
  0.1562119387206727  0.2222348739940705  0.0504971644198593
  0.0559794146007951  0.2769869592418009  0.0500638606759547
  0.2558658816890612  0.0564707257481981  0.0516577107348365
  0.3565448416040163  0.1117551511904653  0.0540493876979014
  0.3572559458737002  0.2234463418661681  0.0546125793366756
  0.2566597465366940  0.2778684201770535  0.0517939969120066
  0.4561872034743185  0.0554352529121505  0.0564056609085658
  0.5567338741663677  0.1108532185835376  0.0592200775017415
  0.5572815189936662  0.2229319362511785  0.0612853518161215
  0.4575213934797903  0.2805337928399970  0.0588450589480962
  0.6558212310978311  0.0513657099297491  0.0588191988711970
  0.7550209514222639  0.1093368600023035  0.0566209953613152
  0.7557945448846554  0.2220289677046232  0.0571161442399574
  0.6574524005630541  0.2809762685071351  0.0623810675050943
  0.8545168533163208  0.0534421552335413  0.0538964025493972
  0.9547473827702015  0.1100805422705208  0.0517757421410560
  0.9554568415220888  0.2217201823104671  0.0514459804849099
  0.8555931205460554  0.2777715574923477  0.0535464048140933
  0.0568850567195263  0.3882642814450946  0.0494301272303795
  0.1563581134711935  0.4440874331894629  0.0495465284053736
  0.1565052351588729  0.5555141333360218  0.0490813580615348
  0.0570121606553534  0.6108452884871038  0.0485936360682035
  0.2565768933963110  0.3890507151280252  0.0512323241219015
  0.3561006231071413  0.4449843891110275  0.0541837117247379
  0.3571124654367580  0.5581204681870757  0.0541440038047410
  0.2559877318659444  0.6119078971447650  0.0503724508238279
  0.7584298550845485  0.4488326828424075  0.0577867062709429
  0.8568612715039108  0.3898469807693669  0.0526457967601334
  0.9572363510478650  0.4438644995876772  0.0499851448402050
  0.9575837716413464  0.5548480154550499  0.0497429885835976
  0.8575657411582298  0.6089117943466692  0.0524025905259413
  0.0562202009813637  0.7218559322394286  0.0486768517928965
  0.1546623854255645  0.7782920056621043  0.0487069311474280
  0.1549600476204415  0.8894936233973699  0.0494019624406472
  0.0549874103744680  0.9444939112649171  0.0500242101682846
  0.2540393166518248  0.7227593747635219  0.0496724862133192
  0.3522856774810301  0.7790147260997047  0.0518880767658582
  0.3540821317921408  0.8897096229036247  0.0524168399075080
  0.2546996338960067  0.9454863406143282  0.0508058245369086
  0.4506527362750553  0.7230770430227467  0.0577800140119952
  0.5526495760229390  0.8839967448012804  0.0592139144944766
  0.4546373192685353  0.9438219152580590  0.0558548536683159
  0.7559352781955592  0.8812183619234789  0.0569402210076401
  0.6553774028189351  0.9380814369172651  0.0591438535663562
  0.8576932852684551  0.7217446729026465  0.0525282214666784
  0.9564599118413060  0.7769887986023478  0.0502164561899000
  0.9556213364504644  0.8881266426844800  0.0511148823801660
  0.8546002837416570  0.9411183142716364  0.0539205158691063
  0.4558844032213316  0.3918931000392818  0.0599413761022317
  0.4568006078710788  0.6121586229101443  0.0608176478226255
  0.6597803547599737  0.3918068774384487  0.0676613891656401
  0.7604618206230676  0.5582007563099934  0.0564028858019985
  0.5468403500819269  0.7778092732153550  0.0614693947051821
  0.7597637565760945  0.7720835481141235  0.0563916053572203
  0.6476204301508866  0.6696542606894630  0.0684587915815620
  0.5574095515274924  0.4903340666261585  0.0886950779641462
  0.6425368677532097  0.6543383584798731  0.1567204068715627
  0.6163332803341728  0.5511667048586883  0.1664826849314308
 
  0.00000000E+00  0.00000000E+00  0.00000000E+00
  0.00000000E+00  0.00000000E+00  0.00000000E+00
  0.00000000E+00  0.00000000E+00  0.00000000E+00
  0.00000000E+00  0.00000000E+00  0.00000000E+00
  0.00000000E+00  0.00000000E+00  0.00000000E+00
  0.00000000E+00  0.00000000E+00  0.00000000E+00
  0.00000000E+00  0.00000000E+00  0.00000000E+00
  0.00000000E+00  0.00000000E+00  0.00000000E+00
  0.00000000E+00  0.00000000E+00  0.00000000E+00
  0.00000000E+00  0.00000000E+00  0.00000000E+00
  0.00000000E+00  0.00000000E+00  0.00000000E+00
  0.00000000E+00  0.00000000E+00  0.00000000E+00
  0.00000000E+00  0.00000000E+00  0.00000000E+00
  0.00000000E+00  0.00000000E+00  0.00000000E+00
  0.00000000E+00  0.00000000E+00  0.00000000E+00
  0.00000000E+00  0.00000000E+00  0.00000000E+00
  0.00000000E+00  0.00000000E+00  0.00000000E+00
  0.00000000E+00  0.00000000E+00  0.00000000E+00
  0.00000000E+00  0.00000000E+00  0.00000000E+00
  0.00000000E+00  0.00000000E+00  0.00000000E+00
  0.00000000E+00  0.00000000E+00  0.00000000E+00
  0.00000000E+00  0.00000000E+00  0.00000000E+00
  0.00000000E+00  0.00000000E+00  0.00000000E+00
  0.00000000E+00  0.00000000E+00  0.00000000E+00
  0.00000000E+00  0.00000000E+00  0.00000000E+00
  0.00000000E+00  0.00000000E+00  0.00000000E+00
  0.00000000E+00  0.00000000E+00  0.00000000E+00
  0.00000000E+00  0.00000000E+00  0.00000000E+00
  0.00000000E+00  0.00000000E+00  0.00000000E+00
  0.00000000E+00  0.00000000E+00  0.00000000E+00
  0.00000000E+00  0.00000000E+00  0.00000000E+00
  0.00000000E+00  0.00000000E+00  0.00000000E+00
  0.00000000E+00  0.00000000E+00  0.00000000E+00
  0.00000000E+00  0.00000000E+00  0.00000000E+00
  0.00000000E+00  0.00000000E+00  0.00000000E+00
  0.00000000E+00  0.00000000E+00  0.00000000E+00
  0.00000000E+00  0.00000000E+00  0.00000000E+00
  0.00000000E+00  0.00000000E+00  0.00000000E+00
  0.00000000E+00  0.00000000E+00  0.00000000E+00
  0.00000000E+00  0.00000000E+00  0.00000000E+00
  0.00000000E+00  0.00000000E+00  0.00000000E+00
  0.00000000E+00  0.00000000E+00  0.00000000E+00
  0.00000000E+00  0.00000000E+00  0.00000000E+00
  0.00000000E+00  0.00000000E+00  0.00000000E+00
  0.00000000E+00  0.00000000E+00  0.00000000E+00
  0.00000000E+00  0.00000000E+00  0.00000000E+00
  0.00000000E+00  0.00000000E+00  0.00000000E+00
  0.00000000E+00  0.00000000E+00  0.00000000E+00
  0.00000000E+00  0.00000000E+00  0.00000000E+00
  0.00000000E+00  0.00000000E+00  0.00000000E+00
  0.00000000E+00  0.00000000E+00  0.00000000E+00
  0.00000000E+00  0.00000000E+00  0.00000000E+00
  0.00000000E+00  0.00000000E+00  0.00000000E+00
  0.00000000E+00  0.00000000E+00  0.00000000E+00
  0.00000000E+00  0.00000000E+00  0.00000000E+00
  0.00000000E+00  0.00000000E+00  0.00000000E+00
  0.00000000E+00  0.00000000E+00  0.00000000E+00
  0.00000000E+00  0.00000000E+00  0.00000000E+00
  0.00000000E+00  0.00000000E+00  0.00000000E+00
  0.00000000E+00  0.00000000E+00  0.00000000E+00
