CONTCAR                                 
   1.00000000000000     
    12.3312997818000003    0.0000000000000000    0.0000000000000000
     0.0001127485000000   12.8291997905000006    0.0000000000000000
     0.0005937186000000    0.0011528207000000   19.9943999824000009
   C    N    Fe   Ni   O 
    52     4     1     1     2
Direct
  0.0557649706583691  0.0542290932316100  0.0495408873448994
  0.1562924243331793  0.1099235631374935  0.0491800687351894
  0.1564691641354444  0.2208640359292852  0.0478102791969850
  0.0565795588461857  0.2760613391067985  0.0470176387733374
  0.2568542844006568  0.0555246491414550  0.0508679362025019
  0.3570375115464680  0.1121367803421185  0.0536101340716557
  0.3567112591601321  0.2239270640353509  0.0528223562563848
  0.2560139577053550  0.2772688250389246  0.0485901234290219
  0.4570612348331510  0.0569409027536828  0.0574091686010584
  0.5565849600257176  0.1151379632319511  0.0600228736878043
  0.5573571033798330  0.2290850006849136  0.0606234598998725
  0.4552339156035560  0.2840352860800540  0.0570362215820083
  0.6551747229555560  0.0553301454093407  0.0603912079288972
  0.7553063811936730  0.1111917786619999  0.0576184021860890
  0.7566509507413964  0.2233977408873308  0.0575271048445446
  0.6594995164965562  0.2845831135856616  0.0617161310720559
  0.8549131344988895  0.0542433108405023  0.0543259275664387
  0.9555691900465265  0.1093990328430130  0.0511369433119248
  0.9565467424510181  0.2206379373195690  0.0500848198749397
  0.8574702085632168  0.2769266361016154  0.0530632415397121
  0.0573539852797318  0.3869634583340334  0.0448959720813201
  0.1560631835853598  0.4436501100172703  0.0439762734831911
  0.1561292308737485  0.5546528270502754  0.0437715390694275
  0.0570978935663490  0.6104999240225303  0.0437528982846934
  0.2551690814421351  0.3883426173935876  0.0465576623032055
  0.3541188178775762  0.4435374878116430  0.0507216964014337
  0.3550083558091287  0.5563396689700522  0.0521685243236599
  0.2552236517742980  0.6106995829524431  0.0469783090538591
  0.7621785890698259  0.4458130670614832  0.0574754616886444
  0.8596130370275678  0.3877519981457271  0.0513809992400494
  0.9585727851120863  0.4426372842922885  0.0462905363573486
  0.9582359838213282  0.5534881163911666  0.0454334952766390
  0.8586446113931929  0.6062393013124592  0.0498615379480220
  0.0561106327080216  0.7213175101655742  0.0451493953633530
  0.1553304243698886  0.7775125106324521  0.0465852101118290
  0.1558768648183346  0.8885404577553327  0.0482256454222805
  0.0552989919404723  0.9432094969847494  0.0489524082761708
  0.2546065505190872  0.7218304449484100  0.0483664499717787
  0.3542546531464200  0.7763547689688078  0.0530398944663626
  0.3561720599412204  0.8882838224816959  0.0535862797066075
  0.2562947628314164  0.9439947075905103  0.0505486717516140
  0.4519116296194962  0.7173042544903562  0.0594198603109638
  0.5543156483709227  0.8852868685848487  0.0623430599873655
  0.4561797747687670  0.9444263110689630  0.0578486410241277
  0.7544794278894801  0.8847103070744980  0.0593599853165670
  0.6547368653859422  0.9425590249074118  0.0618619718187575
  0.8566179205399382  0.7188955458639995  0.0509626506031036
  0.9556708190405900  0.7757043696717953  0.0478027842187855
  0.9549956892492026  0.8872625183120254  0.0501263299205515
  0.8544378569962752  0.9421647023847318  0.0543549197664790
  0.5513136792158704  0.7740267121736748  0.0652714331757129
  0.7565816816202423  0.7726725126157091  0.0596572122503619
  0.4501647291770153  0.3914498298391750  0.0572339205991614
  0.4509035231931184  0.6079091629398362  0.0606564436654229
  0.6657756755893551  0.3929269939078249  0.0651010368506642
  0.7623500874542642  0.5529356641307551  0.0561006986060064
  0.6532793804520627  0.6709248802181746  0.0829465629540011
  0.5562964380010859  0.4893049481948837  0.0836310364133156
  0.6019901922814447  0.5400761299363358  0.1673414803402821
  0.6438736286728760  0.6408858740398310  0.1712161884915645
 
  0.00000000E+00  0.00000000E+00  0.00000000E+00
  0.00000000E+00  0.00000000E+00  0.00000000E+00
  0.00000000E+00  0.00000000E+00  0.00000000E+00
  0.00000000E+00  0.00000000E+00  0.00000000E+00
  0.00000000E+00  0.00000000E+00  0.00000000E+00
  0.00000000E+00  0.00000000E+00  0.00000000E+00
  0.00000000E+00  0.00000000E+00  0.00000000E+00
  0.00000000E+00  0.00000000E+00  0.00000000E+00
  0.00000000E+00  0.00000000E+00  0.00000000E+00
  0.00000000E+00  0.00000000E+00  0.00000000E+00
  0.00000000E+00  0.00000000E+00  0.00000000E+00
  0.00000000E+00  0.00000000E+00  0.00000000E+00
  0.00000000E+00  0.00000000E+00  0.00000000E+00
  0.00000000E+00  0.00000000E+00  0.00000000E+00
  0.00000000E+00  0.00000000E+00  0.00000000E+00
  0.00000000E+00  0.00000000E+00  0.00000000E+00
  0.00000000E+00  0.00000000E+00  0.00000000E+00
  0.00000000E+00  0.00000000E+00  0.00000000E+00
  0.00000000E+00  0.00000000E+00  0.00000000E+00
  0.00000000E+00  0.00000000E+00  0.00000000E+00
  0.00000000E+00  0.00000000E+00  0.00000000E+00
  0.00000000E+00  0.00000000E+00  0.00000000E+00
  0.00000000E+00  0.00000000E+00  0.00000000E+00
  0.00000000E+00  0.00000000E+00  0.00000000E+00
  0.00000000E+00  0.00000000E+00  0.00000000E+00
  0.00000000E+00  0.00000000E+00  0.00000000E+00
  0.00000000E+00  0.00000000E+00  0.00000000E+00
  0.00000000E+00  0.00000000E+00  0.00000000E+00
  0.00000000E+00  0.00000000E+00  0.00000000E+00
  0.00000000E+00  0.00000000E+00  0.00000000E+00
  0.00000000E+00  0.00000000E+00  0.00000000E+00
  0.00000000E+00  0.00000000E+00  0.00000000E+00
  0.00000000E+00  0.00000000E+00  0.00000000E+00
  0.00000000E+00  0.00000000E+00  0.00000000E+00
  0.00000000E+00  0.00000000E+00  0.00000000E+00
  0.00000000E+00  0.00000000E+00  0.00000000E+00
  0.00000000E+00  0.00000000E+00  0.00000000E+00
  0.00000000E+00  0.00000000E+00  0.00000000E+00
  0.00000000E+00  0.00000000E+00  0.00000000E+00
  0.00000000E+00  0.00000000E+00  0.00000000E+00
  0.00000000E+00  0.00000000E+00  0.00000000E+00
  0.00000000E+00  0.00000000E+00  0.00000000E+00
  0.00000000E+00  0.00000000E+00  0.00000000E+00
  0.00000000E+00  0.00000000E+00  0.00000000E+00
  0.00000000E+00  0.00000000E+00  0.00000000E+00
  0.00000000E+00  0.00000000E+00  0.00000000E+00
  0.00000000E+00  0.00000000E+00  0.00000000E+00
  0.00000000E+00  0.00000000E+00  0.00000000E+00
  0.00000000E+00  0.00000000E+00  0.00000000E+00
  0.00000000E+00  0.00000000E+00  0.00000000E+00
  0.00000000E+00  0.00000000E+00  0.00000000E+00
  0.00000000E+00  0.00000000E+00  0.00000000E+00
  0.00000000E+00  0.00000000E+00  0.00000000E+00
  0.00000000E+00  0.00000000E+00  0.00000000E+00
  0.00000000E+00  0.00000000E+00  0.00000000E+00
  0.00000000E+00  0.00000000E+00  0.00000000E+00
  0.00000000E+00  0.00000000E+00  0.00000000E+00
  0.00000000E+00  0.00000000E+00  0.00000000E+00
  0.00000000E+00  0.00000000E+00  0.00000000E+00
  0.00000000E+00  0.00000000E+00  0.00000000E+00
