CONTCAR\(5)                             
   1.00000000000000     
    12.3312997818000003    0.0000000000000000    0.0000000000000000
     0.0001127485000000   12.8291997905000006    0.0000000000000000
     0.0005937186000000    0.0011528207000000   19.9943999824000009
   C    N    Fe   Ni   O 
    54     2     1     1     1
Direct
  0.0562288940393956  0.0544854468176891  0.0509124573209896
  0.1563648576337707  0.1094279880316143  0.0504217358323458
  0.1557009128291650  0.2202224466151217  0.0486904776278400
  0.0560525580600547  0.2760694095485818  0.0477971345732233
  0.2571458946703269  0.0547425651544297  0.0522624089403600
  0.3572734661290727  0.1111170350701404  0.0551783319593370
  0.3563842065581013  0.2231536638354299  0.0540666242243939
  0.2551309710646555  0.2758642531845561  0.0493034306453486
  0.4571477101736488  0.0559021356308036  0.0591297015893048
  0.5562253714537049  0.1147587285804359  0.0622256390902121
  0.5560783115259708  0.2279779088321679  0.0631123966627853
  0.4543937796411694  0.2833323197405476  0.0584135518850832
  0.6557614392983701  0.0553430172116346  0.0627226092953328
  0.7558377718353937  0.1112694810535738  0.0596626230104077
  0.7566707208418084  0.2232451604065747  0.0593561036176401
  0.6588952555291132  0.2837697834936576  0.0644657329091277
  0.8554364294185978  0.0547839389820538  0.0562128902360608
  0.9558933913200233  0.1099222664975962  0.0525359292229784
  0.9562418457396120  0.2209133275393599  0.0512119903230176
  0.8567661639958282  0.2774062591795085  0.0545654273514993
  0.0558712283277145  0.3873414537538885  0.0452033115777738
  0.1543631868516258  0.4430550835485002  0.0439743127031250
  0.1546221023643402  0.5545929126709016  0.0433451517538930
  0.0558812246014057  0.6103906173962907  0.0439872225243610
  0.2532432237101022  0.3862702430220386  0.0468646894304292
  0.3515096573433932  0.4408073665635150  0.0507910032901970
  0.3525977239378675  0.5533398237437330  0.0512075869113083
  0.2541753390536033  0.6100027937715286  0.0459169377006804
  0.7584344897953565  0.4446943622467461  0.0596176914441516
  0.8576706296939385  0.3884880369218657  0.0529681631061094
  0.9566008534790802  0.4435564405252995  0.0468735228718936
  0.9566702786540523  0.5541679958409500  0.0460155935892019
  0.8569872207596309  0.6093126699513144  0.0512985881212054
  0.0565607226842345  0.7220298168877316  0.0457485017369985
  0.1561154001805675  0.7770313771157049  0.0470641970056781
  0.1565925275904358  0.8883414763315891  0.0493269610132867
  0.0564166183596950  0.9435914292665463  0.0504738202603663
  0.2558547512832643  0.7208455175954587  0.0482178176649384
  0.3561722393790887  0.7749728416660305  0.0536997184751756
  0.3572763239134462  0.8871339687182894  0.0545754320564352
  0.2571349052394283  0.9434056489532493  0.0516491309653565
  0.4554996427313779  0.7162131342115702  0.0596237227302803
  0.5564966016899486  0.8845305479523602  0.0631740902609800
  0.4570621130527931  0.9430207773698163  0.0591296787519386
  0.7561372572254184  0.8858353900026157  0.0627716365993607
  0.6562607187298902  0.9432955693694139  0.0640567954539396
  0.8575489905045750  0.7223709441207300  0.0546236200972276
  0.9568192840991275  0.7777025543092533  0.0497273879653400
  0.9561513921442533  0.8884910083422995  0.0522212263349455
  0.8555513141675334  0.9430507119267760  0.0568426973940291
  0.7585036867812555  0.5565198257089029  0.0576211868095045
  0.5547092950278654  0.7736513182360761  0.0646562403288762
  0.7584122460946953  0.7742560229795398  0.0650249493777317
  0.4515297874487152  0.6037753505504210  0.0613350223683886
  0.4485357224320747  0.3915855732406764  0.0571073153647685
  0.6636044110977829  0.3900573037179411  0.0683418790416147
  0.6541035694020719  0.6668806456170275  0.0923611302234284
  0.5531494001900152  0.4962269486658358  0.0807820283202268
  0.6192340442205483  0.5734373437821161  0.1482828430575490
 
  0.00000000E+00  0.00000000E+00  0.00000000E+00
  0.00000000E+00  0.00000000E+00  0.00000000E+00
  0.00000000E+00  0.00000000E+00  0.00000000E+00
  0.00000000E+00  0.00000000E+00  0.00000000E+00
  0.00000000E+00  0.00000000E+00  0.00000000E+00
  0.00000000E+00  0.00000000E+00  0.00000000E+00
  0.00000000E+00  0.00000000E+00  0.00000000E+00
  0.00000000E+00  0.00000000E+00  0.00000000E+00
  0.00000000E+00  0.00000000E+00  0.00000000E+00
  0.00000000E+00  0.00000000E+00  0.00000000E+00
  0.00000000E+00  0.00000000E+00  0.00000000E+00
  0.00000000E+00  0.00000000E+00  0.00000000E+00
  0.00000000E+00  0.00000000E+00  0.00000000E+00
  0.00000000E+00  0.00000000E+00  0.00000000E+00
  0.00000000E+00  0.00000000E+00  0.00000000E+00
  0.00000000E+00  0.00000000E+00  0.00000000E+00
  0.00000000E+00  0.00000000E+00  0.00000000E+00
  0.00000000E+00  0.00000000E+00  0.00000000E+00
  0.00000000E+00  0.00000000E+00  0.00000000E+00
  0.00000000E+00  0.00000000E+00  0.00000000E+00
  0.00000000E+00  0.00000000E+00  0.00000000E+00
  0.00000000E+00  0.00000000E+00  0.00000000E+00
  0.00000000E+00  0.00000000E+00  0.00000000E+00
  0.00000000E+00  0.00000000E+00  0.00000000E+00
  0.00000000E+00  0.00000000E+00  0.00000000E+00
  0.00000000E+00  0.00000000E+00  0.00000000E+00
  0.00000000E+00  0.00000000E+00  0.00000000E+00
  0.00000000E+00  0.00000000E+00  0.00000000E+00
  0.00000000E+00  0.00000000E+00  0.00000000E+00
  0.00000000E+00  0.00000000E+00  0.00000000E+00
  0.00000000E+00  0.00000000E+00  0.00000000E+00
  0.00000000E+00  0.00000000E+00  0.00000000E+00
  0.00000000E+00  0.00000000E+00  0.00000000E+00
  0.00000000E+00  0.00000000E+00  0.00000000E+00
  0.00000000E+00  0.00000000E+00  0.00000000E+00
  0.00000000E+00  0.00000000E+00  0.00000000E+00
  0.00000000E+00  0.00000000E+00  0.00000000E+00
  0.00000000E+00  0.00000000E+00  0.00000000E+00
  0.00000000E+00  0.00000000E+00  0.00000000E+00
  0.00000000E+00  0.00000000E+00  0.00000000E+00
  0.00000000E+00  0.00000000E+00  0.00000000E+00
  0.00000000E+00  0.00000000E+00  0.00000000E+00
  0.00000000E+00  0.00000000E+00  0.00000000E+00
  0.00000000E+00  0.00000000E+00  0.00000000E+00
  0.00000000E+00  0.00000000E+00  0.00000000E+00
  0.00000000E+00  0.00000000E+00  0.00000000E+00
  0.00000000E+00  0.00000000E+00  0.00000000E+00
  0.00000000E+00  0.00000000E+00  0.00000000E+00
  0.00000000E+00  0.00000000E+00  0.00000000E+00
  0.00000000E+00  0.00000000E+00  0.00000000E+00
  0.00000000E+00  0.00000000E+00  0.00000000E+00
  0.00000000E+00  0.00000000E+00  0.00000000E+00
  0.00000000E+00  0.00000000E+00  0.00000000E+00
  0.00000000E+00  0.00000000E+00  0.00000000E+00
  0.00000000E+00  0.00000000E+00  0.00000000E+00
  0.00000000E+00  0.00000000E+00  0.00000000E+00
  0.00000000E+00  0.00000000E+00  0.00000000E+00
  0.00000000E+00  0.00000000E+00  0.00000000E+00
  0.00000000E+00  0.00000000E+00  0.00000000E+00
