CONTCAR                                 
   1.00000000000000     
    12.3312997818000003    0.0000000000000000    0.0000000000000000
     0.0001127485000000   12.8291997905000006    0.0000000000000000
     0.0005937186000000    0.0011528207000000   19.9943999824000009
   C    N    Fe   Ni   O 
    53     3     1     1     1
Direct
  0.0556892736675738  0.0548100235311169  0.0508980125692150
  0.1561815748344550  0.1098573156248494  0.0514787117676005
  0.1562323783114180  0.2208082044715189  0.0500227003334383
  0.0563595455184025  0.2759709413608523  0.0478652314241225
  0.2565321975886602  0.0552320955905383  0.0540779009132428
  0.3568349099196848  0.1112724578114487  0.0578973104078205
  0.3564830145817100  0.2232672776291634  0.0573873249998250
  0.2558131082434425  0.2767503316977737  0.0519636976159405
  0.4564845154919418  0.0556139924923157  0.0620801484164010
  0.5556808309641419  0.1137265984413504  0.0648765719031016
  0.5559920565095403  0.2268270357615137  0.0661638103516075
  0.4549440101904689  0.2824647533013285  0.0626401535293198
  0.6550987843759345  0.0542998615115505  0.0639313109324000
  0.7550551721986155  0.1112365053068822  0.0596172862774138
  0.7556727949325622  0.2236986029526865  0.0591712840991159
  0.6574827377631726  0.2842552124922645  0.0659324306055765
  0.8546898401344961  0.0546701148502217  0.0554898134198700
  0.9552583946424604  0.1100250438654878  0.0521986500830320
  0.9557990457120629  0.2211750078871993  0.0506929407249588
  0.8562148157978459  0.2775986779771001  0.0532261269758134
  0.0575704415054384  0.3868984298508373  0.0446696165243447
  0.1562426520824850  0.4432771509871766  0.0447871632963156
  0.1560768745220619  0.5545604198468430  0.0435676856663328
  0.0576802704743260  0.6105930089585582  0.0421331760467689
  0.2555053699993212  0.3878081852338019  0.0495772302978215
  0.3544632179815175  0.4427657906832614  0.0549025576482531
  0.3536998367343264  0.5562821856633392  0.0550991859309062
  0.2545778472664887  0.6106132922717874  0.0479660123891364
  0.7616787582126513  0.4486253452565800  0.0561064648707934
  0.8587297706140359  0.3888689152867474  0.0500057061019945
  0.9584803510921901  0.4428044476706017  0.0443813186342171
  0.9593739970618671  0.5535431893955467  0.0427935148277059
  0.8602194314187332  0.6076281735689515  0.0456971239390697
  0.0566034814163139  0.7219693527449018  0.0437248677210183
  0.1553202148507120  0.7777667874352699  0.0467057678605125
  0.1558276536312928  0.8889055795955499  0.0493769219528927
  0.0555476238315850  0.9439086605108176  0.0496471552346795
  0.2544340043948393  0.7216730716143056  0.0497166213216851
  0.3535709386871879  0.7761212565945909  0.0567023013503118
  0.3557784237636322  0.8877533310507445  0.0574971615323374
  0.2561442121289169  0.9439461027988503  0.0532784140556564
  0.4507984205870489  0.7167644096386352  0.0648510520375243
  0.5543738559982675  0.8836255597744970  0.0674547603266684
  0.4560644483828654  0.9428495664178624  0.0626016468228841
  0.7550967607829020  0.8845219247488550  0.0598580656243670
  0.6549359570100913  0.9417495997193379  0.0650492415298955
  0.8575451310465729  0.7208116246531381  0.0485193125696735
  0.9565721865796954  0.7770311291190714  0.0463168511026673
  0.9553065633883823  0.8881009382950444  0.0498685260522640
  0.8545093608758106  0.9425611647159956  0.0547624302279898
  0.6629503074107430  0.3951101709363369  0.0699670760826200
  0.5510106797935644  0.7721136145883946  0.0719958874101839
  0.7576713421566325  0.7727409513310082  0.0577751952463614
  0.4509466803940488  0.3911881584455225  0.0629917169199065
  0.4476736787018632  0.6081191280066994  0.0653337007882422
  0.7654571941939518  0.5560430887988761  0.0505374241709959
  0.6544887830075669  0.6647671344888216  0.0797146210049880
  0.5536624611550943  0.4895816538354122  0.0883792172503568
  0.6224216864863941  0.5791075209102312  0.1441958932798464
 
  0.00000000E+00  0.00000000E+00  0.00000000E+00
  0.00000000E+00  0.00000000E+00  0.00000000E+00
  0.00000000E+00  0.00000000E+00  0.00000000E+00
  0.00000000E+00  0.00000000E+00  0.00000000E+00
  0.00000000E+00  0.00000000E+00  0.00000000E+00
  0.00000000E+00  0.00000000E+00  0.00000000E+00
  0.00000000E+00  0.00000000E+00  0.00000000E+00
  0.00000000E+00  0.00000000E+00  0.00000000E+00
  0.00000000E+00  0.00000000E+00  0.00000000E+00
  0.00000000E+00  0.00000000E+00  0.00000000E+00
  0.00000000E+00  0.00000000E+00  0.00000000E+00
  0.00000000E+00  0.00000000E+00  0.00000000E+00
  0.00000000E+00  0.00000000E+00  0.00000000E+00
  0.00000000E+00  0.00000000E+00  0.00000000E+00
  0.00000000E+00  0.00000000E+00  0.00000000E+00
  0.00000000E+00  0.00000000E+00  0.00000000E+00
  0.00000000E+00  0.00000000E+00  0.00000000E+00
  0.00000000E+00  0.00000000E+00  0.00000000E+00
  0.00000000E+00  0.00000000E+00  0.00000000E+00
  0.00000000E+00  0.00000000E+00  0.00000000E+00
  0.00000000E+00  0.00000000E+00  0.00000000E+00
  0.00000000E+00  0.00000000E+00  0.00000000E+00
  0.00000000E+00  0.00000000E+00  0.00000000E+00
  0.00000000E+00  0.00000000E+00  0.00000000E+00
  0.00000000E+00  0.00000000E+00  0.00000000E+00
  0.00000000E+00  0.00000000E+00  0.00000000E+00
  0.00000000E+00  0.00000000E+00  0.00000000E+00
  0.00000000E+00  0.00000000E+00  0.00000000E+00
  0.00000000E+00  0.00000000E+00  0.00000000E+00
  0.00000000E+00  0.00000000E+00  0.00000000E+00
  0.00000000E+00  0.00000000E+00  0.00000000E+00
  0.00000000E+00  0.00000000E+00  0.00000000E+00
  0.00000000E+00  0.00000000E+00  0.00000000E+00
  0.00000000E+00  0.00000000E+00  0.00000000E+00
  0.00000000E+00  0.00000000E+00  0.00000000E+00
  0.00000000E+00  0.00000000E+00  0.00000000E+00
  0.00000000E+00  0.00000000E+00  0.00000000E+00
  0.00000000E+00  0.00000000E+00  0.00000000E+00
  0.00000000E+00  0.00000000E+00  0.00000000E+00
  0.00000000E+00  0.00000000E+00  0.00000000E+00
  0.00000000E+00  0.00000000E+00  0.00000000E+00
  0.00000000E+00  0.00000000E+00  0.00000000E+00
  0.00000000E+00  0.00000000E+00  0.00000000E+00
  0.00000000E+00  0.00000000E+00  0.00000000E+00
  0.00000000E+00  0.00000000E+00  0.00000000E+00
  0.00000000E+00  0.00000000E+00  0.00000000E+00
  0.00000000E+00  0.00000000E+00  0.00000000E+00
  0.00000000E+00  0.00000000E+00  0.00000000E+00
  0.00000000E+00  0.00000000E+00  0.00000000E+00
  0.00000000E+00  0.00000000E+00  0.00000000E+00
  0.00000000E+00  0.00000000E+00  0.00000000E+00
  0.00000000E+00  0.00000000E+00  0.00000000E+00
  0.00000000E+00  0.00000000E+00  0.00000000E+00
  0.00000000E+00  0.00000000E+00  0.00000000E+00
  0.00000000E+00  0.00000000E+00  0.00000000E+00
  0.00000000E+00  0.00000000E+00  0.00000000E+00
  0.00000000E+00  0.00000000E+00  0.00000000E+00
  0.00000000E+00  0.00000000E+00  0.00000000E+00
  0.00000000E+00  0.00000000E+00  0.00000000E+00
