CONTCAR\(5)                             
   1.00000000000000     
    12.3312997818000003    0.0000000000000000    0.0000000000000000
     0.0001127485000000   12.8291997905000006    0.0000000000000000
     0.0005937186000000    0.0011528207000000   19.9943999824000009
   C    N    Fe   Ni   H 
    54     2     1     1     1
Direct
  0.0562456225447008  0.0542299859881740  0.0539061999965481
  0.1563542136212882  0.1097547023688996  0.0532429019828938
  0.1562915518572395  0.2206870854796688  0.0520017657597708
  0.0567531658813648  0.2762003813630627  0.0514816328411304
  0.2568875213491301  0.0554105830121435  0.0540843001018498
  0.3568648221335724  0.1121561685692952  0.0549681105248970
  0.3565282484013331  0.2237566178041206  0.0542851576232696
  0.2555389448354862  0.2766873145764658  0.0520810079564954
  0.4568437022491703  0.0574232930569508  0.0565759778050823
  0.5564336576458138  0.1151836108573163  0.0580796846374100
  0.5566448722059001  0.2281225167282757  0.0586912116676749
  0.4551299286041194  0.2833425991611593  0.0561008043183272
  0.6559420971597519  0.0559377918315619  0.0584153727718060
  0.7562988647979312  0.1113406232729674  0.0570830997363770
  0.7575261871208102  0.2229636636362982  0.0569016552494986
  0.6595203619246959  0.2833207809901952  0.0599962573498568
  0.8553350182975389  0.0539867393130336  0.0559077813659141
  0.9559646254740013  0.1093382014164871  0.0541531322761748
  0.9569750430658174  0.2205079438882138  0.0529595194860453
  0.8578385059022640  0.2770184043236717  0.0541854577806657
  0.0571668585699114  0.3875324870528422  0.0507296613755013
  0.1555901870623757  0.4437408545926771  0.0504303687232640
  0.1560035093311212  0.5551248962029095  0.0510065190549132
  0.0566965823974000  0.6105617270219645  0.0521828274168417
  0.2544285812115089  0.3873358232796482  0.0510321195151144
  0.3530379845524451  0.4418352373463043  0.0525971739398364
  0.3553197288359605  0.5543944595015331  0.0535211335725542
  0.2555643541376754  0.6104866473688404  0.0521744567756665
  0.7609073412671791  0.4443591489839860  0.0575345927326037
  0.8593937656090410  0.3880043644978278  0.0532891067911359
  0.9581937779939232  0.4435144427670082  0.0515485306859823
  0.9576521002443315  0.5541957217228928  0.0526078578948503
  0.8573608871930768  0.6087074150129544  0.0551343768340178
  0.0563863878704996  0.7218759232141287  0.0534357886977236
  0.1558984250357243  0.7771884413228055  0.0535786947866416
  0.1562252088590410  0.8884761319681400  0.0540866691909622
  0.0559585638976223  0.9433817261487371  0.0544745902594505
  0.2560247654537723  0.7213904595341905  0.0535935775024659
  0.3559223609505507  0.7764762034307156  0.0554489736618928
  0.3566862440514191  0.8883930332030709  0.0554633879681600
  0.2565525139771011  0.9440314020772312  0.0543752887375683
  0.4562775347170326  0.7186970785428345  0.0574781086481207
  0.5555058890663122  0.8885311211374787  0.0587841559361345
  0.4561498683198553  0.9453800800603428  0.0567127703008418
  0.7544710927248398  0.8839361574731229  0.0591009032740497
  0.6559970146370481  0.9443739480766347  0.0591715696041841
  0.8563662317286207  0.7213916653350029  0.0568025788953206
  0.9560129397100865  0.7770946055521143  0.0550143900975308
  0.9555900792694447  0.8878712745961007  0.0555133808900859
  0.8545880761449948  0.9417863369512458  0.0568517429500498
  0.7578683541131082  0.5560896804358040  0.0577862361363192
  0.5538928146766045  0.7793830427345158  0.0610367771904250
  0.7546875920875831  0.7713029715800646  0.0601189952373239
  0.4560919015142998  0.6054252292141769  0.0573874845740292
  0.4499385272811783  0.3912589171900723  0.0550004546298438
  0.6651017559907985  0.3892651404727081  0.0631801291587210
  0.6363578836174368  0.6612921481052039  0.0731151431044110
  0.5598615319653872  0.4937778046472554  0.0676855985224887
  0.6120439048617567  0.5627472260069722  0.1246628545012692
 
  0.00000000E+00  0.00000000E+00  0.00000000E+00
  0.00000000E+00  0.00000000E+00  0.00000000E+00
  0.00000000E+00  0.00000000E+00  0.00000000E+00
  0.00000000E+00  0.00000000E+00  0.00000000E+00
  0.00000000E+00  0.00000000E+00  0.00000000E+00
  0.00000000E+00  0.00000000E+00  0.00000000E+00
  0.00000000E+00  0.00000000E+00  0.00000000E+00
  0.00000000E+00  0.00000000E+00  0.00000000E+00
  0.00000000E+00  0.00000000E+00  0.00000000E+00
  0.00000000E+00  0.00000000E+00  0.00000000E+00
  0.00000000E+00  0.00000000E+00  0.00000000E+00
  0.00000000E+00  0.00000000E+00  0.00000000E+00
  0.00000000E+00  0.00000000E+00  0.00000000E+00
  0.00000000E+00  0.00000000E+00  0.00000000E+00
  0.00000000E+00  0.00000000E+00  0.00000000E+00
  0.00000000E+00  0.00000000E+00  0.00000000E+00
  0.00000000E+00  0.00000000E+00  0.00000000E+00
  0.00000000E+00  0.00000000E+00  0.00000000E+00
  0.00000000E+00  0.00000000E+00  0.00000000E+00
  0.00000000E+00  0.00000000E+00  0.00000000E+00
  0.00000000E+00  0.00000000E+00  0.00000000E+00
  0.00000000E+00  0.00000000E+00  0.00000000E+00
  0.00000000E+00  0.00000000E+00  0.00000000E+00
  0.00000000E+00  0.00000000E+00  0.00000000E+00
  0.00000000E+00  0.00000000E+00  0.00000000E+00
  0.00000000E+00  0.00000000E+00  0.00000000E+00
  0.00000000E+00  0.00000000E+00  0.00000000E+00
  0.00000000E+00  0.00000000E+00  0.00000000E+00
  0.00000000E+00  0.00000000E+00  0.00000000E+00
  0.00000000E+00  0.00000000E+00  0.00000000E+00
  0.00000000E+00  0.00000000E+00  0.00000000E+00
  0.00000000E+00  0.00000000E+00  0.00000000E+00
  0.00000000E+00  0.00000000E+00  0.00000000E+00
  0.00000000E+00  0.00000000E+00  0.00000000E+00
  0.00000000E+00  0.00000000E+00  0.00000000E+00
  0.00000000E+00  0.00000000E+00  0.00000000E+00
  0.00000000E+00  0.00000000E+00  0.00000000E+00
  0.00000000E+00  0.00000000E+00  0.00000000E+00
  0.00000000E+00  0.00000000E+00  0.00000000E+00
  0.00000000E+00  0.00000000E+00  0.00000000E+00
  0.00000000E+00  0.00000000E+00  0.00000000E+00
  0.00000000E+00  0.00000000E+00  0.00000000E+00
  0.00000000E+00  0.00000000E+00  0.00000000E+00
  0.00000000E+00  0.00000000E+00  0.00000000E+00
  0.00000000E+00  0.00000000E+00  0.00000000E+00
  0.00000000E+00  0.00000000E+00  0.00000000E+00
  0.00000000E+00  0.00000000E+00  0.00000000E+00
  0.00000000E+00  0.00000000E+00  0.00000000E+00
  0.00000000E+00  0.00000000E+00  0.00000000E+00
  0.00000000E+00  0.00000000E+00  0.00000000E+00
  0.00000000E+00  0.00000000E+00  0.00000000E+00
  0.00000000E+00  0.00000000E+00  0.00000000E+00
  0.00000000E+00  0.00000000E+00  0.00000000E+00
  0.00000000E+00  0.00000000E+00  0.00000000E+00
  0.00000000E+00  0.00000000E+00  0.00000000E+00
  0.00000000E+00  0.00000000E+00  0.00000000E+00
  0.00000000E+00  0.00000000E+00  0.00000000E+00
  0.00000000E+00  0.00000000E+00  0.00000000E+00
  0.00000000E+00  0.00000000E+00  0.00000000E+00
