CONTCAR                                 
   1.00000000000000     
    12.3312997818000003    0.0000000000000000    0.0000000000000000
     0.0001127485000000   12.8291997905000006    0.0000000000000000
     0.0005937186000000    0.0011528207000000   19.9943999824000009
   C    N    Fe   Ni   O 
    53     3     1     1     2
Direct
  0.0557128219418303  0.0547478825820183  0.0487285222676763
  0.1560673741734295  0.1102147688632605  0.0490792169056373
  0.1564346900447280  0.2211743651941994  0.0483206585611788
  0.0565443614575580  0.2762656372288349  0.0471838391725236
  0.2563535818610904  0.0555264921343741  0.0509505750281576
  0.3565918615454261  0.1116513103465685  0.0536281625649205
  0.3565737349498410  0.2234524145501700  0.0536401614887523
  0.2560845498887166  0.2773149119642103  0.0500346698036724
  0.4561961572807706  0.0558475445539283  0.0564521931160551
  0.5555664044104437  0.1135790576849069  0.0587091751557232
  0.5561130941908125  0.2259770786080597  0.0605395282860301
  0.4553695199100348  0.2822746725957708  0.0577958760684254
  0.6551216577867852  0.0547020534267789  0.0577881787761373
  0.7552260193543101  0.1110079022200007  0.0545881545298100
  0.7561445513603160  0.2229465281270613  0.0550733501626689
  0.6575460875716093  0.2825760703579370  0.0614729131093192
  0.8548838162952830  0.0543848305702706  0.0515873512618477
  0.9554012107186988  0.1099144858205622  0.0493742729477856
  0.9561648724766123  0.2211348654123939  0.0487148272498564
  0.8565254369369036  0.2773216448424521  0.0510776747210767
  0.0579413868768498  0.3871731526942463  0.0461372779272899
  0.1567030122162050  0.4437283278315458  0.0467593114639669
  0.1567261763235646  0.5546609971353101  0.0467676526522167
  0.0575721031708376  0.6104722891794715  0.0463375156683737
  0.2564142245222393  0.3884961023033932  0.0492866406641361
  0.3558007238755497  0.4434277409450919  0.0531716226681309
  0.3562224275745747  0.5568267765624446  0.0546980502201447
  0.2556302840210235  0.6106646832618636  0.0496646886784101
  0.7617347546149640  0.4476471707999720  0.0569991284038325
  0.8589718239776019  0.3885008234987402  0.0502673830656207
  0.9587201680787788  0.4429282446215188  0.0468361464451210
  0.9592230981980839  0.5535686678249783  0.0470076298692491
  0.8592642418581684  0.6072472401561326  0.0501608139848314
  0.0561919827686142  0.7215519632441739  0.0472554512400538
  0.1550259172586426  0.7776117876893786  0.0483300716885696
  0.1555562375944905  0.8887910313574381  0.0489674624736364
  0.0552881349948055  0.9437458912184327  0.0486642196638005
  0.2544710018427753  0.7217191971166218  0.0503491222251608
  0.3536344248335559  0.7767589209669832  0.0540302646426031
  0.3554886598565180  0.8883204832921231  0.0537260300150657
  0.2557063230619911  0.9442133705027846  0.0508671544767308
  0.4513594402242793  0.7182121820942414  0.0605368577027661
  0.5542311439437917  0.8850611826597962  0.0604524147737107
  0.4554888589906508  0.9437884141301420  0.0567943039874722
  0.7543738927007760  0.8851160469042946  0.0558251097651965
  0.6546429872165134  0.9426454003695621  0.0587832427869153
  0.8567620232551942  0.7201413857707614  0.0506108972955472
  0.9558643274640725  0.7764771837456556  0.0486203758489288
  0.9551443642850788  0.8878028493052322  0.0494046991892853
  0.8543968760239168  0.9424784650242326  0.0518458662326864
  0.6632437326259162  0.3923688093039236  0.0676029447251881
  0.5509986539266287  0.7745996058566721  0.0646749394019676
  0.7564274143086580  0.7736191043753982  0.0561293256783080
  0.4523439004816893  0.3904753689761482  0.0582897351128984
  0.4510999920766902  0.6096255469767655  0.0628986931504986
  0.7642670325497318  0.5552045104075710  0.0553377993462628
  0.6539016386394344  0.6697254838108054  0.0794789825966250
  0.5556369486456110  0.4847578587227852  0.0882810691890466
  0.6124256764437085  0.5370918476855553  0.1662523999900683
  0.6367820585226331  0.6446194395940199  0.1685374009124360
 
  0.00000000E+00  0.00000000E+00  0.00000000E+00
  0.00000000E+00  0.00000000E+00  0.00000000E+00
  0.00000000E+00  0.00000000E+00  0.00000000E+00
  0.00000000E+00  0.00000000E+00  0.00000000E+00
  0.00000000E+00  0.00000000E+00  0.00000000E+00
  0.00000000E+00  0.00000000E+00  0.00000000E+00
  0.00000000E+00  0.00000000E+00  0.00000000E+00
  0.00000000E+00  0.00000000E+00  0.00000000E+00
  0.00000000E+00  0.00000000E+00  0.00000000E+00
  0.00000000E+00  0.00000000E+00  0.00000000E+00
  0.00000000E+00  0.00000000E+00  0.00000000E+00
  0.00000000E+00  0.00000000E+00  0.00000000E+00
  0.00000000E+00  0.00000000E+00  0.00000000E+00
  0.00000000E+00  0.00000000E+00  0.00000000E+00
  0.00000000E+00  0.00000000E+00  0.00000000E+00
  0.00000000E+00  0.00000000E+00  0.00000000E+00
  0.00000000E+00  0.00000000E+00  0.00000000E+00
  0.00000000E+00  0.00000000E+00  0.00000000E+00
  0.00000000E+00  0.00000000E+00  0.00000000E+00
  0.00000000E+00  0.00000000E+00  0.00000000E+00
  0.00000000E+00  0.00000000E+00  0.00000000E+00
  0.00000000E+00  0.00000000E+00  0.00000000E+00
  0.00000000E+00  0.00000000E+00  0.00000000E+00
  0.00000000E+00  0.00000000E+00  0.00000000E+00
  0.00000000E+00  0.00000000E+00  0.00000000E+00
  0.00000000E+00  0.00000000E+00  0.00000000E+00
  0.00000000E+00  0.00000000E+00  0.00000000E+00
  0.00000000E+00  0.00000000E+00  0.00000000E+00
  0.00000000E+00  0.00000000E+00  0.00000000E+00
  0.00000000E+00  0.00000000E+00  0.00000000E+00
  0.00000000E+00  0.00000000E+00  0.00000000E+00
  0.00000000E+00  0.00000000E+00  0.00000000E+00
  0.00000000E+00  0.00000000E+00  0.00000000E+00
  0.00000000E+00  0.00000000E+00  0.00000000E+00
  0.00000000E+00  0.00000000E+00  0.00000000E+00
  0.00000000E+00  0.00000000E+00  0.00000000E+00
  0.00000000E+00  0.00000000E+00  0.00000000E+00
  0.00000000E+00  0.00000000E+00  0.00000000E+00
  0.00000000E+00  0.00000000E+00  0.00000000E+00
  0.00000000E+00  0.00000000E+00  0.00000000E+00
  0.00000000E+00  0.00000000E+00  0.00000000E+00
  0.00000000E+00  0.00000000E+00  0.00000000E+00
  0.00000000E+00  0.00000000E+00  0.00000000E+00
  0.00000000E+00  0.00000000E+00  0.00000000E+00
  0.00000000E+00  0.00000000E+00  0.00000000E+00
  0.00000000E+00  0.00000000E+00  0.00000000E+00
  0.00000000E+00  0.00000000E+00  0.00000000E+00
  0.00000000E+00  0.00000000E+00  0.00000000E+00
  0.00000000E+00  0.00000000E+00  0.00000000E+00
  0.00000000E+00  0.00000000E+00  0.00000000E+00
  0.00000000E+00  0.00000000E+00  0.00000000E+00
  0.00000000E+00  0.00000000E+00  0.00000000E+00
  0.00000000E+00  0.00000000E+00  0.00000000E+00
  0.00000000E+00  0.00000000E+00  0.00000000E+00
  0.00000000E+00  0.00000000E+00  0.00000000E+00
  0.00000000E+00  0.00000000E+00  0.00000000E+00
  0.00000000E+00  0.00000000E+00  0.00000000E+00
  0.00000000E+00  0.00000000E+00  0.00000000E+00
  0.00000000E+00  0.00000000E+00  0.00000000E+00
  0.00000000E+00  0.00000000E+00  0.00000000E+00
