CONTCAR\(6)                             
   1.00000000000000     
    12.3312997818000003    0.0000000000000000    0.0000000000000000
     0.0001127485000000   12.8291997905000006    0.0000000000000000
     0.0005937186000000    0.0011528207000000   19.9943999824000009
   C    N    Fe   Ni   O    H 
    51     5     1     1     1     1
Direct
  0.0558779150441783  0.0538295159094058  0.0486587477889715
  0.1563966315203063  0.1093370075729406  0.0489399657941179
  0.1560802413204964  0.2199752591427764  0.0473377501887471
  0.0559933658809967  0.2755899348923160  0.0464620357663832
  0.2573016215324166  0.0548204745735298  0.0515570826874815
  0.3576738926046375  0.1107473000454081  0.0549610779619051
  0.3570863698258941  0.2228987933570910  0.0534849329859882
  0.2558799454839841  0.2757571181165452  0.0482044528757662
  0.4578159062634400  0.0550009409635411  0.0596353862040877
  0.5573618414012543  0.1132259562622988  0.0622898616333589
  0.5577295521204875  0.2280251821706037  0.0630757590000858
  0.4552778381630644  0.2834587694552568  0.0582338356025037
  0.6556079864205576  0.0521611411329397  0.0615716062935909
  0.7548782817400682  0.1094929078329133  0.0577915832537960
  0.7560451720374755  0.2223852357971020  0.0585688503927624
  0.6596189173533809  0.2840121769637106  0.0644619689704215
  0.8548441242327595  0.0530767441145640  0.0532054321276151
  0.9553997654436139  0.1087598743815331  0.0503270002106768
  0.9560031242327682  0.2203318043200254  0.0497833424304520
  0.8566743695593124  0.2768098546081032  0.0534576211770513
  0.0563567032586627  0.3868331517595703  0.0440235140920416
  0.1553456912159963  0.4428777746945048  0.0426842206601938
  0.1557277492117833  0.5538992738373869  0.0420930399516771
  0.0569331591544179  0.6101115394409997  0.0420146261236369
  0.2543572506894961  0.3865553459263516  0.0456680376125337
  0.3524645360005187  0.4416081136279141  0.0504154561907186
  0.3537257164354664  0.5542194289354054  0.0523973840271552
  0.2548788466271275  0.6096578961755044  0.0458718549620287
  0.7605234901850243  0.4460170772515457  0.0593550921818478
  0.8584837517164370  0.3881239248096551  0.0518147742478121
  0.9575551421419147  0.4429302502149344  0.0457955763200314
  0.9577787958778651  0.5542103115169142  0.0445090384326500
  0.8585086949402384  0.6082414063029552  0.0487995437280660
  0.0571586992511312  0.7209386541526052  0.0430937992974433
  0.1564418235694366  0.7769357707069842  0.0453415532810606
  0.1565959581004880  0.8877794608642861  0.0475335694589000
  0.0561003818820416  0.9428897837841270  0.0474452455565931
  0.2555698362744134  0.7206772633963181  0.0479527644836732
  0.3547301636677896  0.7756499213738758  0.0552560392583066
  0.3561068413020322  0.8873167391497699  0.0559259353905706
  0.2567262923128603  0.9433853030306176  0.0513492080537448
  0.4526319552220051  0.7181659316449380  0.0647393501021694
  0.5541902654882478  0.8809536214830277  0.0659799594691933
  0.4565860421027765  0.9422261679035165  0.0608940150307351
  0.7566765625383173  0.8814777741950890  0.0558908709655264
  0.6554876664882521  0.9373915294246657  0.0623106750495197
  0.8585047056218059  0.7208042958645822  0.0477260287323023
  0.9574988887308767  0.7760630031417252  0.0450349020688743
  0.9563162992856465  0.8872883790316476  0.0474165219487088
  0.8553292338199808  0.9412109913293626  0.0516274661186182
  0.4524013930638758  0.6060328469466546  0.0649159642304674
  0.4493468313574793  0.3912452382610653  0.0574613292806570
  0.6655332062712033  0.3931887407337563  0.0695142673986788
  0.7613970910407044  0.5550979508211729  0.0567881289459381
  0.5491106065854444  0.7732436902410836  0.0720412415000227
  0.7611434289975830  0.7734637743695084  0.0540607376940365
  0.6606622312104125  0.6684916963245967  0.0809857142598357
  0.5522723988597644  0.4951441599012874  0.0824998934539643
  0.6109229058837361  0.5827835497057147  0.1523040294187600
  0.6726519314356496  0.5440523161117601  0.1703803276755165
 
  0.00000000E+00  0.00000000E+00  0.00000000E+00
  0.00000000E+00  0.00000000E+00  0.00000000E+00
  0.00000000E+00  0.00000000E+00  0.00000000E+00
  0.00000000E+00  0.00000000E+00  0.00000000E+00
  0.00000000E+00  0.00000000E+00  0.00000000E+00
  0.00000000E+00  0.00000000E+00  0.00000000E+00
  0.00000000E+00  0.00000000E+00  0.00000000E+00
  0.00000000E+00  0.00000000E+00  0.00000000E+00
  0.00000000E+00  0.00000000E+00  0.00000000E+00
  0.00000000E+00  0.00000000E+00  0.00000000E+00
  0.00000000E+00  0.00000000E+00  0.00000000E+00
  0.00000000E+00  0.00000000E+00  0.00000000E+00
  0.00000000E+00  0.00000000E+00  0.00000000E+00
  0.00000000E+00  0.00000000E+00  0.00000000E+00
  0.00000000E+00  0.00000000E+00  0.00000000E+00
  0.00000000E+00  0.00000000E+00  0.00000000E+00
  0.00000000E+00  0.00000000E+00  0.00000000E+00
  0.00000000E+00  0.00000000E+00  0.00000000E+00
  0.00000000E+00  0.00000000E+00  0.00000000E+00
  0.00000000E+00  0.00000000E+00  0.00000000E+00
  0.00000000E+00  0.00000000E+00  0.00000000E+00
  0.00000000E+00  0.00000000E+00  0.00000000E+00
  0.00000000E+00  0.00000000E+00  0.00000000E+00
  0.00000000E+00  0.00000000E+00  0.00000000E+00
  0.00000000E+00  0.00000000E+00  0.00000000E+00
  0.00000000E+00  0.00000000E+00  0.00000000E+00
  0.00000000E+00  0.00000000E+00  0.00000000E+00
  0.00000000E+00  0.00000000E+00  0.00000000E+00
  0.00000000E+00  0.00000000E+00  0.00000000E+00
  0.00000000E+00  0.00000000E+00  0.00000000E+00
  0.00000000E+00  0.00000000E+00  0.00000000E+00
  0.00000000E+00  0.00000000E+00  0.00000000E+00
  0.00000000E+00  0.00000000E+00  0.00000000E+00
  0.00000000E+00  0.00000000E+00  0.00000000E+00
  0.00000000E+00  0.00000000E+00  0.00000000E+00
  0.00000000E+00  0.00000000E+00  0.00000000E+00
  0.00000000E+00  0.00000000E+00  0.00000000E+00
  0.00000000E+00  0.00000000E+00  0.00000000E+00
  0.00000000E+00  0.00000000E+00  0.00000000E+00
  0.00000000E+00  0.00000000E+00  0.00000000E+00
  0.00000000E+00  0.00000000E+00  0.00000000E+00
  0.00000000E+00  0.00000000E+00  0.00000000E+00
  0.00000000E+00  0.00000000E+00  0.00000000E+00
  0.00000000E+00  0.00000000E+00  0.00000000E+00
  0.00000000E+00  0.00000000E+00  0.00000000E+00
  0.00000000E+00  0.00000000E+00  0.00000000E+00
  0.00000000E+00  0.00000000E+00  0.00000000E+00
  0.00000000E+00  0.00000000E+00  0.00000000E+00
  0.00000000E+00  0.00000000E+00  0.00000000E+00
  0.00000000E+00  0.00000000E+00  0.00000000E+00
  0.00000000E+00  0.00000000E+00  0.00000000E+00
  0.00000000E+00  0.00000000E+00  0.00000000E+00
  0.00000000E+00  0.00000000E+00  0.00000000E+00
  0.00000000E+00  0.00000000E+00  0.00000000E+00
  0.00000000E+00  0.00000000E+00  0.00000000E+00
  0.00000000E+00  0.00000000E+00  0.00000000E+00
  0.00000000E+00  0.00000000E+00  0.00000000E+00
  0.00000000E+00  0.00000000E+00  0.00000000E+00
  0.00000000E+00  0.00000000E+00  0.00000000E+00
  0.00000000E+00  0.00000000E+00  0.00000000E+00
