CONTCAR\(5)                             
   1.00000000000000     
    12.3312997818000003    0.0000000000000000    0.0000000000000000
     0.0001127485000000   12.8291997905000006    0.0000000000000000
     0.0005937186000000    0.0011528207000000   19.9943999824000009
   C    N    Fe   Ni   O 
    51     5     1     1     1
Direct
  0.0557692729659415  0.0548876017543938  0.0506559815782116
  0.1563296301148726  0.1102815382211046  0.0505555727632247
  0.1563073881129260  0.2211046354587639  0.0490480972072427
  0.0559237609942461  0.2762305302500458  0.0480784436322833
  0.2567104211790825  0.0553022054776000  0.0524127915370406
  0.3572687456206460  0.1105986823177968  0.0556640920340956
  0.3567696778029882  0.2226570566879174  0.0546524442431555
  0.2563320107053732  0.2767359444734783  0.0496970627090928
  0.4571316157543942  0.0540393394235942  0.0597373156472544
  0.5565648039664889  0.1114465160598250  0.0633250029818115
  0.5566099819837158  0.2253220662420929  0.0648481594726557
  0.4556790962273199  0.2817385367588461  0.0596059519046878
  0.6551235828552484  0.0509596069343593  0.0633479656334738
  0.7545591733584623  0.1094003826745583  0.0602950599537402
  0.7553440100127873  0.2222253754350569  0.0610881809294936
  0.6573172696139561  0.2829565948733383  0.0674523306556467
  0.8547075388122515  0.0534732252394296  0.0559861274879827
  0.9550551118183277  0.1096224914117292  0.0527105475969602
  0.9555001688478983  0.2212484381481867  0.0517903110140759
  0.8557102437957119  0.2775737746718300  0.0555716506333854
  0.0568484854826528  0.3871498985707260  0.0449594526199836
  0.1564222149835986  0.4432803454833819  0.0430712438337307
  0.1563001968215212  0.5540460372444745  0.0415923955293134
  0.0574795306770770  0.6104627592334543  0.0415273088291880
  0.2561338989154801  0.3881901552128821  0.0465958541406258
  0.3555986046131376  0.4432667085116636  0.0502982822112337
  0.3550067719793599  0.5566703030355793  0.0497858014697389
  0.2551338468695330  0.6100494749605949  0.0444276202446356
  0.7607695362784275  0.4494432315557367  0.0620210651750675
  0.8580136613765375  0.3893641702651329  0.0537244534493498
  0.9578647881946981  0.4431318909319388  0.0466532341242212
  0.9588596145191642  0.5545292853848754  0.0444987006970846
  0.8601711659942065  0.6094261122380599  0.0498931379361386
  0.0571129632896306  0.7213997183044218  0.0428584017625323
  0.1558987510747989  0.7776315466548168  0.0446410529412804
  0.1562162295034338  0.8885431882525301  0.0478045119112687
  0.0560667332924626  0.9440502988436771  0.0490447573056726
  0.2546816185036956  0.7213853568833063  0.0462993682421044
  0.3531522301284213  0.7765346549226915  0.0529346013209747
  0.3552689138146321  0.8876043666445853  0.0548050465433580
  0.2561408434917637  0.9439273549977574  0.0513580375824056
  0.4503222841668335  0.7179925935554536  0.0600761442592088
  0.5529806871629603  0.8799686342665257  0.0650485282632802
  0.4561132120853597  0.9415450571175973  0.0599431441142508
  0.7571067687705905  0.8808734917630848  0.0594317442261810
  0.6547774022853230  0.9361021334272961  0.0639913198383224
  0.8594531374485423  0.7220093512690089  0.0499975951649116
  0.9580146077009420  0.7770379160777254  0.0463979037903563
  0.9564604865724348  0.8880768301966770  0.0497569314734706
  0.8553904033000074  0.9413779809052171  0.0548964096844674
  0.6626979788904380  0.3942367878105223  0.0735126742410436
  0.4520749104538915  0.3899316009381258  0.0587008784012631
  0.4498048122846663  0.6109163153524505  0.0582019997990302
  0.7647782308420630  0.5584048013557028  0.0589929866314468
  0.5469009392107871  0.7708471277907464  0.0689431648016070
  0.7623366550420819  0.7730259356402730  0.0579558180646335
  0.6573263563976389  0.6651875763698857  0.0833162264765257
  0.5517728637211543  0.4885084088123828  0.0867096354920195
  0.6096742173174080  0.5824960517050939  0.1443894587925398
 
  0.00000000E+00  0.00000000E+00  0.00000000E+00
  0.00000000E+00  0.00000000E+00  0.00000000E+00
  0.00000000E+00  0.00000000E+00  0.00000000E+00
  0.00000000E+00  0.00000000E+00  0.00000000E+00
  0.00000000E+00  0.00000000E+00  0.00000000E+00
  0.00000000E+00  0.00000000E+00  0.00000000E+00
  0.00000000E+00  0.00000000E+00  0.00000000E+00
  0.00000000E+00  0.00000000E+00  0.00000000E+00
  0.00000000E+00  0.00000000E+00  0.00000000E+00
  0.00000000E+00  0.00000000E+00  0.00000000E+00
  0.00000000E+00  0.00000000E+00  0.00000000E+00
  0.00000000E+00  0.00000000E+00  0.00000000E+00
  0.00000000E+00  0.00000000E+00  0.00000000E+00
  0.00000000E+00  0.00000000E+00  0.00000000E+00
  0.00000000E+00  0.00000000E+00  0.00000000E+00
  0.00000000E+00  0.00000000E+00  0.00000000E+00
  0.00000000E+00  0.00000000E+00  0.00000000E+00
  0.00000000E+00  0.00000000E+00  0.00000000E+00
  0.00000000E+00  0.00000000E+00  0.00000000E+00
  0.00000000E+00  0.00000000E+00  0.00000000E+00
  0.00000000E+00  0.00000000E+00  0.00000000E+00
  0.00000000E+00  0.00000000E+00  0.00000000E+00
  0.00000000E+00  0.00000000E+00  0.00000000E+00
  0.00000000E+00  0.00000000E+00  0.00000000E+00
  0.00000000E+00  0.00000000E+00  0.00000000E+00
  0.00000000E+00  0.00000000E+00  0.00000000E+00
  0.00000000E+00  0.00000000E+00  0.00000000E+00
  0.00000000E+00  0.00000000E+00  0.00000000E+00
  0.00000000E+00  0.00000000E+00  0.00000000E+00
  0.00000000E+00  0.00000000E+00  0.00000000E+00
  0.00000000E+00  0.00000000E+00  0.00000000E+00
  0.00000000E+00  0.00000000E+00  0.00000000E+00
  0.00000000E+00  0.00000000E+00  0.00000000E+00
  0.00000000E+00  0.00000000E+00  0.00000000E+00
  0.00000000E+00  0.00000000E+00  0.00000000E+00
  0.00000000E+00  0.00000000E+00  0.00000000E+00
  0.00000000E+00  0.00000000E+00  0.00000000E+00
  0.00000000E+00  0.00000000E+00  0.00000000E+00
  0.00000000E+00  0.00000000E+00  0.00000000E+00
  0.00000000E+00  0.00000000E+00  0.00000000E+00
  0.00000000E+00  0.00000000E+00  0.00000000E+00
  0.00000000E+00  0.00000000E+00  0.00000000E+00
  0.00000000E+00  0.00000000E+00  0.00000000E+00
  0.00000000E+00  0.00000000E+00  0.00000000E+00
  0.00000000E+00  0.00000000E+00  0.00000000E+00
  0.00000000E+00  0.00000000E+00  0.00000000E+00
  0.00000000E+00  0.00000000E+00  0.00000000E+00
  0.00000000E+00  0.00000000E+00  0.00000000E+00
  0.00000000E+00  0.00000000E+00  0.00000000E+00
  0.00000000E+00  0.00000000E+00  0.00000000E+00
  0.00000000E+00  0.00000000E+00  0.00000000E+00
  0.00000000E+00  0.00000000E+00  0.00000000E+00
  0.00000000E+00  0.00000000E+00  0.00000000E+00
  0.00000000E+00  0.00000000E+00  0.00000000E+00
  0.00000000E+00  0.00000000E+00  0.00000000E+00
  0.00000000E+00  0.00000000E+00  0.00000000E+00
  0.00000000E+00  0.00000000E+00  0.00000000E+00
  0.00000000E+00  0.00000000E+00  0.00000000E+00
  0.00000000E+00  0.00000000E+00  0.00000000E+00
