CONTCAR\(3)                             
   1.00000000000000     
    12.3312997818000003    0.0000000000000000    0.0000000000000000
     0.0001127485000000   12.8291997905000006    0.0000000000000000
     0.0005937186000000    0.0011528207000000   19.9943999824000009
   C    N    Fe   Ni   O    H 
    53     3     1     1     1     1
Direct
  0.0563320591546186  0.0557051298364446  0.0496799115265873
  0.1568262918170671  0.1114749764973096  0.0499178796073428
  0.1573588100778632  0.2224922475679280  0.0488512586268603
  0.0570056377905171  0.2768293285146970  0.0478653437080050
  0.2570497044321354  0.0567438202720265  0.0519556670667223
  0.3575753298351587  0.1125657616188525  0.0547623246468008
  0.3580766020350535  0.2245913523482646  0.0539991070859233
  0.2574539442113565  0.2788222886828683  0.0499348770607913
  0.4571449569742091  0.0563217387608735  0.0584622065037836
  0.5572058926275507  0.1127610765419839  0.0610420877733154
  0.5579568039309518  0.2256008503391828  0.0616938874650318
  0.4581031670009192  0.2827288428073391  0.0580440466034813
  0.6552235348380760  0.0524712532385151  0.0608148635339535
  0.7552404229968751  0.1096061714035791  0.0574470391944445
  0.7568116591072740  0.2220823117265554  0.0576169585796212
  0.6591029737697036  0.2821373146766654  0.0624287986671991
  0.8551739649706878  0.0540071069195219  0.0536025477596777
  0.9557462810759426  0.1100372797248564  0.0509567839854161
  0.9567617528427120  0.2210925618786873  0.0502076623383902
  0.8571538674408323  0.2767406952756205  0.0528681040896257
  0.0570467321974339  0.3878038594639152  0.0461448806195271
  0.1561854395180736  0.4441962543985848  0.0459110953924753
  0.1559742185448998  0.5554880355222889  0.0454554050724392
  0.0572124834522368  0.6107061335062384  0.0447320756027475
  0.2561589286277655  0.3900467771072680  0.0484042544133663
  0.3552921828010100  0.4473160767452252  0.0517156979949791
  0.3543297594353635  0.5597714687242739  0.0526694914663327
  0.2547846583943435  0.6127030566932524  0.0482639621941513
  0.7589024105432091  0.4449891240488938  0.0568090194933392
  0.8579112752372775  0.3879494925009460  0.0510965027754989
  0.9575011340297187  0.4431427087967826  0.0466893286744577
  0.9580626696347653  0.5539337898485055  0.0456322614190247
  0.8588013866357864  0.6082137599208455  0.0487162914508141
  0.0571155088041689  0.7222482189600314  0.0456778600405866
  0.1555943395510324  0.7788273608464918  0.0472320575169291
  0.1558693835903800  0.8899803519128300  0.0488082899791953
  0.0559110515009431  0.9448288458454220  0.0488873400953641
  0.2544716737267294  0.7233292387674686  0.0490682703211032
  0.3536998475930045  0.7780038575755092  0.0536492358960917
  0.3552789092219382  0.8894396379808412  0.0548141627557647
  0.2560685873858668  0.9454359438683460  0.0516196173490944
  0.4513016662473296  0.7203638072248223  0.0602182423621192
  0.5525432121788844  0.8831852023210824  0.0637747041649346
  0.4556723502716260  0.9437051938507937  0.0591390519271408
  0.7551516364412943  0.8832226657051744  0.0573513529330288
  0.6542284818449288  0.9393507348166754  0.0619266245224709
  0.8594719725350360  0.7209468677825286  0.0493489281679366
  0.9577380088246887  0.7775644638354618  0.0473741503096027
  0.9558944041366135  0.8885537824641628  0.0492518739702052
  0.8547773636297340  0.9421286414919113  0.0528528289241842
  0.4544686111077380  0.3940232086591376  0.0575220140886741
  0.7581623533309703  0.5568206359108800  0.0556320689012692
  0.7596121289709894  0.7721132194865504  0.0562411128553294
  0.6629512600016804  0.3895574213689261  0.0650951891152419
  0.5473941912530121  0.7742418904137017  0.0680764447936333
  0.4511210732916144  0.6117836536083666  0.0597677994693949
  0.6574087135902916  0.6691806446526786  0.0853574204263665
  0.5587529757628121  0.4916106324712919  0.0772483467918632
  0.6107671348849336  0.5811215651344179  0.1562307644999214
  0.5465163573403444  0.6075797111357060  0.1791226404304273
 
  0.00000000E+00  0.00000000E+00  0.00000000E+00
  0.00000000E+00  0.00000000E+00  0.00000000E+00
  0.00000000E+00  0.00000000E+00  0.00000000E+00
  0.00000000E+00  0.00000000E+00  0.00000000E+00
  0.00000000E+00  0.00000000E+00  0.00000000E+00
  0.00000000E+00  0.00000000E+00  0.00000000E+00
  0.00000000E+00  0.00000000E+00  0.00000000E+00
  0.00000000E+00  0.00000000E+00  0.00000000E+00
  0.00000000E+00  0.00000000E+00  0.00000000E+00
  0.00000000E+00  0.00000000E+00  0.00000000E+00
  0.00000000E+00  0.00000000E+00  0.00000000E+00
  0.00000000E+00  0.00000000E+00  0.00000000E+00
  0.00000000E+00  0.00000000E+00  0.00000000E+00
  0.00000000E+00  0.00000000E+00  0.00000000E+00
  0.00000000E+00  0.00000000E+00  0.00000000E+00
  0.00000000E+00  0.00000000E+00  0.00000000E+00
  0.00000000E+00  0.00000000E+00  0.00000000E+00
  0.00000000E+00  0.00000000E+00  0.00000000E+00
  0.00000000E+00  0.00000000E+00  0.00000000E+00
  0.00000000E+00  0.00000000E+00  0.00000000E+00
  0.00000000E+00  0.00000000E+00  0.00000000E+00
  0.00000000E+00  0.00000000E+00  0.00000000E+00
  0.00000000E+00  0.00000000E+00  0.00000000E+00
  0.00000000E+00  0.00000000E+00  0.00000000E+00
  0.00000000E+00  0.00000000E+00  0.00000000E+00
  0.00000000E+00  0.00000000E+00  0.00000000E+00
  0.00000000E+00  0.00000000E+00  0.00000000E+00
  0.00000000E+00  0.00000000E+00  0.00000000E+00
  0.00000000E+00  0.00000000E+00  0.00000000E+00
  0.00000000E+00  0.00000000E+00  0.00000000E+00
  0.00000000E+00  0.00000000E+00  0.00000000E+00
  0.00000000E+00  0.00000000E+00  0.00000000E+00
  0.00000000E+00  0.00000000E+00  0.00000000E+00
  0.00000000E+00  0.00000000E+00  0.00000000E+00
  0.00000000E+00  0.00000000E+00  0.00000000E+00
  0.00000000E+00  0.00000000E+00  0.00000000E+00
  0.00000000E+00  0.00000000E+00  0.00000000E+00
  0.00000000E+00  0.00000000E+00  0.00000000E+00
  0.00000000E+00  0.00000000E+00  0.00000000E+00
  0.00000000E+00  0.00000000E+00  0.00000000E+00
  0.00000000E+00  0.00000000E+00  0.00000000E+00
  0.00000000E+00  0.00000000E+00  0.00000000E+00
  0.00000000E+00  0.00000000E+00  0.00000000E+00
  0.00000000E+00  0.00000000E+00  0.00000000E+00
  0.00000000E+00  0.00000000E+00  0.00000000E+00
  0.00000000E+00  0.00000000E+00  0.00000000E+00
  0.00000000E+00  0.00000000E+00  0.00000000E+00
  0.00000000E+00  0.00000000E+00  0.00000000E+00
  0.00000000E+00  0.00000000E+00  0.00000000E+00
  0.00000000E+00  0.00000000E+00  0.00000000E+00
  0.00000000E+00  0.00000000E+00  0.00000000E+00
  0.00000000E+00  0.00000000E+00  0.00000000E+00
  0.00000000E+00  0.00000000E+00  0.00000000E+00
  0.00000000E+00  0.00000000E+00  0.00000000E+00
  0.00000000E+00  0.00000000E+00  0.00000000E+00
  0.00000000E+00  0.00000000E+00  0.00000000E+00
  0.00000000E+00  0.00000000E+00  0.00000000E+00
  0.00000000E+00  0.00000000E+00  0.00000000E+00
  0.00000000E+00  0.00000000E+00  0.00000000E+00
  0.00000000E+00  0.00000000E+00  0.00000000E+00
