CONTCAR\(4)                             
   1.00000000000000     
    12.3312997818000003    0.0000000000000000    0.0000000000000000
     0.0001127485000000   12.8291997905000006    0.0000000000000000
     0.0005937186000000    0.0011528207000000   19.9943999824000009
   C    N    Fe   Ni   O    H 
    52     4     1     1     1     1
Direct
  0.0560159048601436  0.0539390050371205  0.0488532523506123
  0.1565751980492818  0.1095423801194091  0.0486915115249306
  0.1569361085006014  0.2202914166160425  0.0470656610089677
  0.0564849155834703  0.2752615161604273  0.0464731786468258
  0.2573452531593378  0.0550504559631662  0.0510245834600412
  0.3578698470230449  0.1108566145924773  0.0544558385191975
  0.3582938830054626  0.2229408115529720  0.0530414241350881
  0.2570668800794806  0.2761567757117118  0.0476199210559572
  0.4577821858503414  0.0547101194964077  0.0593383628871275
  0.5582214953938240  0.1116580265711540  0.0629076268128556
  0.5590215884625506  0.2253919332585263  0.0638026709275121
  0.4581137674395535  0.2820610173487091  0.0578697050629080
  0.6564017398709350  0.0507737116767315  0.0628081468184397
  0.7554860991825257  0.1083793679475978  0.0592873166038782
  0.7569117911449031  0.2214659488086156  0.0601089596954556
  0.6603952709759079  0.2824034313837552  0.0661271366300209
  0.8551874559313424  0.0523239196598748  0.0545500145546750
  0.9556225169395808  0.1083438833298002  0.0510294699104372
  0.9565225719920292  0.2198878614864512  0.0502324969158607
  0.8571053846291458  0.2760652334422093  0.0542902540876571
  0.0564381430227242  0.3865033423072405  0.0440761080998405
  0.1553709027077378  0.4426068993784998  0.0424692820346070
  0.1553405455235429  0.5539384267454519  0.0416057438546766
  0.0565296157944237  0.6097082038619734  0.0416548850533034
  0.2550210470826419  0.3871114390652681  0.0448758141656023
  0.3527359485147291  0.4437316665522054  0.0484291388294310
  0.3527815141379131  0.5559760799793624  0.0500966382468254
  0.2540707508278082  0.6107780012442076  0.0448089843312227
  0.7602450400237593  0.4454820696441374  0.0603291228634697
  0.8581728278975522  0.3875792521918912  0.0522549787629208
  0.9574087853908723  0.4422562382120406  0.0458564804089513
  0.9576871203854550  0.5534050341877851  0.0444366125799960
  0.8584619525895236  0.6070563024058810  0.0496939861554815
  0.0566408622894310  0.7207367879251526  0.0429164824626836
  0.1554899123865105  0.7773327709143792  0.0447403432242722
  0.1560348594487727  0.8881698291316121  0.0470629601994625
  0.0557065943332001  0.9429271844573268  0.0476580913890240
  0.2545180162142527  0.7215897572016425  0.0468601236327739
  0.3535943088727657  0.7763573323462181  0.0536698661118181
  0.3554656290149785  0.8877779427472168  0.0547490661531652
  0.2563084849443604  0.9437595909776851  0.0505956005570857
  0.4510453054203307  0.7186577917713148  0.0624137483176716
  0.5535149477258994  0.8812707083099957  0.0656270853233887
  0.4560704131881134  0.9422615734812690  0.0601194743673136
  0.7567783899710262  0.8803817172253926  0.0584233497655887
  0.6558543877175217  0.9364231717945259  0.0635628691649297
  0.8585903293406106  0.7197164364590071  0.0496748734456566
  0.9570889323663356  0.7755235714721762  0.0459946749585232
  0.9561931108372035  0.8868337342483208  0.0485659868103121
  0.8552235678494040  0.9401378710378016  0.0535609025519720
  0.4532721876998524  0.3934114578854596  0.0559493416989236
  0.4521385966561712  0.6067257742244888  0.0621429019937869
  0.6650860999456782  0.3916857110771426  0.0714283357598271
  0.7615050334069109  0.5548462717080375  0.0580504754695883
  0.5479424353587012  0.7736757036951618  0.0701101559978558
  0.7609521783356693  0.7711653814469385  0.0570509922444096
  0.6533333438809441  0.6694393900884337  0.0747569865138744
  0.5533944307888408  0.4927513299580312  0.0838411928183543
  0.6107741505953946  0.5878913059872248  0.1523502957012481
  0.6741092204389408  0.5537935074889438  0.1718685073716872
 
  0.00000000E+00  0.00000000E+00  0.00000000E+00
  0.00000000E+00  0.00000000E+00  0.00000000E+00
  0.00000000E+00  0.00000000E+00  0.00000000E+00
  0.00000000E+00  0.00000000E+00  0.00000000E+00
  0.00000000E+00  0.00000000E+00  0.00000000E+00
  0.00000000E+00  0.00000000E+00  0.00000000E+00
  0.00000000E+00  0.00000000E+00  0.00000000E+00
  0.00000000E+00  0.00000000E+00  0.00000000E+00
  0.00000000E+00  0.00000000E+00  0.00000000E+00
  0.00000000E+00  0.00000000E+00  0.00000000E+00
  0.00000000E+00  0.00000000E+00  0.00000000E+00
  0.00000000E+00  0.00000000E+00  0.00000000E+00
  0.00000000E+00  0.00000000E+00  0.00000000E+00
  0.00000000E+00  0.00000000E+00  0.00000000E+00
  0.00000000E+00  0.00000000E+00  0.00000000E+00
  0.00000000E+00  0.00000000E+00  0.00000000E+00
  0.00000000E+00  0.00000000E+00  0.00000000E+00
  0.00000000E+00  0.00000000E+00  0.00000000E+00
  0.00000000E+00  0.00000000E+00  0.00000000E+00
  0.00000000E+00  0.00000000E+00  0.00000000E+00
  0.00000000E+00  0.00000000E+00  0.00000000E+00
  0.00000000E+00  0.00000000E+00  0.00000000E+00
  0.00000000E+00  0.00000000E+00  0.00000000E+00
  0.00000000E+00  0.00000000E+00  0.00000000E+00
  0.00000000E+00  0.00000000E+00  0.00000000E+00
  0.00000000E+00  0.00000000E+00  0.00000000E+00
  0.00000000E+00  0.00000000E+00  0.00000000E+00
  0.00000000E+00  0.00000000E+00  0.00000000E+00
  0.00000000E+00  0.00000000E+00  0.00000000E+00
  0.00000000E+00  0.00000000E+00  0.00000000E+00
  0.00000000E+00  0.00000000E+00  0.00000000E+00
  0.00000000E+00  0.00000000E+00  0.00000000E+00
  0.00000000E+00  0.00000000E+00  0.00000000E+00
  0.00000000E+00  0.00000000E+00  0.00000000E+00
  0.00000000E+00  0.00000000E+00  0.00000000E+00
  0.00000000E+00  0.00000000E+00  0.00000000E+00
  0.00000000E+00  0.00000000E+00  0.00000000E+00
  0.00000000E+00  0.00000000E+00  0.00000000E+00
  0.00000000E+00  0.00000000E+00  0.00000000E+00
  0.00000000E+00  0.00000000E+00  0.00000000E+00
  0.00000000E+00  0.00000000E+00  0.00000000E+00
  0.00000000E+00  0.00000000E+00  0.00000000E+00
  0.00000000E+00  0.00000000E+00  0.00000000E+00
  0.00000000E+00  0.00000000E+00  0.00000000E+00
  0.00000000E+00  0.00000000E+00  0.00000000E+00
  0.00000000E+00  0.00000000E+00  0.00000000E+00
  0.00000000E+00  0.00000000E+00  0.00000000E+00
  0.00000000E+00  0.00000000E+00  0.00000000E+00
  0.00000000E+00  0.00000000E+00  0.00000000E+00
  0.00000000E+00  0.00000000E+00  0.00000000E+00
  0.00000000E+00  0.00000000E+00  0.00000000E+00
  0.00000000E+00  0.00000000E+00  0.00000000E+00
  0.00000000E+00  0.00000000E+00  0.00000000E+00
  0.00000000E+00  0.00000000E+00  0.00000000E+00
  0.00000000E+00  0.00000000E+00  0.00000000E+00
  0.00000000E+00  0.00000000E+00  0.00000000E+00
  0.00000000E+00  0.00000000E+00  0.00000000E+00
  0.00000000E+00  0.00000000E+00  0.00000000E+00
  0.00000000E+00  0.00000000E+00  0.00000000E+00
  0.00000000E+00  0.00000000E+00  0.00000000E+00
