POSCAR\(2)                              
   1.00000000000000     
    12.3312997818000003    0.0000000000000000    0.0000000000000000
     0.0001127485000000   12.8291997905000006    0.0000000000000000
     0.0005937186000000    0.0011528207000000   19.9943999824000009
   C    N    Fe   Ni
    53     3     1     1
Direct
  0.0559026605544574  0.0545171887357230  0.0558076136970886
  0.1561863976679659  0.1108874412614578  0.0558274682220385
  0.1571072597930578  0.2218881698682398  0.0558024648302033
  0.0569708601278146  0.2761786264740481  0.0557627346011214
  0.2561641797760343  0.0566185913774399  0.0558329269096186
  0.3566343568005095  0.1124936866175310  0.0557936524272076
  0.3573032623984245  0.2243321493682275  0.0557578859183948
  0.2569346513483102  0.2782412843990834  0.0557833925540266
  0.4558319350921413  0.0560294691249344  0.0557542174386476
  0.5555445829786098  0.1121084456246154  0.0557075125189182
  0.5563078947004878  0.2246036182672093  0.0556877708513523
  0.4567456086799380  0.2830801128880880  0.0556967475988115
  0.6544698183473066  0.0521967632506543  0.0556657780670611
  0.7551359995644986  0.1085159431110896  0.0556743707331667
  0.7566743203694992  0.2204284471176923  0.0556696729661243
  0.6575609873065399  0.2792876739532558  0.0556608775177828
  0.8547581614108606  0.0520816917763261  0.0556977299294653
  0.9553189403796398  0.1085603571817422  0.0557437481367370
  0.9567394349136490  0.2199993437554529  0.0557261819503878
  0.8573320844613112  0.2757540128615914  0.0556752233369837
  0.0586245375651977  0.3871525902748457  0.0557462344380963
  0.1579085873222463  0.4439001390794294  0.0557718391522249
  0.1577631174670930  0.5545969520858577  0.0557814491855700
  0.0580767419063973  0.6098372267221134  0.0557679982169317
  0.2579016065884173  0.3897317056954183  0.0557647964252795
  0.3580337246667145  0.4451633410985112  0.0557163811585362
  0.3585948114978897  0.5582320502030748  0.0557041918880437
  0.2571012531332041  0.6108113084505264  0.0557714925392360
  0.7619220218414930  0.4448513898020232  0.0556109483129975
  0.8602752481078810  0.3869373402121254  0.0556480758954239
  0.9594604598956701  0.4423115796148642  0.0556913852157488
  0.9590206042794047  0.5532988115825179  0.0556987917601301
  0.8594498424063306  0.6081060324677999  0.0556427125555436
  0.0567962411481307  0.7209197847247025  0.0558027967732550
  0.1552581818906349  0.7774526142159102  0.0558364804218613
  0.1551953504384776  0.8888613402233793  0.0558504933986068
  0.0552074056852325  0.9436281656499873  0.0558226340860251
  0.2540887497990730  0.7219653663515733  0.0558002590942628
  0.3519935459689885  0.7785345587978691  0.0557578643908637
  0.3538764470757974  0.8896935011627823  0.0557861170213061
  0.2547890674699221  0.9452146682864487  0.0558415063040831
  0.4500058810707130  0.7227677188372177  0.0556616016193384
  0.5514693706445881  0.8850293050120543  0.0556404257216638
  0.4541260435963604  0.9444412627020708  0.0557331314614826
  0.7533732339202772  0.8805178235324953  0.0556397036316765
  0.6533292581786176  0.9392753040972133  0.0556346750730119
  0.8592653650984854  0.7197140494459888  0.0556700367349433
  0.9571784681152939  0.7762662394240354  0.0557601493427241
  0.9552854355101794  0.8872035880793077  0.0557657609093735
  0.8537747424621996  0.9399109675737745  0.0556930948918196
  0.6636942581794929  0.3887006053632306  0.0556263844579970
  0.7579907718772393  0.5567874628083359  0.0556001657269854
  0.7573047361081718  0.7685775001766197  0.0556245833683974
  0.4549717273814950  0.3915347636373781  0.0556716130532479
  0.5457236904484341  0.7772966869955760  0.0556016878913357
  0.4555517179890538  0.6143962046482825  0.0556444423224052
  0.6412822057198239  0.6646862701151852  0.0555824110066300
  0.5661222188743352  0.4925308288350419  0.0556077103477859
 
  0.00000000E+00  0.00000000E+00  0.00000000E+00
  0.00000000E+00  0.00000000E+00  0.00000000E+00
  0.00000000E+00  0.00000000E+00  0.00000000E+00
  0.00000000E+00  0.00000000E+00  0.00000000E+00
  0.00000000E+00  0.00000000E+00  0.00000000E+00
  0.00000000E+00  0.00000000E+00  0.00000000E+00
  0.00000000E+00  0.00000000E+00  0.00000000E+00
  0.00000000E+00  0.00000000E+00  0.00000000E+00
  0.00000000E+00  0.00000000E+00  0.00000000E+00
  0.00000000E+00  0.00000000E+00  0.00000000E+00
  0.00000000E+00  0.00000000E+00  0.00000000E+00
  0.00000000E+00  0.00000000E+00  0.00000000E+00
  0.00000000E+00  0.00000000E+00  0.00000000E+00
  0.00000000E+00  0.00000000E+00  0.00000000E+00
  0.00000000E+00  0.00000000E+00  0.00000000E+00
  0.00000000E+00  0.00000000E+00  0.00000000E+00
  0.00000000E+00  0.00000000E+00  0.00000000E+00
  0.00000000E+00  0.00000000E+00  0.00000000E+00
  0.00000000E+00  0.00000000E+00  0.00000000E+00
  0.00000000E+00  0.00000000E+00  0.00000000E+00
  0.00000000E+00  0.00000000E+00  0.00000000E+00
  0.00000000E+00  0.00000000E+00  0.00000000E+00
  0.00000000E+00  0.00000000E+00  0.00000000E+00
  0.00000000E+00  0.00000000E+00  0.00000000E+00
  0.00000000E+00  0.00000000E+00  0.00000000E+00
  0.00000000E+00  0.00000000E+00  0.00000000E+00
  0.00000000E+00  0.00000000E+00  0.00000000E+00
  0.00000000E+00  0.00000000E+00  0.00000000E+00
  0.00000000E+00  0.00000000E+00  0.00000000E+00
  0.00000000E+00  0.00000000E+00  0.00000000E+00
  0.00000000E+00  0.00000000E+00  0.00000000E+00
  0.00000000E+00  0.00000000E+00  0.00000000E+00
  0.00000000E+00  0.00000000E+00  0.00000000E+00
  0.00000000E+00  0.00000000E+00  0.00000000E+00
  0.00000000E+00  0.00000000E+00  0.00000000E+00
  0.00000000E+00  0.00000000E+00  0.00000000E+00
  0.00000000E+00  0.00000000E+00  0.00000000E+00
  0.00000000E+00  0.00000000E+00  0.00000000E+00
  0.00000000E+00  0.00000000E+00  0.00000000E+00
  0.00000000E+00  0.00000000E+00  0.00000000E+00
  0.00000000E+00  0.00000000E+00  0.00000000E+00
  0.00000000E+00  0.00000000E+00  0.00000000E+00
  0.00000000E+00  0.00000000E+00  0.00000000E+00
  0.00000000E+00  0.00000000E+00  0.00000000E+00
  0.00000000E+00  0.00000000E+00  0.00000000E+00
  0.00000000E+00  0.00000000E+00  0.00000000E+00
  0.00000000E+00  0.00000000E+00  0.00000000E+00
  0.00000000E+00  0.00000000E+00  0.00000000E+00
  0.00000000E+00  0.00000000E+00  0.00000000E+00
  0.00000000E+00  0.00000000E+00  0.00000000E+00
  0.00000000E+00  0.00000000E+00  0.00000000E+00
  0.00000000E+00  0.00000000E+00  0.00000000E+00
  0.00000000E+00  0.00000000E+00  0.00000000E+00
  0.00000000E+00  0.00000000E+00  0.00000000E+00
  0.00000000E+00  0.00000000E+00  0.00000000E+00
  0.00000000E+00  0.00000000E+00  0.00000000E+00
  0.00000000E+00  0.00000000E+00  0.00000000E+00
  0.00000000E+00  0.00000000E+00  0.00000000E+00
