an23456                                 
   1.00000000000000     
    12.3312997818000003    0.0000000000000000    0.0000000000000000
     0.0001127485000000   12.8291997905000006    0.0000000000000000
     0.0005937186000000    0.0011528207000000   19.9943999824000009
   C    N    Fe   Ni
    51     5     1     1
Direct
  0.0556458781909889  0.0541905939817826  0.0557718153241857
  0.1559117482733096  0.1099488221226246  0.0557758837915674
  0.1558995581439178  0.2205893498661612  0.0557584739343994
  0.0560745075147363  0.2760182869113853  0.0557475463381845
  0.2566606173541108  0.0555468344641478  0.0557887387407359
  0.3571111422007076  0.1112432310029098  0.0557639714671904
  0.3565976169111485  0.2230443255354476  0.0557435564544380
  0.2556036660110579  0.2764087206762521  0.0557530026056574
  0.4575518797747553  0.0558529521183434  0.0557332404416183
  0.5573649304500117  0.1137724987961904  0.0556904756715284
  0.5577790051094502  0.2283275105491099  0.0556685207298321
  0.4549307107767546  0.2834417072545221  0.0556837452253479
  0.6555545687494279  0.0526157540397187  0.0556783234101675
  0.7547891413065505  0.1099298678621029  0.0557004735955930
  0.7560262402473494  0.2228825661114200  0.0557017550369347
  0.6592801766083723  0.2847176325830147  0.0556601613506450
  0.8547126252543819  0.0532078992395050  0.0557144037733085
  0.9552819288286746  0.1089298156760786  0.0557420142641643
  0.9562080911537405  0.2204810951244419  0.0557370820601370
  0.8569875987260948  0.2769551410014947  0.0557240607617679
  0.0570924842169083  0.3872471447339027  0.0557546658734793
  0.1556596281645991  0.4434873773867568  0.0557655569435059
  0.1559789994749507  0.5542945734916874  0.0557693772558640
  0.0571537877357722  0.6103925884750759  0.0557622117593049
  0.2546872727845192  0.3873269270576755  0.0557483125146970
  0.3532777861418783  0.4419536578035436  0.0557141728568908
  0.3551964603237137  0.5549890632431876  0.0557252442239562
  0.2553724111301607  0.6100234623012877  0.0557632698235008
  0.7620111450935834  0.4459150810151485  0.0556673331188738
  0.8597870137178696  0.3882287201758498  0.0557109050668812
  0.9586693864334032  0.4433354673319170  0.0557329083958205
  0.9582170092287028  0.5543991122246116  0.0557255961887717
  0.8585330600203536  0.6083446464182966  0.0556761999730352
  0.0567659553380749  0.7211236668367210  0.0557763600928731
  0.1555569753723360  0.7773374610955585  0.0557973124393173
  0.1559102432498803  0.8882829722387595  0.0558032907174273
  0.0556483395715288  0.9432220622216643  0.0557828654344599
  0.2545890541248288  0.7212877988147115  0.0557782796588471
  0.3530786174855710  0.7774394770111220  0.0557486256966049
  0.3552305257954866  0.8888245511293335  0.0557684152472828
  0.2558155721619444  0.9443612072071615  0.0558011781904084
  0.4511413153560092  0.7206275779150878  0.0556859270283719
  0.5538797022574791  0.8825510163203312  0.0556612284882624
  0.4560958170017856  0.9434384697564369  0.0557266776953459
  0.7564535260468713  0.8808745730338812  0.0556496883734564
  0.6553647922261008  0.9378591200991099  0.0556490560968595
  0.8582993025883922  0.7206214206646795  0.0556737676438940
  0.9571732711593686  0.7760356827062481  0.0557376846205092
  0.9561024317683993  0.8873508371743685  0.0557428078789267
  0.8550254363195667  0.9410608129110841  0.0556991616080008
  0.4556045594099186  0.6090794828730876  0.0556816480628442
  0.4498564175745481  0.3904922096251908  0.0556708178449130
  0.6655247968054281  0.3940261253521751  0.0556362923696149
  0.7610432359735495  0.5546577704606177  0.0556491667691104
  0.5483946043989567  0.7749175418536566  0.0556327748585581
  0.7605889218205157  0.7722215086764329  0.0556181018838147
  0.6460015858483056  0.6611803061781052  0.0556251675605455
  0.5605769672932149  0.5016238692688606  0.0556407167677326
 
  0.00000000E+00  0.00000000E+00  0.00000000E+00
  0.00000000E+00  0.00000000E+00  0.00000000E+00
  0.00000000E+00  0.00000000E+00  0.00000000E+00
  0.00000000E+00  0.00000000E+00  0.00000000E+00
  0.00000000E+00  0.00000000E+00  0.00000000E+00
  0.00000000E+00  0.00000000E+00  0.00000000E+00
  0.00000000E+00  0.00000000E+00  0.00000000E+00
  0.00000000E+00  0.00000000E+00  0.00000000E+00
  0.00000000E+00  0.00000000E+00  0.00000000E+00
  0.00000000E+00  0.00000000E+00  0.00000000E+00
  0.00000000E+00  0.00000000E+00  0.00000000E+00
  0.00000000E+00  0.00000000E+00  0.00000000E+00
  0.00000000E+00  0.00000000E+00  0.00000000E+00
  0.00000000E+00  0.00000000E+00  0.00000000E+00
  0.00000000E+00  0.00000000E+00  0.00000000E+00
  0.00000000E+00  0.00000000E+00  0.00000000E+00
  0.00000000E+00  0.00000000E+00  0.00000000E+00
  0.00000000E+00  0.00000000E+00  0.00000000E+00
  0.00000000E+00  0.00000000E+00  0.00000000E+00
  0.00000000E+00  0.00000000E+00  0.00000000E+00
  0.00000000E+00  0.00000000E+00  0.00000000E+00
  0.00000000E+00  0.00000000E+00  0.00000000E+00
  0.00000000E+00  0.00000000E+00  0.00000000E+00
  0.00000000E+00  0.00000000E+00  0.00000000E+00
  0.00000000E+00  0.00000000E+00  0.00000000E+00
  0.00000000E+00  0.00000000E+00  0.00000000E+00
  0.00000000E+00  0.00000000E+00  0.00000000E+00
  0.00000000E+00  0.00000000E+00  0.00000000E+00
  0.00000000E+00  0.00000000E+00  0.00000000E+00
  0.00000000E+00  0.00000000E+00  0.00000000E+00
  0.00000000E+00  0.00000000E+00  0.00000000E+00
  0.00000000E+00  0.00000000E+00  0.00000000E+00
  0.00000000E+00  0.00000000E+00  0.00000000E+00
  0.00000000E+00  0.00000000E+00  0.00000000E+00
  0.00000000E+00  0.00000000E+00  0.00000000E+00
  0.00000000E+00  0.00000000E+00  0.00000000E+00
  0.00000000E+00  0.00000000E+00  0.00000000E+00
  0.00000000E+00  0.00000000E+00  0.00000000E+00
  0.00000000E+00  0.00000000E+00  0.00000000E+00
  0.00000000E+00  0.00000000E+00  0.00000000E+00
  0.00000000E+00  0.00000000E+00  0.00000000E+00
  0.00000000E+00  0.00000000E+00  0.00000000E+00
  0.00000000E+00  0.00000000E+00  0.00000000E+00
  0.00000000E+00  0.00000000E+00  0.00000000E+00
  0.00000000E+00  0.00000000E+00  0.00000000E+00
  0.00000000E+00  0.00000000E+00  0.00000000E+00
  0.00000000E+00  0.00000000E+00  0.00000000E+00
  0.00000000E+00  0.00000000E+00  0.00000000E+00
  0.00000000E+00  0.00000000E+00  0.00000000E+00
  0.00000000E+00  0.00000000E+00  0.00000000E+00
  0.00000000E+00  0.00000000E+00  0.00000000E+00
  0.00000000E+00  0.00000000E+00  0.00000000E+00
  0.00000000E+00  0.00000000E+00  0.00000000E+00
  0.00000000E+00  0.00000000E+00  0.00000000E+00
  0.00000000E+00  0.00000000E+00  0.00000000E+00
  0.00000000E+00  0.00000000E+00  0.00000000E+00
  0.00000000E+00  0.00000000E+00  0.00000000E+00
  0.00000000E+00  0.00000000E+00  0.00000000E+00
