CONTCAR\(2)\(3)                         
   1.00000000000000     
    12.3312997818000003    0.0000000000000000    0.0000000000000000
     0.0001127485000000   12.8291997905000006    0.0000000000000000
     0.0005937186000000    0.0011528207000000   19.9943999824000009
   C    N    Fe   Ni   H 
    53     3     1     1     1
Direct
  0.0556106633039135  0.0553758549740716  0.0499536835229948
  0.1560729581678026  0.1108819061232006  0.0499036593440307
  0.1562770585309739  0.2216887758371690  0.0484695130727728
  0.0560113976201448  0.2763916107965927  0.0474882190095906
  0.2562541446761450  0.0562392674550638  0.0523226222801920
  0.3565496807822164  0.1117793421639909  0.0562081183307874
  0.3564249432695951  0.2237188724949646  0.0552406693346372
  0.2560771954120241  0.2775579601147355  0.0498071841134281
  0.4560059964243022  0.0555055910326926  0.0609771353978704
  0.5552589769098354  0.1127345951981881  0.0646506168049694
  0.5556598475536307  0.2259331830404729  0.0658438385866194
  0.4550715531019250  0.2829058144837809  0.0603001057411713
  0.6541382454968431  0.0524071522054084  0.0648566115572217
  0.7543892121520135  0.1097819979173651  0.0614023129096129
  0.7553958020908405  0.2224411816968489  0.0621422305101497
  0.6567610880233519  0.2824155631043308  0.0687263243757867
  0.8544047881203112  0.0537462421970696  0.0563574977453647
  0.9548607862907467  0.1097645513228170  0.0523696415694823
  0.9556038727928780  0.2211013073070145  0.0513361087876879
  0.8560779443566691  0.2771345518636668  0.0555066624528081
  0.0573165252201673  0.3872992842750931  0.0447067898204309
  0.1566315675569881  0.4437526878711317  0.0436128708718635
  0.1572119017317178  0.5546388729487426  0.0423153835299401
  0.0585030362924457  0.6105560625047157  0.0414594212922929
  0.2561888475937350  0.3889518955489994  0.0475519179873703
  0.3554870957900906  0.4440147971004441  0.0523067316320720
  0.3555122125132899  0.5574938871293084  0.0533466704754950
  0.2559181390258612  0.6108083150719402  0.0465404104805857
  0.7616352675203192  0.4471512951944999  0.0637226379480095
  0.8586337108347051  0.3884449291115382  0.0534290069419598
  0.9582864474695294  0.4428668975177426  0.0462125834983692
  0.9600835828422376  0.5539420745777264  0.0443883062606648
  0.8625749010204903  0.6100227750068780  0.0504522570221490
  0.0575614354540295  0.7220129252090741  0.0427330751648549
  0.1560224244719956  0.7781558609592305  0.0449806569840010
  0.1556962925410136  0.8893750744303098  0.0476165431614727
  0.0555953004473581  0.9446467730770037  0.0483722031876325
  0.2546887529106280  0.7220519031692934  0.0477512098634558
  0.3528254005408447  0.7774473330760931  0.0544791261883951
  0.3545246203695928  0.8888192613065913  0.0559088813495191
  0.2554812087358452  0.9448698532340424  0.0515345703901644
  0.4498863805068487  0.7201127772911567  0.0630244985717389
  0.5517536784435861  0.8823730940795964  0.0671274348008751
  0.4548035204358654  0.9431413437260076  0.0616517540178976
  0.7548835649177980  0.8821034977747990  0.0606874741174343
  0.6535214997811608  0.9386866110759154  0.0655969872085251
  0.8610757943488490  0.7217801846841171  0.0505343543724508
  0.9583929195909170  0.7780961606074196  0.0459299574316357
  0.9557479211962380  0.8888354137168911  0.0492494003756240
  0.8543211720620658  0.9417064567024652  0.0552769558003775
  0.6626054263032237  0.3932207451431291  0.0746869026562819
  0.7641426447738182  0.5589035143939390  0.0625291001380239
  0.7598913133949001  0.7706851982396719  0.0594323397714979
  0.4519034649129622  0.3910298390608923  0.0590472405592619
  0.5456620484216914  0.7735115448409194  0.0716903596183480
  0.4507532914099927  0.6117267076561191  0.0633278534073169
  0.6532442846328359  0.6617402089013495  0.0791537340967754
  0.5557551034349807  0.4932173276018406  0.0802888352773244
  0.6181110584732131  0.5603312178539546  0.1321708202807450
 
  0.00000000E+00  0.00000000E+00  0.00000000E+00
  0.00000000E+00  0.00000000E+00  0.00000000E+00
  0.00000000E+00  0.00000000E+00  0.00000000E+00
  0.00000000E+00  0.00000000E+00  0.00000000E+00
  0.00000000E+00  0.00000000E+00  0.00000000E+00
  0.00000000E+00  0.00000000E+00  0.00000000E+00
  0.00000000E+00  0.00000000E+00  0.00000000E+00
  0.00000000E+00  0.00000000E+00  0.00000000E+00
  0.00000000E+00  0.00000000E+00  0.00000000E+00
  0.00000000E+00  0.00000000E+00  0.00000000E+00
  0.00000000E+00  0.00000000E+00  0.00000000E+00
  0.00000000E+00  0.00000000E+00  0.00000000E+00
  0.00000000E+00  0.00000000E+00  0.00000000E+00
  0.00000000E+00  0.00000000E+00  0.00000000E+00
  0.00000000E+00  0.00000000E+00  0.00000000E+00
  0.00000000E+00  0.00000000E+00  0.00000000E+00
  0.00000000E+00  0.00000000E+00  0.00000000E+00
  0.00000000E+00  0.00000000E+00  0.00000000E+00
  0.00000000E+00  0.00000000E+00  0.00000000E+00
  0.00000000E+00  0.00000000E+00  0.00000000E+00
  0.00000000E+00  0.00000000E+00  0.00000000E+00
  0.00000000E+00  0.00000000E+00  0.00000000E+00
  0.00000000E+00  0.00000000E+00  0.00000000E+00
  0.00000000E+00  0.00000000E+00  0.00000000E+00
  0.00000000E+00  0.00000000E+00  0.00000000E+00
  0.00000000E+00  0.00000000E+00  0.00000000E+00
  0.00000000E+00  0.00000000E+00  0.00000000E+00
  0.00000000E+00  0.00000000E+00  0.00000000E+00
  0.00000000E+00  0.00000000E+00  0.00000000E+00
  0.00000000E+00  0.00000000E+00  0.00000000E+00
  0.00000000E+00  0.00000000E+00  0.00000000E+00
  0.00000000E+00  0.00000000E+00  0.00000000E+00
  0.00000000E+00  0.00000000E+00  0.00000000E+00
  0.00000000E+00  0.00000000E+00  0.00000000E+00
  0.00000000E+00  0.00000000E+00  0.00000000E+00
  0.00000000E+00  0.00000000E+00  0.00000000E+00
  0.00000000E+00  0.00000000E+00  0.00000000E+00
  0.00000000E+00  0.00000000E+00  0.00000000E+00
  0.00000000E+00  0.00000000E+00  0.00000000E+00
  0.00000000E+00  0.00000000E+00  0.00000000E+00
  0.00000000E+00  0.00000000E+00  0.00000000E+00
  0.00000000E+00  0.00000000E+00  0.00000000E+00
  0.00000000E+00  0.00000000E+00  0.00000000E+00
  0.00000000E+00  0.00000000E+00  0.00000000E+00
  0.00000000E+00  0.00000000E+00  0.00000000E+00
  0.00000000E+00  0.00000000E+00  0.00000000E+00
  0.00000000E+00  0.00000000E+00  0.00000000E+00
  0.00000000E+00  0.00000000E+00  0.00000000E+00
  0.00000000E+00  0.00000000E+00  0.00000000E+00
  0.00000000E+00  0.00000000E+00  0.00000000E+00
  0.00000000E+00  0.00000000E+00  0.00000000E+00
  0.00000000E+00  0.00000000E+00  0.00000000E+00
  0.00000000E+00  0.00000000E+00  0.00000000E+00
  0.00000000E+00  0.00000000E+00  0.00000000E+00
  0.00000000E+00  0.00000000E+00  0.00000000E+00
  0.00000000E+00  0.00000000E+00  0.00000000E+00
  0.00000000E+00  0.00000000E+00  0.00000000E+00
  0.00000000E+00  0.00000000E+00  0.00000000E+00
  0.00000000E+00  0.00000000E+00  0.00000000E+00
