CONTCAR\(19)                            
   1.00000000000000     
    12.3312997818000003    0.0000000000000000    0.0000000000000000
     0.0001127485000000   12.8291997905000006    0.0000000000000000
     0.0005937186000000    0.0011528207000000   19.9943999824000009
   C    N    Fe   Ni   H 
    50     6     1     1     1
Direct
  0.0557971724486258  0.0547810767150116  0.0523960656531532
  0.1564369188030511  0.1102174542837297  0.0524060486368429
  0.1561572628400235  0.2209935503689365  0.0509363448955883
  0.0558874880391500  0.2762007227689339  0.0500375714962339
  0.2571056250126415  0.0556090078918164  0.0543709153485806
  0.3575790795770600  0.1112830265843057  0.0571159009708038
  0.3567886525957782  0.2233173812190971  0.0558912059948995
  0.2559423231485957  0.2768277287239049  0.0515698083445026
  0.4579275322436281  0.0553004561323782  0.0607952492810241
  0.5573181176962430  0.1135370817717659  0.0631804715747382
  0.5576204023040761  0.2291545739476115  0.0636620673745783
  0.4550794424746215  0.2840969995655393  0.0594530163593903
  0.6551121430821955  0.0519495878857412  0.0630041289622343
  0.7543654690923122  0.1102359410011653  0.0603609343904213
  0.7553723478321820  0.2236463003495267  0.0607633364528998
  0.6587218501955507  0.2862239271738961  0.0651055406964203
  0.8545313656713920  0.0538335802694621  0.0568158424851642
  0.9551321331135928  0.1094241151772280  0.0540543534733638
  0.9557085587514194  0.2210039921065547  0.0531776429940200
  0.8564282513867079  0.2775283906643893  0.0561378360168538
  0.0564816352737595  0.3871208261151759  0.0474913118080648
  0.1555736030300929  0.4434169730255739  0.0462821984076818
  0.1557785684086810  0.5541257716679453  0.0453109015139316
  0.0575846738050894  0.6107825166359669  0.0449905350619805
  0.2545858975985449  0.3881135696919367  0.0492495799062590
  0.3533501369005796  0.4432287766147538  0.0527562501320183
  0.3529725219231805  0.5558638875353280  0.0537597232522875
  0.2545118461485371  0.6102342378514017  0.0485428851886396
  0.7616037036009465  0.4477025126388826  0.0609001271847884
  0.8587632300488840  0.3889822363129968  0.0542483324334195
  0.9581737022898786  0.4432813572260846  0.0487370944966687
  0.9588940353562018  0.5546201654863910  0.0473048433132970
  0.8607823948775688  0.6089464044517152  0.0521049159053380
  0.0572868117548395  0.7214623561901328  0.0463687300173585
  0.1560560190218480  0.7778400001196858  0.0481752502903507
  0.1564827878961115  0.8887080265525572  0.0506024014570183
  0.0561057613815267  0.9439606375132628  0.0511651192463552
  0.2544653683567785  0.7215710004710256  0.0499693125893881
  0.3533130183964215  0.7762521940413413  0.0556281276481721
  0.3558013381376937  0.8877520221488513  0.0570753739754849
  0.2566400437026535  0.9440062309832208  0.0538078013614666
  0.4502593148037067  0.7175146856567248  0.0626435708994635
  0.5533297585375364  0.8801298227874798  0.0655853548644670
  0.4568853751727043  0.9420861044174691  0.0615051381571042
  0.7570693066107793  0.8807931064076251  0.0590481331758290
  0.6547627324372933  0.9362857617660044  0.0634572959702489
  0.8599012024917120  0.7213506313841634  0.0517802169710868
  0.9581556243421772  0.7768625054361247  0.0490627809684160
  0.9564841618915511  0.8881390668719102  0.0515734009187314
  0.8552207505131970  0.9415073674535227  0.0557249224957544
  0.4499343623345055  0.3912850678419814  0.0582315291072579
  0.4493074958861890  0.6091099495754312  0.0621963532416502
  0.6650943013890427  0.3965320954406222  0.0690299749716517
  0.7637422778251045  0.5565104961163838  0.0601031918717894
  0.5470797238156243  0.7696132536110822  0.0700425543997813
  0.7621368502850676  0.7726234418201312  0.0570318629892551
  0.6559860615519321  0.6636801603995343  0.0719294802659173
  0.5536581400197759  0.5001687252646860  0.0744420001405662
  0.6083032528734327  0.5793611218738939  0.1269771519992971
 
  0.00000000E+00  0.00000000E+00  0.00000000E+00
  0.00000000E+00  0.00000000E+00  0.00000000E+00
  0.00000000E+00  0.00000000E+00  0.00000000E+00
  0.00000000E+00  0.00000000E+00  0.00000000E+00
  0.00000000E+00  0.00000000E+00  0.00000000E+00
  0.00000000E+00  0.00000000E+00  0.00000000E+00
  0.00000000E+00  0.00000000E+00  0.00000000E+00
  0.00000000E+00  0.00000000E+00  0.00000000E+00
  0.00000000E+00  0.00000000E+00  0.00000000E+00
  0.00000000E+00  0.00000000E+00  0.00000000E+00
  0.00000000E+00  0.00000000E+00  0.00000000E+00
  0.00000000E+00  0.00000000E+00  0.00000000E+00
  0.00000000E+00  0.00000000E+00  0.00000000E+00
  0.00000000E+00  0.00000000E+00  0.00000000E+00
  0.00000000E+00  0.00000000E+00  0.00000000E+00
  0.00000000E+00  0.00000000E+00  0.00000000E+00
  0.00000000E+00  0.00000000E+00  0.00000000E+00
  0.00000000E+00  0.00000000E+00  0.00000000E+00
  0.00000000E+00  0.00000000E+00  0.00000000E+00
  0.00000000E+00  0.00000000E+00  0.00000000E+00
  0.00000000E+00  0.00000000E+00  0.00000000E+00
  0.00000000E+00  0.00000000E+00  0.00000000E+00
  0.00000000E+00  0.00000000E+00  0.00000000E+00
  0.00000000E+00  0.00000000E+00  0.00000000E+00
  0.00000000E+00  0.00000000E+00  0.00000000E+00
  0.00000000E+00  0.00000000E+00  0.00000000E+00
  0.00000000E+00  0.00000000E+00  0.00000000E+00
  0.00000000E+00  0.00000000E+00  0.00000000E+00
  0.00000000E+00  0.00000000E+00  0.00000000E+00
  0.00000000E+00  0.00000000E+00  0.00000000E+00
  0.00000000E+00  0.00000000E+00  0.00000000E+00
  0.00000000E+00  0.00000000E+00  0.00000000E+00
  0.00000000E+00  0.00000000E+00  0.00000000E+00
  0.00000000E+00  0.00000000E+00  0.00000000E+00
  0.00000000E+00  0.00000000E+00  0.00000000E+00
  0.00000000E+00  0.00000000E+00  0.00000000E+00
  0.00000000E+00  0.00000000E+00  0.00000000E+00
  0.00000000E+00  0.00000000E+00  0.00000000E+00
  0.00000000E+00  0.00000000E+00  0.00000000E+00
  0.00000000E+00  0.00000000E+00  0.00000000E+00
  0.00000000E+00  0.00000000E+00  0.00000000E+00
  0.00000000E+00  0.00000000E+00  0.00000000E+00
  0.00000000E+00  0.00000000E+00  0.00000000E+00
  0.00000000E+00  0.00000000E+00  0.00000000E+00
  0.00000000E+00  0.00000000E+00  0.00000000E+00
  0.00000000E+00  0.00000000E+00  0.00000000E+00
  0.00000000E+00  0.00000000E+00  0.00000000E+00
  0.00000000E+00  0.00000000E+00  0.00000000E+00
  0.00000000E+00  0.00000000E+00  0.00000000E+00
  0.00000000E+00  0.00000000E+00  0.00000000E+00
  0.00000000E+00  0.00000000E+00  0.00000000E+00
  0.00000000E+00  0.00000000E+00  0.00000000E+00
  0.00000000E+00  0.00000000E+00  0.00000000E+00
  0.00000000E+00  0.00000000E+00  0.00000000E+00
  0.00000000E+00  0.00000000E+00  0.00000000E+00
  0.00000000E+00  0.00000000E+00  0.00000000E+00
  0.00000000E+00  0.00000000E+00  0.00000000E+00
  0.00000000E+00  0.00000000E+00  0.00000000E+00
  0.00000000E+00  0.00000000E+00  0.00000000E+00
