CONTCAR\(2)                             
   1.00000000000000     
    12.3312997818000003    0.0000000000000000    0.0000000000000000
     0.0001127485000000   12.8291997905000006    0.0000000000000000
     0.0005937186000000    0.0011528207000000   19.9943999824000009
   C    N    Fe   Ni   O    H 
    54     2     1     1     2     2
Direct
  0.0536634079243811  0.0545720912109977  0.0463647044763056
  0.1537961140239949  0.1098543273009381  0.0452028459083916
  0.1536993764134492  0.2207458028573992  0.0449646011083933
  0.0538896747644500  0.2761789030191817  0.0464212490474977
  0.2540787705020742  0.0548391839137681  0.0454725041054274
  0.3543571816733059  0.1102276456639114  0.0471759412648231
  0.3539689949139475  0.2217457142596513  0.0470282911509741
  0.2537033257232585  0.2761568480819339  0.0449380323034164
  0.4541189636113799  0.0547113052207705  0.0500977882043781
  0.5533703382742544  0.1115949838937995  0.0537556722942804
  0.5532622129466201  0.2236428007574592  0.0557876710162833
  0.4526814130977670  0.2796412649490845  0.0510664250304964
  0.6528684636087057  0.0527392420593372  0.0552316621903318
  0.7529724057752019  0.1096378288337107  0.0540210217100444
  0.7535699572872486  0.2217870737536930  0.0554381608683194
  0.6539660272937975  0.2801355128179217  0.0603041178965217
  0.8528294107283494  0.0534936164983550  0.0512275252814786
  0.9530825066996504  0.1096695712211452  0.0485120468349268
  0.9532896615150092  0.2211569187035607  0.0489093438284081
  0.8534860165018133  0.2775480029303770  0.0528740060408094
  0.0551351103378665  0.3873211805244093  0.0466660407153099
  0.1547855876051841  0.4428910529218095  0.0450967432449954
  0.1564766911022903  0.5542445752047213  0.0452678208443424
  0.0568999029365369  0.6096748625190187  0.0469556813899648
  0.2541981497090676  0.3870476856101587  0.0447682168882560
  0.3546471341599933  0.4411682562151316  0.0467668531573566
  0.3589842399351181  0.5550404929354842  0.0484607424745940
  0.2567409541275608  0.6094016793496929  0.0457407396713418
  0.7557885084125213  0.4480057635224797  0.0630259039970709
  0.8550175336417085  0.3893438811613126  0.0542827573773534
  0.9555183520682351  0.4431234363274011  0.0501933637112033
  0.9573369265070413  0.5538060307222603  0.0507680975243023
  0.8584507201789573  0.6094395820534725  0.0571724707527845
  0.0562467963526551  0.7210945308743346  0.0467402665588733
  0.1550315074059964  0.7765122574160438  0.0454410940289778
  0.1541425652142699  0.8879588439902111  0.0453312686984181
  0.0540128819347668  0.9435132773936744  0.0464650336034369
  0.2548617751262279  0.7203831293652250  0.0460405603635133
  0.3534252052389442  0.7766598362021542  0.0479781779782671
  0.3535528636156527  0.8879753677530564  0.0473564569016314
  0.2538159435440299  0.9437126794082791  0.0454561028275177
  0.4529816904524049  0.7211892289705696  0.0527374362516916
  0.5517698102575213  0.8838860557634224  0.0543367085582942
  0.4534609848853590  0.9429004986319367  0.0501927177973012
  0.7531569851880671  0.8832846621201073  0.0567109056902181
  0.6528762048869695  0.9403853377353909  0.0563239815801529
  0.8586115998385920  0.7214941596446296  0.0555452231715524
  0.9566161307993485  0.7771118994317738  0.0494249011416240
  0.9542961253492068  0.8879328672092651  0.0490003159880878
  0.8529731551709338  0.9415429427432636  0.0519431044799294
  0.4588841017538874  0.6093935445564945  0.0552153951150457
  0.6590703243500583  0.3890187344186095  0.0691399972860490
  0.7583605092558733  0.5597701011398669  0.0661527892254223
  0.7580225410861272  0.7720746887821703  0.0610084107874714
  0.4499023329071253  0.3875246252957990  0.0509099398967574
  0.5485354485516980  0.7770125301354397  0.0559609640104977
  0.6516635467679019  0.6730283026160557  0.0871699966094839
  0.5484061818179425  0.4788878763068249  0.0916025520267195
  0.5755088979593209  0.5077100223419779  0.1772416606503598
  0.6872530380653565  0.6860513875580794  0.1740458899918167
  0.7603897723634363  0.7110382482483402  0.1834678784150952
  0.6218770778595778  0.5676053279326577  0.1892312300554057
 
  0.00000000E+00  0.00000000E+00  0.00000000E+00
  0.00000000E+00  0.00000000E+00  0.00000000E+00
  0.00000000E+00  0.00000000E+00  0.00000000E+00
  0.00000000E+00  0.00000000E+00  0.00000000E+00
  0.00000000E+00  0.00000000E+00  0.00000000E+00
  0.00000000E+00  0.00000000E+00  0.00000000E+00
  0.00000000E+00  0.00000000E+00  0.00000000E+00
  0.00000000E+00  0.00000000E+00  0.00000000E+00
  0.00000000E+00  0.00000000E+00  0.00000000E+00
  0.00000000E+00  0.00000000E+00  0.00000000E+00
  0.00000000E+00  0.00000000E+00  0.00000000E+00
  0.00000000E+00  0.00000000E+00  0.00000000E+00
  0.00000000E+00  0.00000000E+00  0.00000000E+00
  0.00000000E+00  0.00000000E+00  0.00000000E+00
  0.00000000E+00  0.00000000E+00  0.00000000E+00
  0.00000000E+00  0.00000000E+00  0.00000000E+00
  0.00000000E+00  0.00000000E+00  0.00000000E+00
  0.00000000E+00  0.00000000E+00  0.00000000E+00
  0.00000000E+00  0.00000000E+00  0.00000000E+00
  0.00000000E+00  0.00000000E+00  0.00000000E+00
  0.00000000E+00  0.00000000E+00  0.00000000E+00
  0.00000000E+00  0.00000000E+00  0.00000000E+00
  0.00000000E+00  0.00000000E+00  0.00000000E+00
  0.00000000E+00  0.00000000E+00  0.00000000E+00
  0.00000000E+00  0.00000000E+00  0.00000000E+00
  0.00000000E+00  0.00000000E+00  0.00000000E+00
  0.00000000E+00  0.00000000E+00  0.00000000E+00
  0.00000000E+00  0.00000000E+00  0.00000000E+00
  0.00000000E+00  0.00000000E+00  0.00000000E+00
  0.00000000E+00  0.00000000E+00  0.00000000E+00
  0.00000000E+00  0.00000000E+00  0.00000000E+00
  0.00000000E+00  0.00000000E+00  0.00000000E+00
  0.00000000E+00  0.00000000E+00  0.00000000E+00
  0.00000000E+00  0.00000000E+00  0.00000000E+00
  0.00000000E+00  0.00000000E+00  0.00000000E+00
  0.00000000E+00  0.00000000E+00  0.00000000E+00
  0.00000000E+00  0.00000000E+00  0.00000000E+00
  0.00000000E+00  0.00000000E+00  0.00000000E+00
  0.00000000E+00  0.00000000E+00  0.00000000E+00
  0.00000000E+00  0.00000000E+00  0.00000000E+00
  0.00000000E+00  0.00000000E+00  0.00000000E+00
  0.00000000E+00  0.00000000E+00  0.00000000E+00
  0.00000000E+00  0.00000000E+00  0.00000000E+00
  0.00000000E+00  0.00000000E+00  0.00000000E+00
  0.00000000E+00  0.00000000E+00  0.00000000E+00
  0.00000000E+00  0.00000000E+00  0.00000000E+00
  0.00000000E+00  0.00000000E+00  0.00000000E+00
  0.00000000E+00  0.00000000E+00  0.00000000E+00
  0.00000000E+00  0.00000000E+00  0.00000000E+00
  0.00000000E+00  0.00000000E+00  0.00000000E+00
  0.00000000E+00  0.00000000E+00  0.00000000E+00
  0.00000000E+00  0.00000000E+00  0.00000000E+00
  0.00000000E+00  0.00000000E+00  0.00000000E+00
  0.00000000E+00  0.00000000E+00  0.00000000E+00
  0.00000000E+00  0.00000000E+00  0.00000000E+00
  0.00000000E+00  0.00000000E+00  0.00000000E+00
  0.00000000E+00  0.00000000E+00  0.00000000E+00
  0.00000000E+00  0.00000000E+00  0.00000000E+00
  0.00000000E+00  0.00000000E+00  0.00000000E+00
  0.00000000E+00  0.00000000E+00  0.00000000E+00
  0.00000000E+00  0.00000000E+00  0.00000000E+00
  0.00000000E+00  0.00000000E+00  0.00000000E+00
