CONTCAR\(3)                             
   1.00000000000000     
    12.3312997818000003    0.0000000000000000    0.0000000000000000
     0.0001127485000000   12.8291997905000006    0.0000000000000000
     0.0005937186000000    0.0011528207000000   19.9943999824000009
   C    N    Fe   Ni   O 
    54     2     1     1     1
Direct
  0.0558229029182568  0.0539264783235281  0.0504437325354771
  0.1562592566005596  0.1093754972189188  0.0509540619689835
  0.1564995743595156  0.2201427582439831  0.0492407662279300
  0.0565652833110554  0.2753417739097065  0.0473726331543812
  0.2569562603666324  0.0551431284160640  0.0537355254161010
  0.3570474175315583  0.1118076695828105  0.0570708664853659
  0.3572387589266862  0.2235781572728204  0.0561411477191842
  0.2560775221941799  0.2762910998393467  0.0507893193128266
  0.4570231274406344  0.0565452354500893  0.0614806700643255
  0.5573465811984528  0.1142466721331252  0.0637306965079453
  0.5580959297679451  0.2270368145746279  0.0645736563335482
  0.4567375568306135  0.2829351974607234  0.0614209220307940
  0.6561268172633165  0.0547279107497399  0.0626200967170039
  0.7558082819016300  0.1106866153079909  0.0582820967939416
  0.7568945800585041  0.2229742849821885  0.0577190950560402
  0.6599929775071431  0.2838502042919810  0.0635704496459836
  0.8552962354658002  0.0539634563194736  0.0544204234687069
  0.9558025166927372  0.1090468157779609  0.0514213229821346
  0.9567444486319676  0.2201237028955881  0.0500483340935241
  0.8574795418410399  0.2762866052131178  0.0523123891006636
  0.0565817835752101  0.3864371702847845  0.0447364509722784
  0.1548895873601938  0.4429563850826758  0.0449613625660152
  0.1547889691512066  0.5545993794333833  0.0445353778803907
  0.0561121636805432  0.6101026960004402  0.0433187340086258
  0.2538341938489179  0.3870540754774237  0.0486470007235846
  0.3511546843257309  0.4433754143044587  0.0538904874503769
  0.3512469670903953  0.5552720542239229  0.0549188443288520
  0.2535541541063113  0.6112130566134822  0.0487980343559221
  0.7605667523782595  0.4444654779071407  0.0543592187855129
  0.8587578814975412  0.3870220016733829  0.0492128807788679
  0.9576821225637193  0.4420707283572194  0.0445587006861582
  0.9577283329644812  0.5528552823723571  0.0436026922674392
  0.8577197689973751  0.6053928649529534  0.0457850311379963
  0.0558450217517664  0.7214702848271954  0.0447528712646964
  0.1551006594215724  0.7775416541643643  0.0477025135652753
  0.1557337904888169  0.8884910092953194  0.0498458322895211
  0.0553281119576453  0.9429642989072001  0.0495881064757689
  0.2545053102860578  0.7220791766106354  0.0505541198910742
  0.3541474650431692  0.7763048107788630  0.0572310244550179
  0.3559957364373595  0.8881687733172403  0.0578357496348655
  0.2563089695376017  0.9438693749727640  0.0535191560939496
  0.4523111048752098  0.7176891033563757  0.0662717547075271
  0.5550718631508309  0.8858856757419795  0.0674943502025279
  0.4560326536810959  0.9443753477990900  0.0626649657124114
  0.7550866631502281  0.8847168088130384  0.0587939204109342
  0.6556947015968968  0.9425084700585380  0.0639765476348138
  0.8561086795952874  0.7190996407332525  0.0487571142928674
  0.9557150291230118  0.7757583144282997  0.0467280644745173
  0.9551220999415068  0.8870998821782630  0.0496390353825495
  0.8547875770696084  0.9420161502246954  0.0538669164665700
  0.4515272747636007  0.3937961205195674  0.0620843751578017
  0.5509856587688423  0.7758342989594765  0.0730968024267149
  0.7567210458160238  0.7729583996516831  0.0573822265421022
  0.4504590617940544  0.6050441481277207  0.0669966771705104
  0.6649664928593655  0.3924799111689607  0.0663157659909013
  0.7622299597619218  0.5517451722387305  0.0491674068786933
  0.6526134702905995  0.6674725932233323  0.0802612715198998
  0.5543803894423793  0.4937260851858599  0.0882859540539030
  0.6225283250474456  0.5840579380701454  0.1472544537476880
 
  0.00000000E+00  0.00000000E+00  0.00000000E+00
  0.00000000E+00  0.00000000E+00  0.00000000E+00
  0.00000000E+00  0.00000000E+00  0.00000000E+00
  0.00000000E+00  0.00000000E+00  0.00000000E+00
  0.00000000E+00  0.00000000E+00  0.00000000E+00
  0.00000000E+00  0.00000000E+00  0.00000000E+00
  0.00000000E+00  0.00000000E+00  0.00000000E+00
  0.00000000E+00  0.00000000E+00  0.00000000E+00
  0.00000000E+00  0.00000000E+00  0.00000000E+00
  0.00000000E+00  0.00000000E+00  0.00000000E+00
  0.00000000E+00  0.00000000E+00  0.00000000E+00
  0.00000000E+00  0.00000000E+00  0.00000000E+00
  0.00000000E+00  0.00000000E+00  0.00000000E+00
  0.00000000E+00  0.00000000E+00  0.00000000E+00
  0.00000000E+00  0.00000000E+00  0.00000000E+00
  0.00000000E+00  0.00000000E+00  0.00000000E+00
  0.00000000E+00  0.00000000E+00  0.00000000E+00
  0.00000000E+00  0.00000000E+00  0.00000000E+00
  0.00000000E+00  0.00000000E+00  0.00000000E+00
  0.00000000E+00  0.00000000E+00  0.00000000E+00
  0.00000000E+00  0.00000000E+00  0.00000000E+00
  0.00000000E+00  0.00000000E+00  0.00000000E+00
  0.00000000E+00  0.00000000E+00  0.00000000E+00
  0.00000000E+00  0.00000000E+00  0.00000000E+00
  0.00000000E+00  0.00000000E+00  0.00000000E+00
  0.00000000E+00  0.00000000E+00  0.00000000E+00
  0.00000000E+00  0.00000000E+00  0.00000000E+00
  0.00000000E+00  0.00000000E+00  0.00000000E+00
  0.00000000E+00  0.00000000E+00  0.00000000E+00
  0.00000000E+00  0.00000000E+00  0.00000000E+00
  0.00000000E+00  0.00000000E+00  0.00000000E+00
  0.00000000E+00  0.00000000E+00  0.00000000E+00
  0.00000000E+00  0.00000000E+00  0.00000000E+00
  0.00000000E+00  0.00000000E+00  0.00000000E+00
  0.00000000E+00  0.00000000E+00  0.00000000E+00
  0.00000000E+00  0.00000000E+00  0.00000000E+00
  0.00000000E+00  0.00000000E+00  0.00000000E+00
  0.00000000E+00  0.00000000E+00  0.00000000E+00
  0.00000000E+00  0.00000000E+00  0.00000000E+00
  0.00000000E+00  0.00000000E+00  0.00000000E+00
  0.00000000E+00  0.00000000E+00  0.00000000E+00
  0.00000000E+00  0.00000000E+00  0.00000000E+00
  0.00000000E+00  0.00000000E+00  0.00000000E+00
  0.00000000E+00  0.00000000E+00  0.00000000E+00
  0.00000000E+00  0.00000000E+00  0.00000000E+00
  0.00000000E+00  0.00000000E+00  0.00000000E+00
  0.00000000E+00  0.00000000E+00  0.00000000E+00
  0.00000000E+00  0.00000000E+00  0.00000000E+00
  0.00000000E+00  0.00000000E+00  0.00000000E+00
  0.00000000E+00  0.00000000E+00  0.00000000E+00
  0.00000000E+00  0.00000000E+00  0.00000000E+00
  0.00000000E+00  0.00000000E+00  0.00000000E+00
  0.00000000E+00  0.00000000E+00  0.00000000E+00
  0.00000000E+00  0.00000000E+00  0.00000000E+00
  0.00000000E+00  0.00000000E+00  0.00000000E+00
  0.00000000E+00  0.00000000E+00  0.00000000E+00
  0.00000000E+00  0.00000000E+00  0.00000000E+00
  0.00000000E+00  0.00000000E+00  0.00000000E+00
  0.00000000E+00  0.00000000E+00  0.00000000E+00
