CONTCAR\(7)                             
   1.00000000000000     
    12.3312997818000003    0.0000000000000000    0.0000000000000000
     0.0001127485000000   12.8291997905000006    0.0000000000000000
     0.0005937186000000    0.0011528207000000   19.9943999824000009
   C    N    Fe   Ni   H 
    51     5     1     1     2
Direct
  0.0563520560426534  0.0537788044174213  0.0511493925623865
  0.1568951419819842  0.1097071588706881  0.0506077038677412
  0.1572060839459124  0.2206269220968398  0.0503012332997697
  0.0567258055566079  0.2752893556888142  0.0505426286858954
  0.2573891654079348  0.0549745984788717  0.0508747733310477
  0.3579592257570784  0.1107042869398241  0.0525620770863192
  0.3582180533043711  0.2228927671912582  0.0524752980042988
  0.2572616658263744  0.2769248600342229  0.0504127199324427
  0.4579937417275993  0.0541429683520554  0.0546264961180945
  0.5582900947594260  0.1107480312506801  0.0570946026490606
  0.5590312222948939  0.2247299463766588  0.0573904274744365
  0.4581897430015711  0.2817041062476437  0.0547628109189854
  0.6559488040364965  0.0497632886171246  0.0583367047794715
  0.7552089508336968  0.1077330543542403  0.0571686365614388
  0.7564217061987992  0.2206587374864003  0.0571407779199316
  0.6593973320325767  0.2814180877612373  0.0588224520616340
  0.8555228200519225  0.0522344459398021  0.0549609588057940
  0.9559763855660895  0.1080658878929385  0.0527945587997920
  0.9567996201582000  0.2194320465007799  0.0525349243581152
  0.8573692831807462  0.2750188740251939  0.0545960170249635
  0.0566788826436068  0.3864146458974670  0.0494665163848710
  0.1556732768219894  0.4427815325900329  0.0481434827122820
  0.1549737193136997  0.5536660945110153  0.0472078111916252
  0.0561061125916122  0.6095188714626568  0.0478917207547898
  0.2554002030956068  0.3883183539640923  0.0492400191402815
  0.3541078047184442  0.4454086740783417  0.0504741459945690
  0.3532144778343843  0.5575227224969368  0.0498082346140724
  0.2539346722278271  0.6107476956038334  0.0474654671198594
  0.7610482093394129  0.4437220799532221  0.0573958478675155
  0.8590952522778613  0.3862696497527449  0.0540079214060189
  0.9578157906204041  0.4419441342844128  0.0509083160916885
  0.9567042178452912  0.5534243298069980  0.0503654004200260
  0.8569634625747694  0.6067449139706776  0.0539559505935475
  0.0562144556126453  0.7203528856511443  0.0478772390883093
  0.1550458702767376  0.7771818066355467  0.0473575604569428
  0.1561435136565854  0.8879604821823900  0.0487680518829471
  0.0561147214912961  0.9428508915073508  0.0504151931220629
  0.2535271054459423  0.7215854678173921  0.0473942137479010
  0.3527859084988562  0.7760370916265764  0.0495043524313929
  0.3555741653122364  0.8873986494708698  0.0509094842531040
  0.2564307374461240  0.9435073911587031  0.0498583411078631
  0.4504648920859402  0.7180766686054100  0.0527240483745620
  0.5531771670916668  0.8795913782615259  0.0575453097345241
  0.4565120401195618  0.9415329589376579  0.0541126437561262
  0.7576476432231907  0.8801228369972671  0.0593623314030911
  0.6551063390907630  0.9350393891305231  0.0594295281404065
  0.8578876685389099  0.7199203574440259  0.0551067319869138
  0.9571647653978969  0.7751358127299930  0.0508555178515004
  0.9564924754899655  0.8865474151575156  0.0521219581781764
  0.8558961845424352  0.9404603443272070  0.0551635600964660
  0.4538098780614367  0.3926000952540382  0.0537647206378274
  0.4510866996080300  0.6095996157900838  0.0526920783411259
  0.6642878544733777  0.3913163736628834  0.0602483191949577
  0.7594102038285120  0.5519413437177915  0.0581800153700296
  0.5465394220917498  0.7705354609125992  0.0584536529804668
  0.7625002394775396  0.7730636852881971  0.0623925361213635
  0.6523139756209847  0.6627774334399595  0.0864371250960093
  0.5598920995744510  0.4944562886349848  0.0614226325154182
  0.5981101931833934  0.5794302489578332  0.1504062854948992
  0.6212007831899192  0.6338356698054172  0.1714605341028336
 
  0.00000000E+00  0.00000000E+00  0.00000000E+00
  0.00000000E+00  0.00000000E+00  0.00000000E+00
  0.00000000E+00  0.00000000E+00  0.00000000E+00
  0.00000000E+00  0.00000000E+00  0.00000000E+00
  0.00000000E+00  0.00000000E+00  0.00000000E+00
  0.00000000E+00  0.00000000E+00  0.00000000E+00
  0.00000000E+00  0.00000000E+00  0.00000000E+00
  0.00000000E+00  0.00000000E+00  0.00000000E+00
  0.00000000E+00  0.00000000E+00  0.00000000E+00
  0.00000000E+00  0.00000000E+00  0.00000000E+00
  0.00000000E+00  0.00000000E+00  0.00000000E+00
  0.00000000E+00  0.00000000E+00  0.00000000E+00
  0.00000000E+00  0.00000000E+00  0.00000000E+00
  0.00000000E+00  0.00000000E+00  0.00000000E+00
  0.00000000E+00  0.00000000E+00  0.00000000E+00
  0.00000000E+00  0.00000000E+00  0.00000000E+00
  0.00000000E+00  0.00000000E+00  0.00000000E+00
  0.00000000E+00  0.00000000E+00  0.00000000E+00
  0.00000000E+00  0.00000000E+00  0.00000000E+00
  0.00000000E+00  0.00000000E+00  0.00000000E+00
  0.00000000E+00  0.00000000E+00  0.00000000E+00
  0.00000000E+00  0.00000000E+00  0.00000000E+00
  0.00000000E+00  0.00000000E+00  0.00000000E+00
  0.00000000E+00  0.00000000E+00  0.00000000E+00
  0.00000000E+00  0.00000000E+00  0.00000000E+00
  0.00000000E+00  0.00000000E+00  0.00000000E+00
  0.00000000E+00  0.00000000E+00  0.00000000E+00
  0.00000000E+00  0.00000000E+00  0.00000000E+00
  0.00000000E+00  0.00000000E+00  0.00000000E+00
  0.00000000E+00  0.00000000E+00  0.00000000E+00
  0.00000000E+00  0.00000000E+00  0.00000000E+00
  0.00000000E+00  0.00000000E+00  0.00000000E+00
  0.00000000E+00  0.00000000E+00  0.00000000E+00
  0.00000000E+00  0.00000000E+00  0.00000000E+00
  0.00000000E+00  0.00000000E+00  0.00000000E+00
  0.00000000E+00  0.00000000E+00  0.00000000E+00
  0.00000000E+00  0.00000000E+00  0.00000000E+00
  0.00000000E+00  0.00000000E+00  0.00000000E+00
  0.00000000E+00  0.00000000E+00  0.00000000E+00
  0.00000000E+00  0.00000000E+00  0.00000000E+00
  0.00000000E+00  0.00000000E+00  0.00000000E+00
  0.00000000E+00  0.00000000E+00  0.00000000E+00
  0.00000000E+00  0.00000000E+00  0.00000000E+00
  0.00000000E+00  0.00000000E+00  0.00000000E+00
  0.00000000E+00  0.00000000E+00  0.00000000E+00
  0.00000000E+00  0.00000000E+00  0.00000000E+00
  0.00000000E+00  0.00000000E+00  0.00000000E+00
  0.00000000E+00  0.00000000E+00  0.00000000E+00
  0.00000000E+00  0.00000000E+00  0.00000000E+00
  0.00000000E+00  0.00000000E+00  0.00000000E+00
  0.00000000E+00  0.00000000E+00  0.00000000E+00
  0.00000000E+00  0.00000000E+00  0.00000000E+00
  0.00000000E+00  0.00000000E+00  0.00000000E+00
  0.00000000E+00  0.00000000E+00  0.00000000E+00
  0.00000000E+00  0.00000000E+00  0.00000000E+00
  0.00000000E+00  0.00000000E+00  0.00000000E+00
  0.00000000E+00  0.00000000E+00  0.00000000E+00
  0.00000000E+00  0.00000000E+00  0.00000000E+00
  0.00000000E+00  0.00000000E+00  0.00000000E+00
  0.00000000E+00  0.00000000E+00  0.00000000E+00
