an6                                     
   1.00000000000000     
    12.3312997818000003    0.0000000000000000    0.0000000000000000
     0.0001127485000000   12.8291997905000006    0.0000000000000000
     0.0005937186000000    0.0011528207000000   19.9943999824000009
   C    N    Fe   Ni
    52     4     1     1
Direct
  0.0559057999850884  0.0541902957128981  0.0557752395755848
  0.1561684203461048  0.1102649821653840  0.0557898745641173
  0.1565467825953154  0.2211719748355907  0.0557733016334023
  0.0566172016117088  0.2758209260392036  0.0557442524448679
  0.2563886072263956  0.0559358953360751  0.0558011280376023
  0.3566825297549329  0.1120017893875307  0.0557714480890614
  0.3565346800521308  0.2235990697098790  0.0557441181266594
  0.2560463128816002  0.2774606688483058  0.0557681437634521
  0.4567627978721583  0.0565273074361183  0.0557349045682142
  0.5562284777153430  0.1138638703160022  0.0556848884503268
  0.5568600567005091  0.2278946116369553  0.0556623955121512
  0.4551234350213333  0.2837124975794651  0.0556796052912662
  0.6542830226575951  0.0529397086327906  0.0556707924740367
  0.7546452975362710  0.1094753138501341  0.0556958897470357
  0.7563808985371361  0.2217604190786604  0.0557041284372816
  0.6587857046295363  0.2833292332786686  0.0556656856833228
  0.8546431328761483  0.0529602934284005  0.0557089422657425
  0.9553095330863259  0.1086178035080699  0.0557384199443402
  0.9566626945410087  0.2197770115700745  0.0557320605371171
  0.8574930650884761  0.2756476465945333  0.0557147060452973
  0.0577379099245172  0.3867220776586755  0.0557388736575476
  0.1564349753088644  0.4434642332749817  0.0557662188934808
  0.1570799030295373  0.5543325009939545  0.0557784922580131
  0.0581848060951846  0.6098764080989244  0.0557587299051279
  0.2556847596796399  0.3887761133598185  0.0557646718360045
  0.3551462710581889  0.4438141773659225  0.0557247675849988
  0.3564731077901560  0.5570405063697205  0.0557241915479490
  0.2563026177496149  0.6104955219041395  0.0557720200340642
  0.7620740961610456  0.4436055477097593  0.0556601175178934
  0.8600868827036042  0.3866289798244371  0.0556994861489036
  0.9590249714589133  0.4422916134225691  0.0557191227859429
  0.9595101293515692  0.5530925265653455  0.0557144326206603
  0.8601584430645083  0.6075038643275582  0.0556668644540546
  0.0573964301205516  0.7210605003435011  0.0557726574584603
  0.1556986357510441  0.7773122899666914  0.0558001635283419
  0.1557360389658956  0.8886014610001116  0.0558096242721686
  0.0556213289020626  0.9434990951168005  0.0557862231328166
  0.2544409758449748  0.7216577417686295  0.0557823975994585
  0.3526042922379697  0.7776117032214782  0.0557505774007173
  0.3547887002707484  0.8890331993014785  0.0557704519243146
  0.2554392557441603  0.9445894633952049  0.0558098848872742
  0.4505487396859181  0.7208480703998784  0.0556866659671891
  0.5521323360029757  0.8840191604449094  0.0556647928127950
  0.4552149828046810  0.9440980673043147  0.0557302174148889
  0.7543945627494041  0.8815593799410615  0.0556422510187584
  0.6534520907686898  0.9392866899627111  0.0556497650559727
  0.8602207854527054  0.7200168092160042  0.0556678902319879
  0.9579864213974011  0.7764572240631669  0.0557338076603135
  0.9556517904021069  0.8874473548887164  0.0557429475499596
  0.8542827882761780  0.9408453953710507  0.0556905028726442
  0.7596195449463550  0.5550705906236394  0.0556402226301072
  0.7592678666467760  0.7700469498727724  0.0556164826069998
  0.4509555872571622  0.3909941275016468  0.0556710647505149
  0.4541042197783103  0.6118274725000413  0.0556731594386385
  0.6648995378511142  0.3907511593461059  0.0556456020689621
  0.5462661045460883  0.7751158059901997  0.0556419527173929
  0.6459797199213477  0.6626961168829758  0.0556150167633836
  0.5626599825849327  0.4994987297563433  0.0556477758003849
 
  0.00000000E+00  0.00000000E+00  0.00000000E+00
  0.00000000E+00  0.00000000E+00  0.00000000E+00
  0.00000000E+00  0.00000000E+00  0.00000000E+00
  0.00000000E+00  0.00000000E+00  0.00000000E+00
  0.00000000E+00  0.00000000E+00  0.00000000E+00
  0.00000000E+00  0.00000000E+00  0.00000000E+00
  0.00000000E+00  0.00000000E+00  0.00000000E+00
  0.00000000E+00  0.00000000E+00  0.00000000E+00
  0.00000000E+00  0.00000000E+00  0.00000000E+00
  0.00000000E+00  0.00000000E+00  0.00000000E+00
  0.00000000E+00  0.00000000E+00  0.00000000E+00
  0.00000000E+00  0.00000000E+00  0.00000000E+00
  0.00000000E+00  0.00000000E+00  0.00000000E+00
  0.00000000E+00  0.00000000E+00  0.00000000E+00
  0.00000000E+00  0.00000000E+00  0.00000000E+00
  0.00000000E+00  0.00000000E+00  0.00000000E+00
  0.00000000E+00  0.00000000E+00  0.00000000E+00
  0.00000000E+00  0.00000000E+00  0.00000000E+00
  0.00000000E+00  0.00000000E+00  0.00000000E+00
  0.00000000E+00  0.00000000E+00  0.00000000E+00
  0.00000000E+00  0.00000000E+00  0.00000000E+00
  0.00000000E+00  0.00000000E+00  0.00000000E+00
  0.00000000E+00  0.00000000E+00  0.00000000E+00
  0.00000000E+00  0.00000000E+00  0.00000000E+00
  0.00000000E+00  0.00000000E+00  0.00000000E+00
  0.00000000E+00  0.00000000E+00  0.00000000E+00
  0.00000000E+00  0.00000000E+00  0.00000000E+00
  0.00000000E+00  0.00000000E+00  0.00000000E+00
  0.00000000E+00  0.00000000E+00  0.00000000E+00
  0.00000000E+00  0.00000000E+00  0.00000000E+00
  0.00000000E+00  0.00000000E+00  0.00000000E+00
  0.00000000E+00  0.00000000E+00  0.00000000E+00
  0.00000000E+00  0.00000000E+00  0.00000000E+00
  0.00000000E+00  0.00000000E+00  0.00000000E+00
  0.00000000E+00  0.00000000E+00  0.00000000E+00
  0.00000000E+00  0.00000000E+00  0.00000000E+00
  0.00000000E+00  0.00000000E+00  0.00000000E+00
  0.00000000E+00  0.00000000E+00  0.00000000E+00
  0.00000000E+00  0.00000000E+00  0.00000000E+00
  0.00000000E+00  0.00000000E+00  0.00000000E+00
  0.00000000E+00  0.00000000E+00  0.00000000E+00
  0.00000000E+00  0.00000000E+00  0.00000000E+00
  0.00000000E+00  0.00000000E+00  0.00000000E+00
  0.00000000E+00  0.00000000E+00  0.00000000E+00
  0.00000000E+00  0.00000000E+00  0.00000000E+00
  0.00000000E+00  0.00000000E+00  0.00000000E+00
  0.00000000E+00  0.00000000E+00  0.00000000E+00
  0.00000000E+00  0.00000000E+00  0.00000000E+00
  0.00000000E+00  0.00000000E+00  0.00000000E+00
  0.00000000E+00  0.00000000E+00  0.00000000E+00
  0.00000000E+00  0.00000000E+00  0.00000000E+00
  0.00000000E+00  0.00000000E+00  0.00000000E+00
  0.00000000E+00  0.00000000E+00  0.00000000E+00
  0.00000000E+00  0.00000000E+00  0.00000000E+00
  0.00000000E+00  0.00000000E+00  0.00000000E+00
  0.00000000E+00  0.00000000E+00  0.00000000E+00
  0.00000000E+00  0.00000000E+00  0.00000000E+00
  0.00000000E+00  0.00000000E+00  0.00000000E+00
