1h\(2)                                  
   1.00000000000000     
    12.3312997818000003    0.0000000000000000    0.0000000000000000
     0.0001127485000000   12.8291997905000006    0.0000000000000000
     0.0005937186000000    0.0011528207000000   19.9943999824000009
   C    N    Fe   Ni
    53     3     1     1
Direct
  0.0565339038619400  0.0555308381378618  0.0530950021629623
  0.1567123920973641  0.1114810689821260  0.0531760827985045
  0.1571981925686557  0.2223909475970740  0.0536145219132208
  0.0568049179431483  0.2769332853663098  0.0538808447988326
  0.2567663208527060  0.0563402755063257  0.0532889365825408
  0.3572418947088619  0.1115768261145395  0.0551119459751918
  0.3578764539321658  0.2237266524936272  0.0555635474076116
  0.2574228362038314  0.2784863478429029  0.0541417219092404
  0.4565157849263132  0.0542866539079958  0.0566311271368948
  0.5567917552283724  0.1098210772917231  0.0586844869706455
  0.5571097203839952  0.2217470435220294  0.0590799283931689
  0.4579625777922905  0.2812755069829590  0.0573511636481369
  0.6558037315572566  0.0502703380436325  0.0596284149925838
  0.7555744423593043  0.1080875959567719  0.0587715987080335
  0.7564736401349207  0.2200082664013791  0.0591961928561312
  0.6573181784990040  0.2779135414157710  0.0605960010793009
  0.8559840192037380  0.0535417573876527  0.0565555151619581
  0.9562155531496654  0.1097046905428933  0.0547090330540222
  0.9568926990494985  0.2207500606630519  0.0550853017679314
  0.8570230756898611  0.2756559176238451  0.0571492266084484
  0.0570628479775109  0.3881162368431037  0.0533824407312618
  0.1563821916745130  0.4441502758919357  0.0523409062642385
  0.1552914704617019  0.5549481612727755  0.0509374683698933
  0.0558136318634496  0.6105337762332882  0.0512523904209591
  0.2568304782463363  0.3898728951432069  0.0534462435890899
  0.3565491271101438  0.4464250433136098  0.0541822527187253
  0.3547414245777874  0.5592647007747164  0.0528166299145429
  0.2542837863638008  0.6118785343456339  0.0507139044690639
  0.7598128521004087  0.4431006096137295  0.0615763240205941
  0.8588959276930077  0.3867631724675096  0.0573893607084486
  0.9574149709465467  0.4434384769799688  0.0548047046738782
  0.9561117989980229  0.5550290159299816  0.0543699938073226
  0.8559395576352838  0.6104402126384580  0.0585575985532706
  0.0561112989018633  0.7215895300433549  0.0503837085978305
  0.1546048974702075  0.7782774425038190  0.0495571005396946
  0.1557993792563601  0.8892741125356607  0.0505662403877934
  0.0562711280201527  0.9447299381173829  0.0519662683776951
  0.2531831709606249  0.7225442200458407  0.0497250753682811
  0.3518168599596767  0.7778079359518060  0.0511388639682904
  0.3545620799813807  0.8887419025539387  0.0527133494019184
  0.2556807942522255  0.9450040289519536  0.0518496106620504
  0.4492868937796051  0.7205483578081323  0.0539574791075632
  0.5524126687545140  0.8815886254811780  0.0588709751866675
  0.4552705790083301  0.9425732050798357  0.0559145817812007
  0.7579579315132942  0.8828760439582881  0.0607616085552719
  0.6550460129868078  0.9367812993971352  0.0605558174807047
  0.8588082120809554  0.7234775893658353  0.0581763493269205
  0.9574177430044742  0.7777552231731300  0.0528921112442366
  0.9569260536897388  0.8887169180488516  0.0535908593123543
  0.8563496234571578  0.9423763695374360  0.0567173428773920
  0.4567085106483486  0.3929338250046689  0.0563864629803654
  0.6605981263361858  0.3880226514522198  0.0619855929223131
  0.7559496908541855  0.5547794384429041  0.0643914156819472
  0.4513226540028759  0.6130859071311952  0.0539587538727940
  0.5455676740860972  0.7735502687543306  0.0593944993002831
  0.7632134801644630  0.7763487132151002  0.0643740317764376
  0.6522530421756906  0.6658978043937468  0.0806035777875770
  0.5647393828633829  0.4945390838238429  0.0575875063357768
 
  0.00000000E+00  0.00000000E+00  0.00000000E+00
  0.00000000E+00  0.00000000E+00  0.00000000E+00
  0.00000000E+00  0.00000000E+00  0.00000000E+00
  0.00000000E+00  0.00000000E+00  0.00000000E+00
  0.00000000E+00  0.00000000E+00  0.00000000E+00
  0.00000000E+00  0.00000000E+00  0.00000000E+00
  0.00000000E+00  0.00000000E+00  0.00000000E+00
  0.00000000E+00  0.00000000E+00  0.00000000E+00
  0.00000000E+00  0.00000000E+00  0.00000000E+00
  0.00000000E+00  0.00000000E+00  0.00000000E+00
  0.00000000E+00  0.00000000E+00  0.00000000E+00
  0.00000000E+00  0.00000000E+00  0.00000000E+00
  0.00000000E+00  0.00000000E+00  0.00000000E+00
  0.00000000E+00  0.00000000E+00  0.00000000E+00
  0.00000000E+00  0.00000000E+00  0.00000000E+00
  0.00000000E+00  0.00000000E+00  0.00000000E+00
  0.00000000E+00  0.00000000E+00  0.00000000E+00
  0.00000000E+00  0.00000000E+00  0.00000000E+00
  0.00000000E+00  0.00000000E+00  0.00000000E+00
  0.00000000E+00  0.00000000E+00  0.00000000E+00
  0.00000000E+00  0.00000000E+00  0.00000000E+00
  0.00000000E+00  0.00000000E+00  0.00000000E+00
  0.00000000E+00  0.00000000E+00  0.00000000E+00
  0.00000000E+00  0.00000000E+00  0.00000000E+00
  0.00000000E+00  0.00000000E+00  0.00000000E+00
  0.00000000E+00  0.00000000E+00  0.00000000E+00
  0.00000000E+00  0.00000000E+00  0.00000000E+00
  0.00000000E+00  0.00000000E+00  0.00000000E+00
  0.00000000E+00  0.00000000E+00  0.00000000E+00
  0.00000000E+00  0.00000000E+00  0.00000000E+00
  0.00000000E+00  0.00000000E+00  0.00000000E+00
  0.00000000E+00  0.00000000E+00  0.00000000E+00
  0.00000000E+00  0.00000000E+00  0.00000000E+00
  0.00000000E+00  0.00000000E+00  0.00000000E+00
  0.00000000E+00  0.00000000E+00  0.00000000E+00
  0.00000000E+00  0.00000000E+00  0.00000000E+00
  0.00000000E+00  0.00000000E+00  0.00000000E+00
  0.00000000E+00  0.00000000E+00  0.00000000E+00
  0.00000000E+00  0.00000000E+00  0.00000000E+00
  0.00000000E+00  0.00000000E+00  0.00000000E+00
  0.00000000E+00  0.00000000E+00  0.00000000E+00
  0.00000000E+00  0.00000000E+00  0.00000000E+00
  0.00000000E+00  0.00000000E+00  0.00000000E+00
  0.00000000E+00  0.00000000E+00  0.00000000E+00
  0.00000000E+00  0.00000000E+00  0.00000000E+00
  0.00000000E+00  0.00000000E+00  0.00000000E+00
  0.00000000E+00  0.00000000E+00  0.00000000E+00
  0.00000000E+00  0.00000000E+00  0.00000000E+00
  0.00000000E+00  0.00000000E+00  0.00000000E+00
  0.00000000E+00  0.00000000E+00  0.00000000E+00
  0.00000000E+00  0.00000000E+00  0.00000000E+00
  0.00000000E+00  0.00000000E+00  0.00000000E+00
  0.00000000E+00  0.00000000E+00  0.00000000E+00
  0.00000000E+00  0.00000000E+00  0.00000000E+00
  0.00000000E+00  0.00000000E+00  0.00000000E+00
  0.00000000E+00  0.00000000E+00  0.00000000E+00
  0.00000000E+00  0.00000000E+00  0.00000000E+00
  0.00000000E+00  0.00000000E+00  0.00000000E+00
