CONTCAR                                 
   1.00000000000000     
    12.3312997818000003    0.0000000000000000    0.0000000000000000
     0.0001127485000000   12.8291997905000006    0.0000000000000000
     0.0005937186000000    0.0011528207000000   19.9943999824000009
   C    N    Fe   Ni   O 
    53     3     1     1     2
Direct
  0.0564008728769360  0.0564982345650688  0.0497807638999702
  0.1567843771594314  0.1119291602691423  0.0490765466153151
  0.1570676828053275  0.2230808831359418  0.0489100825187953
  0.0564486157826289  0.2777270793018811  0.0493166551028280
  0.2568765815396097  0.0564077363798382  0.0493735909298812
  0.3575283123887747  0.1113006124897090  0.0513679289517417
  0.3578571656538918  0.2232671652114403  0.0518029159776831
  0.2575529025329271  0.2786696874483336  0.0495223051710272
  0.4570649638528742  0.0542713060359052  0.0537839167345313
  0.5571662773614972  0.1096129915243655  0.0571796671932597
  0.5572386728298772  0.2217534966989170  0.0590454793152232
  0.4579077567876176  0.2799340752856789  0.0559169177628043
  0.6562419969167103  0.0504650439079485  0.0579858672203957
  0.7555772135608663  0.1088007905593388  0.0565510786795302
  0.7561781972911361  0.2213715072587842  0.0573067220895896
  0.6570466594742168  0.2789694141651136  0.0615983892898414
  0.8556274789019533  0.0539046377712539  0.0538850746756030
  0.9556483811467894  0.1107488212946034  0.0515082057312693
  0.9558851176438489  0.2223238054248964  0.0513233383540325
  0.8557956210779525  0.2780638874506946  0.0541978487594930
  0.0566689213462512  0.3888861599847609  0.0488393498192312
  0.1566850605701489  0.4444575654666638  0.0481032697217711
  0.1565602190867199  0.5553879708064762  0.0477226209080232
  0.0573281329479415  0.6110769824994358  0.0480917231439649
  0.2573614397061578  0.3901558800772270  0.0491645646543280
  0.3575092119979362  0.4465416801862148  0.0516924049989997
  0.3564848418710009  0.5595457149153733  0.0522106856007632
  0.2557141724783067  0.6121140560278424  0.0487248263871204
  0.7568442399712880  0.4484926624788533  0.0613275758966313
  0.8562549223410926  0.3902460215449778  0.0544041118609650
  0.9567780968998003  0.4446404761600657  0.0506775859329524
  0.9575989022905229  0.5557008898356269  0.0503428219818780
  0.8584244618814283  0.6117780579440194  0.0548239946868783
  0.0573198103546614  0.7221971946885390  0.0481424609282128
  0.1557104674404294  0.7786708632860412  0.0474171778681124
  0.1561673750066542  0.8898109535184060  0.0480290531407834
  0.0565450900239192  0.9455146113143805  0.0493726951990335
  0.2545313891087383  0.7227664499366199  0.0481269964656352
  0.3534358428913368  0.7778224952793824  0.0499317088794951
  0.3553752716509181  0.8887667493408651  0.0500988984616028
  0.2561693022159333  0.9451406074650813  0.0486932228634911
  0.4510088210260781  0.7203339722158451  0.0552506050360338
  0.5534470570729738  0.8814082717712242  0.0575033646149101
  0.4561740878136477  0.9421887762375424  0.0533411907372532
  0.7576602829316290  0.8818409885000226  0.0582609541660845
  0.6556442700283812  0.9367072060325228  0.0588926692559012
  0.8603372431335070  0.7237068497214395  0.0546738220371051
  0.9584822974461443  0.7786454660378641  0.0505647478841013
  0.9572641079524541  0.8893642673158410  0.0512300254787544
  0.8560056702271454  0.9420043113734927  0.0542335457898866
  0.4569826235226228  0.3913710475656598  0.0566751741173756
  0.6592242197945088  0.3891731060472765  0.0670383016988814
  0.7576030518253328  0.5616474121870327  0.0636229311839641
  0.4526101764369181  0.6133445815706176  0.0574746075155451
  0.5479846159649436  0.7731843861856272  0.0600162686859806
  0.7628371732143722  0.7738082279555004  0.0601924625669054
  0.6547977576876751  0.6732241191364146  0.0878231341862557
  0.5577803566017657  0.4870519856860371  0.0853942680755178
  0.5945401310016891  0.5270790413190708  0.1734109136069047
  0.6325339086521530  0.6290315612052632  0.1682199709899433
 
  0.00000000E+00  0.00000000E+00  0.00000000E+00
  0.00000000E+00  0.00000000E+00  0.00000000E+00
  0.00000000E+00  0.00000000E+00  0.00000000E+00
  0.00000000E+00  0.00000000E+00  0.00000000E+00
  0.00000000E+00  0.00000000E+00  0.00000000E+00
  0.00000000E+00  0.00000000E+00  0.00000000E+00
  0.00000000E+00  0.00000000E+00  0.00000000E+00
  0.00000000E+00  0.00000000E+00  0.00000000E+00
  0.00000000E+00  0.00000000E+00  0.00000000E+00
  0.00000000E+00  0.00000000E+00  0.00000000E+00
  0.00000000E+00  0.00000000E+00  0.00000000E+00
  0.00000000E+00  0.00000000E+00  0.00000000E+00
  0.00000000E+00  0.00000000E+00  0.00000000E+00
  0.00000000E+00  0.00000000E+00  0.00000000E+00
  0.00000000E+00  0.00000000E+00  0.00000000E+00
  0.00000000E+00  0.00000000E+00  0.00000000E+00
  0.00000000E+00  0.00000000E+00  0.00000000E+00
  0.00000000E+00  0.00000000E+00  0.00000000E+00
  0.00000000E+00  0.00000000E+00  0.00000000E+00
  0.00000000E+00  0.00000000E+00  0.00000000E+00
  0.00000000E+00  0.00000000E+00  0.00000000E+00
  0.00000000E+00  0.00000000E+00  0.00000000E+00
  0.00000000E+00  0.00000000E+00  0.00000000E+00
  0.00000000E+00  0.00000000E+00  0.00000000E+00
  0.00000000E+00  0.00000000E+00  0.00000000E+00
  0.00000000E+00  0.00000000E+00  0.00000000E+00
  0.00000000E+00  0.00000000E+00  0.00000000E+00
  0.00000000E+00  0.00000000E+00  0.00000000E+00
  0.00000000E+00  0.00000000E+00  0.00000000E+00
  0.00000000E+00  0.00000000E+00  0.00000000E+00
  0.00000000E+00  0.00000000E+00  0.00000000E+00
  0.00000000E+00  0.00000000E+00  0.00000000E+00
  0.00000000E+00  0.00000000E+00  0.00000000E+00
  0.00000000E+00  0.00000000E+00  0.00000000E+00
  0.00000000E+00  0.00000000E+00  0.00000000E+00
  0.00000000E+00  0.00000000E+00  0.00000000E+00
  0.00000000E+00  0.00000000E+00  0.00000000E+00
  0.00000000E+00  0.00000000E+00  0.00000000E+00
  0.00000000E+00  0.00000000E+00  0.00000000E+00
  0.00000000E+00  0.00000000E+00  0.00000000E+00
  0.00000000E+00  0.00000000E+00  0.00000000E+00
  0.00000000E+00  0.00000000E+00  0.00000000E+00
  0.00000000E+00  0.00000000E+00  0.00000000E+00
  0.00000000E+00  0.00000000E+00  0.00000000E+00
  0.00000000E+00  0.00000000E+00  0.00000000E+00
  0.00000000E+00  0.00000000E+00  0.00000000E+00
  0.00000000E+00  0.00000000E+00  0.00000000E+00
  0.00000000E+00  0.00000000E+00  0.00000000E+00
  0.00000000E+00  0.00000000E+00  0.00000000E+00
  0.00000000E+00  0.00000000E+00  0.00000000E+00
  0.00000000E+00  0.00000000E+00  0.00000000E+00
  0.00000000E+00  0.00000000E+00  0.00000000E+00
  0.00000000E+00  0.00000000E+00  0.00000000E+00
  0.00000000E+00  0.00000000E+00  0.00000000E+00
  0.00000000E+00  0.00000000E+00  0.00000000E+00
  0.00000000E+00  0.00000000E+00  0.00000000E+00
  0.00000000E+00  0.00000000E+00  0.00000000E+00
  0.00000000E+00  0.00000000E+00  0.00000000E+00
  0.00000000E+00  0.00000000E+00  0.00000000E+00
  0.00000000E+00  0.00000000E+00  0.00000000E+00
