CONTCAR\(2)\(3)                         
   1.00000000000000     
    12.3312997818000003    0.0000000000000000    0.0000000000000000
     0.0001127485000000   12.8291997905000006    0.0000000000000000
     0.0005937186000000    0.0011528207000000   19.9943999824000009
   C    N    Fe   Ni   O    H 
    54     2     1     1     2     2
Direct
  0.0553415954825157  0.0524879998517302  0.0454602180966561
  0.1557106366837197  0.1071710277068697  0.0449797323280720
  0.1551624354309170  0.2180967428047625  0.0440344116551970
  0.0549832150407779  0.2738541212174185  0.0444160617325484
  0.2563908483547200  0.0519477150817329  0.0464738670777176
  0.3566828159311292  0.1076186337759853  0.0499580023620333
  0.3563126307604532  0.2194905981730943  0.0492244016182352
  0.2552233680324832  0.2733017070615786  0.0443398370479421
  0.4565009224087715  0.0514559238572040  0.0549167430299604
  0.5563110030015416  0.1085345525107107  0.0595520603408285
  0.5561363021881273  0.2207423835451914  0.0607934742077541
  0.4559138085008039  0.2774376744131315  0.0550594873381236
  0.6562325898017708  0.0501773092795457  0.0607040966780801
  0.7552767738484384  0.1080260774681814  0.0575171157966668
  0.7550979324917033  0.2204528761613646  0.0585385440580696
  0.6562510652201679  0.2793675397908543  0.0638698737028965
  0.8550291723512823  0.0524398425226284  0.0523801982521930
  0.9550765357343340  0.1078870636212583  0.0484845786076652
  0.9547916673288548  0.2192296573833658  0.0484357452663314
  0.8549500163246054  0.2755397226568267  0.0533263137447146
  0.0547829226804068  0.3851503429534345  0.0423864531115214
  0.1538150868424614  0.4404463133707838  0.0396342859039172
  0.1532746396324662  0.5520179605106179  0.0382810836291527
  0.0543224899988550  0.6080723701204893  0.0390544518492697
  0.2535207653291704  0.3840992650602725  0.0416790242587557
  0.3519477069746535  0.4397130712512119  0.0451857286886599
  0.3510719983413905  0.5519161409687128  0.0446886359875877
  0.2525080154397847  0.6079762785841533  0.0401161424550023
  0.7579797085905091  0.4466021227255118  0.0611743169154944
  0.8558106438490809  0.3874209747899872  0.0527838776449213
  0.9553678276792257  0.4415235183802092  0.0457598937133118
  0.9551326726326144  0.5525936060209793  0.0438539855210467
  0.8549717669870746  0.6067835662337998  0.0511353221165069
  0.0553215493064453  0.7193449243755512  0.0394304876803459
  0.1549155654623062  0.7748808741406563  0.0398549914081314
  0.1557777567553930  0.8859800369046837  0.0423324968482409
  0.0557592689381897  0.9415295759424178  0.0438311587024704
  0.2545352211889923  0.7188364511138792  0.0412746153141829
  0.3549799150682127  0.7724836346700924  0.0477249377873901
  0.3562911396979587  0.8840724981007986  0.0494737865382944
  0.2564468258160024  0.9406348183241291  0.0455737716008477
  0.4535861669906527  0.7134585566402343  0.0571122110934566
  0.5554887960091596  0.8804234078899198  0.0638204160292336
  0.4564696512079170  0.9391569943900233  0.0555917064905572
  0.7579137842885836  0.8826794384314803  0.0580789354918108
  0.6564664556295022  0.9377050241119812  0.0627623750995288
  0.8563102129801788  0.7210556865189401  0.0498510266728155
  0.9559621899007805  0.7751081117240483  0.0434422835330039
  0.9559704609372137  0.8861418663734822  0.0455697445458096
  0.8558607847517845  0.9407350501297698  0.0512515326967240
  0.4524010619402938  0.3886289397621789  0.0543633726148695
  0.6580544159714402  0.3906369882783695  0.0699020304523974
  0.5513419584315244  0.7697093436135178  0.0705408315262529
  0.4500139526390456  0.6019978771764601  0.0553928368151046
  0.7605601800152829  0.5553531686028211  0.0621882895631516
  0.7620393785545311  0.7750271622763658  0.0596705253998022
  0.6674786616157030  0.6845688247402577  0.1068661192116259
  0.5489837492981133  0.4892186446805455  0.0844058937142608
  0.5848347244357965  0.5841504512356314  0.1569231953025936
  0.7511168884016244  0.7141388742301832  0.1819822016237846
  0.7295193150305254  0.6649078666875881  0.2167703332838133
  0.5181383328420258  0.6151402740804397  0.1739699412226223
 
  0.00000000E+00  0.00000000E+00  0.00000000E+00
  0.00000000E+00  0.00000000E+00  0.00000000E+00
  0.00000000E+00  0.00000000E+00  0.00000000E+00
  0.00000000E+00  0.00000000E+00  0.00000000E+00
  0.00000000E+00  0.00000000E+00  0.00000000E+00
  0.00000000E+00  0.00000000E+00  0.00000000E+00
  0.00000000E+00  0.00000000E+00  0.00000000E+00
  0.00000000E+00  0.00000000E+00  0.00000000E+00
  0.00000000E+00  0.00000000E+00  0.00000000E+00
  0.00000000E+00  0.00000000E+00  0.00000000E+00
  0.00000000E+00  0.00000000E+00  0.00000000E+00
  0.00000000E+00  0.00000000E+00  0.00000000E+00
  0.00000000E+00  0.00000000E+00  0.00000000E+00
  0.00000000E+00  0.00000000E+00  0.00000000E+00
  0.00000000E+00  0.00000000E+00  0.00000000E+00
  0.00000000E+00  0.00000000E+00  0.00000000E+00
  0.00000000E+00  0.00000000E+00  0.00000000E+00
  0.00000000E+00  0.00000000E+00  0.00000000E+00
  0.00000000E+00  0.00000000E+00  0.00000000E+00
  0.00000000E+00  0.00000000E+00  0.00000000E+00
  0.00000000E+00  0.00000000E+00  0.00000000E+00
  0.00000000E+00  0.00000000E+00  0.00000000E+00
  0.00000000E+00  0.00000000E+00  0.00000000E+00
  0.00000000E+00  0.00000000E+00  0.00000000E+00
  0.00000000E+00  0.00000000E+00  0.00000000E+00
  0.00000000E+00  0.00000000E+00  0.00000000E+00
  0.00000000E+00  0.00000000E+00  0.00000000E+00
  0.00000000E+00  0.00000000E+00  0.00000000E+00
  0.00000000E+00  0.00000000E+00  0.00000000E+00
  0.00000000E+00  0.00000000E+00  0.00000000E+00
  0.00000000E+00  0.00000000E+00  0.00000000E+00
  0.00000000E+00  0.00000000E+00  0.00000000E+00
  0.00000000E+00  0.00000000E+00  0.00000000E+00
  0.00000000E+00  0.00000000E+00  0.00000000E+00
  0.00000000E+00  0.00000000E+00  0.00000000E+00
  0.00000000E+00  0.00000000E+00  0.00000000E+00
  0.00000000E+00  0.00000000E+00  0.00000000E+00
  0.00000000E+00  0.00000000E+00  0.00000000E+00
  0.00000000E+00  0.00000000E+00  0.00000000E+00
  0.00000000E+00  0.00000000E+00  0.00000000E+00
  0.00000000E+00  0.00000000E+00  0.00000000E+00
  0.00000000E+00  0.00000000E+00  0.00000000E+00
  0.00000000E+00  0.00000000E+00  0.00000000E+00
  0.00000000E+00  0.00000000E+00  0.00000000E+00
  0.00000000E+00  0.00000000E+00  0.00000000E+00
  0.00000000E+00  0.00000000E+00  0.00000000E+00
  0.00000000E+00  0.00000000E+00  0.00000000E+00
  0.00000000E+00  0.00000000E+00  0.00000000E+00
  0.00000000E+00  0.00000000E+00  0.00000000E+00
  0.00000000E+00  0.00000000E+00  0.00000000E+00
  0.00000000E+00  0.00000000E+00  0.00000000E+00
  0.00000000E+00  0.00000000E+00  0.00000000E+00
  0.00000000E+00  0.00000000E+00  0.00000000E+00
  0.00000000E+00  0.00000000E+00  0.00000000E+00
  0.00000000E+00  0.00000000E+00  0.00000000E+00
  0.00000000E+00  0.00000000E+00  0.00000000E+00
  0.00000000E+00  0.00000000E+00  0.00000000E+00
  0.00000000E+00  0.00000000E+00  0.00000000E+00
  0.00000000E+00  0.00000000E+00  0.00000000E+00
  0.00000000E+00  0.00000000E+00  0.00000000E+00
  0.00000000E+00  0.00000000E+00  0.00000000E+00
  0.00000000E+00  0.00000000E+00  0.00000000E+00
