CONTCAR\(6)                             
   1.00000000000000     
    12.3312997818000003    0.0000000000000000    0.0000000000000000
     0.0001127485000000   12.8291997905000006    0.0000000000000000
     0.0005937186000000    0.0011528207000000   19.9943999824000009
   C    N    Fe   Ni   O    H 
    53     3     1     1     2     2
Direct
  0.0580254316185806  0.0501300716932288  0.0462585340956114
  0.1583437005772536  0.1045073969826306  0.0463112525193284
  0.1570843812258257  0.2154359312571035  0.0455309770596071
  0.0567534721616371  0.2714655655530761  0.0456690840566032
  0.2589169994092320  0.0486058649605763  0.0481689441156286
  0.3592665375328945  0.1037585979814585  0.0520551084294947
  0.3578242261020227  0.2159927172278506  0.0510988253806861
  0.2570083106487172  0.2702812563403339  0.0461527342211080
  0.4590248243317515  0.0469755130613468  0.0569534636995348
  0.5578397938158556  0.1052533653382625  0.0615041545178410
  0.5569795066555672  0.2179324673913968  0.0626047796591185
  0.4562872751107445  0.2747196612849354  0.0560548607168539
  0.6580886844048590  0.0463144460493039  0.0628049636061512
  0.7572851681279116  0.1045957680724676  0.0591507814230629
  0.7570523770493465  0.2169805549714353  0.0605876035375744
  0.6576628360179987  0.2751474442579720  0.0668892223249050
  0.8574574558657547  0.0497577318222176  0.0533017165835460
  0.9573689195774191  0.1055082105327631  0.0493430716730711
  0.9565893601691229  0.2168290079470647  0.0496735360658296
  0.8565288738951690  0.2731556510161747  0.0550735677792091
  0.0564303976553925  0.3826983740228797  0.0431636065496030
  0.1560381642486868  0.4376137625261762  0.0405876939800533
  0.1559366494245743  0.5485904262638039  0.0386791096020096
  0.0569821726581678  0.6051206748175874  0.0385472091144282
  0.2559011896976295  0.3813331923129727  0.0435557134416115
  0.3552668956913415  0.4353745542756944  0.0470608988810665
  0.3546313986757512  0.5487705716743487  0.0479323133521391
  0.2553648011626012  0.6038318169686365  0.0415069394737280
  0.7581570999238361  0.4439468017577570  0.0648287072814539
  0.8569018314246727  0.3851367633980705  0.0545721175443933
  0.9565580821625327  0.4393324797848353  0.0459064950648730
  0.9570434854240105  0.5504937676504462  0.0429330200682966
  0.8577530505031751  0.6073261803008613  0.0493078205099440
  0.0585906768590315  0.7165450072607684  0.0386249431482618
  0.1580184538270603  0.7717243417224596  0.0403513525699002
  0.1589253045707751  0.8829374743670906  0.0430442396172466
  0.0591605562723766  0.9393083966729852  0.0441724726933327
  0.2571590817382594  0.7148567921640154  0.0430127280016431
  0.3574259410072188  0.7680121965085139  0.0500293195866320
  0.3592676632838011  0.8799282754423250  0.0514008908899373
  0.2595010074247052  0.9371060438907928  0.0470726260660572
  0.4543621246185694  0.7070264903115800  0.0592629130437089
  0.5584602754478755  0.8737306816846481  0.0651276280749621
  0.4596180800558572  0.9341894725981642  0.0575473708986655
  0.7615551589613007  0.8796332213865886  0.0603637591638481
  0.6589839182431060  0.9332678688746108  0.0649758323082165
  0.8611216217416893  0.7202372261845513  0.0489565654590472
  0.9599108414589995  0.7738477516835136  0.0421394330525964
  0.9594214363802365  0.8843544886824996  0.0454922634545654
  0.8589639347695829  0.9383552218949691  0.0521098281127398
  0.6615790415233943  0.3849164528605015  0.0740700293120122
  0.7582553653405284  0.5574856050335054  0.0626117178035817
  0.5542459640139227  0.7616883208683645  0.0711515472730438
  0.4524087204394965  0.3831055077384612  0.0539628771486080
  0.4494207934849040  0.5988968662531423  0.0587363362780103
  0.7671160061851635  0.7723512895390251  0.0626732640320958
  0.6691034424471918  0.6793335458312350  0.1095007263495537
  0.5520822548703136  0.4805563051920332  0.0812757297243623
  0.6035468534287582  0.5653755769130914  0.1570097192950146
  0.6918728729181536  0.7587459584474904  0.1843895208428418
  0.6676188068699079  0.7198307926146131  0.2237568510857069
  0.5393704318677738  0.5862561548828034  0.1823386823854667
 
  0.00000000E+00  0.00000000E+00  0.00000000E+00
  0.00000000E+00  0.00000000E+00  0.00000000E+00
  0.00000000E+00  0.00000000E+00  0.00000000E+00
  0.00000000E+00  0.00000000E+00  0.00000000E+00
  0.00000000E+00  0.00000000E+00  0.00000000E+00
  0.00000000E+00  0.00000000E+00  0.00000000E+00
  0.00000000E+00  0.00000000E+00  0.00000000E+00
  0.00000000E+00  0.00000000E+00  0.00000000E+00
  0.00000000E+00  0.00000000E+00  0.00000000E+00
  0.00000000E+00  0.00000000E+00  0.00000000E+00
  0.00000000E+00  0.00000000E+00  0.00000000E+00
  0.00000000E+00  0.00000000E+00  0.00000000E+00
  0.00000000E+00  0.00000000E+00  0.00000000E+00
  0.00000000E+00  0.00000000E+00  0.00000000E+00
  0.00000000E+00  0.00000000E+00  0.00000000E+00
  0.00000000E+00  0.00000000E+00  0.00000000E+00
  0.00000000E+00  0.00000000E+00  0.00000000E+00
  0.00000000E+00  0.00000000E+00  0.00000000E+00
  0.00000000E+00  0.00000000E+00  0.00000000E+00
  0.00000000E+00  0.00000000E+00  0.00000000E+00
  0.00000000E+00  0.00000000E+00  0.00000000E+00
  0.00000000E+00  0.00000000E+00  0.00000000E+00
  0.00000000E+00  0.00000000E+00  0.00000000E+00
  0.00000000E+00  0.00000000E+00  0.00000000E+00
  0.00000000E+00  0.00000000E+00  0.00000000E+00
  0.00000000E+00  0.00000000E+00  0.00000000E+00
  0.00000000E+00  0.00000000E+00  0.00000000E+00
  0.00000000E+00  0.00000000E+00  0.00000000E+00
  0.00000000E+00  0.00000000E+00  0.00000000E+00
  0.00000000E+00  0.00000000E+00  0.00000000E+00
  0.00000000E+00  0.00000000E+00  0.00000000E+00
  0.00000000E+00  0.00000000E+00  0.00000000E+00
  0.00000000E+00  0.00000000E+00  0.00000000E+00
  0.00000000E+00  0.00000000E+00  0.00000000E+00
  0.00000000E+00  0.00000000E+00  0.00000000E+00
  0.00000000E+00  0.00000000E+00  0.00000000E+00
  0.00000000E+00  0.00000000E+00  0.00000000E+00
  0.00000000E+00  0.00000000E+00  0.00000000E+00
  0.00000000E+00  0.00000000E+00  0.00000000E+00
  0.00000000E+00  0.00000000E+00  0.00000000E+00
  0.00000000E+00  0.00000000E+00  0.00000000E+00
  0.00000000E+00  0.00000000E+00  0.00000000E+00
  0.00000000E+00  0.00000000E+00  0.00000000E+00
  0.00000000E+00  0.00000000E+00  0.00000000E+00
  0.00000000E+00  0.00000000E+00  0.00000000E+00
  0.00000000E+00  0.00000000E+00  0.00000000E+00
  0.00000000E+00  0.00000000E+00  0.00000000E+00
  0.00000000E+00  0.00000000E+00  0.00000000E+00
  0.00000000E+00  0.00000000E+00  0.00000000E+00
  0.00000000E+00  0.00000000E+00  0.00000000E+00
  0.00000000E+00  0.00000000E+00  0.00000000E+00
  0.00000000E+00  0.00000000E+00  0.00000000E+00
  0.00000000E+00  0.00000000E+00  0.00000000E+00
  0.00000000E+00  0.00000000E+00  0.00000000E+00
  0.00000000E+00  0.00000000E+00  0.00000000E+00
  0.00000000E+00  0.00000000E+00  0.00000000E+00
  0.00000000E+00  0.00000000E+00  0.00000000E+00
  0.00000000E+00  0.00000000E+00  0.00000000E+00
  0.00000000E+00  0.00000000E+00  0.00000000E+00
  0.00000000E+00  0.00000000E+00  0.00000000E+00
  0.00000000E+00  0.00000000E+00  0.00000000E+00
  0.00000000E+00  0.00000000E+00  0.00000000E+00
