14                                      
   1.00000000000000     
    12.3312997818000003    0.0000000000000000    0.0000000000000000
     0.0001127485000000   12.8291997905000006    0.0000000000000000
     0.0005937186000000    0.0011528207000000   19.9943999824000009
   C    N    Fe   Ni   O 
    54     2     1     1     1
Direct
  0.0562930686075052  0.0555326721343532  0.0496720006965433
  0.1564537060783572  0.1098139348709135  0.0489936535686955
  0.1550638263537804  0.2205089590055450  0.0474984405325867
  0.0551606054597441  0.2768005229837492  0.0472569080241747
  0.2572844447195138  0.0544012282979892  0.0507037000398050
  0.3574907029123006  0.1099267934384825  0.0545744943455884
  0.3561177635244490  0.2220175185329287  0.0537035461148605
  0.2549402641181218  0.2753680272751691  0.0480982011647918
  0.4572052814391170  0.0537723387176248  0.0595069685231968
  0.5561568179840051  0.1121544069017528  0.0641228481055447
  0.5553459075117596  0.2248931341012566  0.0656660666249557
  0.4540499580883253  0.2813262571087757  0.0593808696010374
  0.6566385714552307  0.0531905199417745  0.0650783953826762
  0.7558294936113993  0.1109818454689169  0.0618247598202094
  0.7554499838964830  0.2234647170024411  0.0624773910612898
  0.6564189294853071  0.2820821420175637  0.0689489966683778
  0.8557033668343599  0.0554238032082656  0.0569202537911499
  0.9558182532237459  0.1109811667290574  0.0525399346328473
  0.9550449176055483  0.2222211805063148  0.0518151077869413
  0.8552341410034272  0.2789007475517095  0.0568174911983005
  0.0549636340265588  0.3881951788098456  0.0443185854549958
  0.1542029184488726  0.4429628812857609  0.0417059575075153
  0.1545418478801293  0.5543984493188774  0.0400438477476566
  0.0560818183348896  0.6109476358117569  0.0413671072924935
  0.2532655796776586  0.3856766306618262  0.0449626564525834
  0.3520813718576833  0.4397049354250350  0.0489284332377546
  0.3523178735096568  0.5525311226167523  0.0481917523006363
  0.2540445778325975  0.6094502172537944  0.0420401086927230
  0.7573888209141857  0.4488572345466430  0.0655715404174848
  0.8561245988941244  0.3907757977598967  0.0557342837238702
  0.9555636503887547  0.4450545434701866  0.0473771367669372
  0.9565675824768081  0.5561535897435760  0.0455987563746295
  0.8579236414341163  0.6134723195744711  0.0523378789774900
  0.0573962498656141  0.7224208638517510  0.0426161361740058
  0.1569054425239394  0.7773045132140435  0.0434474497893109
  0.1573380269025642  0.8885348716752153  0.0464264663554241
  0.0574532053764874  0.9447234193773871  0.0483309343396400
  0.2562489630673770  0.7203834076907559  0.0445389063618519
  0.3564446238965492  0.7740628481207118  0.0516539257192676
  0.3577937288358249  0.8860656283634425  0.0533282135129350
  0.2578899330247238  0.9430769964297854  0.0495214847493379
  0.4546997308523079  0.7145576751136880  0.0601007540896337
  0.5572476378125749  0.8815387216350569  0.0659016444690184
  0.4577328279774394  0.9410493535062148  0.0595782817682771
  0.7592887315436566  0.8853620678326071  0.0633583098240482
  0.6577767612899168  0.9403719259610440  0.0663787574694882
  0.8599207402184296  0.7259675326259400  0.0540274284369846
  0.9587591951744359  0.7795487190620004  0.0475404367025066
  0.9578590448697150  0.8899974833983653  0.0505485480795593
  0.8571230193900431  0.9438458026027446  0.0566433373228126
  0.4498110129017534  0.6030411602264522  0.0603162294772322
  0.6603774626228299  0.3920889847512889  0.0764358744531558
  0.7600675555427366  0.5614596542263010  0.0640822434593123
  0.5530629685814064  0.7708658305299648  0.0696135747660157
  0.4490284437277154  0.3898882134745534  0.0573948475721189
  0.7642649115074400  0.7770374969092720  0.0653245748470318
  0.6633490848709074  0.6711046187861084  0.0992669121024424
  0.5492250034769377  0.4919678804094238  0.0871459777969791
  0.6076976995581671  0.5784220071528703  0.1487406937312429
 
  0.00000000E+00  0.00000000E+00  0.00000000E+00
  0.00000000E+00  0.00000000E+00  0.00000000E+00
  0.00000000E+00  0.00000000E+00  0.00000000E+00
  0.00000000E+00  0.00000000E+00  0.00000000E+00
  0.00000000E+00  0.00000000E+00  0.00000000E+00
  0.00000000E+00  0.00000000E+00  0.00000000E+00
  0.00000000E+00  0.00000000E+00  0.00000000E+00
  0.00000000E+00  0.00000000E+00  0.00000000E+00
  0.00000000E+00  0.00000000E+00  0.00000000E+00
  0.00000000E+00  0.00000000E+00  0.00000000E+00
  0.00000000E+00  0.00000000E+00  0.00000000E+00
  0.00000000E+00  0.00000000E+00  0.00000000E+00
  0.00000000E+00  0.00000000E+00  0.00000000E+00
  0.00000000E+00  0.00000000E+00  0.00000000E+00
  0.00000000E+00  0.00000000E+00  0.00000000E+00
  0.00000000E+00  0.00000000E+00  0.00000000E+00
  0.00000000E+00  0.00000000E+00  0.00000000E+00
  0.00000000E+00  0.00000000E+00  0.00000000E+00
  0.00000000E+00  0.00000000E+00  0.00000000E+00
  0.00000000E+00  0.00000000E+00  0.00000000E+00
  0.00000000E+00  0.00000000E+00  0.00000000E+00
  0.00000000E+00  0.00000000E+00  0.00000000E+00
  0.00000000E+00  0.00000000E+00  0.00000000E+00
  0.00000000E+00  0.00000000E+00  0.00000000E+00
  0.00000000E+00  0.00000000E+00  0.00000000E+00
  0.00000000E+00  0.00000000E+00  0.00000000E+00
  0.00000000E+00  0.00000000E+00  0.00000000E+00
  0.00000000E+00  0.00000000E+00  0.00000000E+00
  0.00000000E+00  0.00000000E+00  0.00000000E+00
  0.00000000E+00  0.00000000E+00  0.00000000E+00
  0.00000000E+00  0.00000000E+00  0.00000000E+00
  0.00000000E+00  0.00000000E+00  0.00000000E+00
  0.00000000E+00  0.00000000E+00  0.00000000E+00
  0.00000000E+00  0.00000000E+00  0.00000000E+00
  0.00000000E+00  0.00000000E+00  0.00000000E+00
  0.00000000E+00  0.00000000E+00  0.00000000E+00
  0.00000000E+00  0.00000000E+00  0.00000000E+00
  0.00000000E+00  0.00000000E+00  0.00000000E+00
  0.00000000E+00  0.00000000E+00  0.00000000E+00
  0.00000000E+00  0.00000000E+00  0.00000000E+00
  0.00000000E+00  0.00000000E+00  0.00000000E+00
  0.00000000E+00  0.00000000E+00  0.00000000E+00
  0.00000000E+00  0.00000000E+00  0.00000000E+00
  0.00000000E+00  0.00000000E+00  0.00000000E+00
  0.00000000E+00  0.00000000E+00  0.00000000E+00
  0.00000000E+00  0.00000000E+00  0.00000000E+00
  0.00000000E+00  0.00000000E+00  0.00000000E+00
  0.00000000E+00  0.00000000E+00  0.00000000E+00
  0.00000000E+00  0.00000000E+00  0.00000000E+00
  0.00000000E+00  0.00000000E+00  0.00000000E+00
  0.00000000E+00  0.00000000E+00  0.00000000E+00
  0.00000000E+00  0.00000000E+00  0.00000000E+00
  0.00000000E+00  0.00000000E+00  0.00000000E+00
  0.00000000E+00  0.00000000E+00  0.00000000E+00
  0.00000000E+00  0.00000000E+00  0.00000000E+00
  0.00000000E+00  0.00000000E+00  0.00000000E+00
  0.00000000E+00  0.00000000E+00  0.00000000E+00
  0.00000000E+00  0.00000000E+00  0.00000000E+00
  0.00000000E+00  0.00000000E+00  0.00000000E+00
