1h\(2)                                  
   1.00000000000000     
    12.3312997818000003    0.0000000000000000    0.0000000000000000
     0.0001127485000000   12.8291997905000006    0.0000000000000000
     0.0005937186000000    0.0011528207000000   19.9943999824000009
   C    N    Fe   Ni
    52     4     1     1
Direct
  0.0561317535227129  0.0545889153402045  0.0534861193103029
  0.1561259740689255  0.1104280877713950  0.0535355396828152
  0.1561322109152474  0.2211779887751377  0.0532509907741318
  0.0563862799435348  0.2764162435938152  0.0529127347541463
  0.2565606584411755  0.0558991048438055  0.0545524777903571
  0.3568800041206480  0.1117122224879521  0.0561321745964153
  0.3565048184939468  0.2234227938417845  0.0561591349915690
  0.2557482790261170  0.2769229965348460  0.0542413054298677
  0.4569798456507455  0.0562925036146920  0.0577241961738831
  0.5568937097676309  0.1135368396717143  0.0588216232112614
  0.5570786553403236  0.2273364118788109  0.0591914109243830
  0.4549783352702538  0.2832128373397430  0.0581791993117390
  0.6556474826637861  0.0524913089735608  0.0587287484244788
  0.7552618033686920  0.1095961291443450  0.0574640595159270
  0.7567590403279958  0.2220518858326729  0.0575092012230953
  0.6591503031183819  0.2831582054481104  0.0592818166951230
  0.8551582776871081  0.0534652269999264  0.0558488315711921
  0.9557210224175940  0.1091064114869633  0.0542914785155175
  0.9568034358524619  0.2203314197812262  0.0540169277244097
  0.8574988017507708  0.2761976257145858  0.0555846175300617
  0.0571185532755336  0.3878464317722541  0.0523764403135635
  0.1558541597281318  0.4437579524183542  0.0523289481426223
  0.1564031178461389  0.5547718910400780  0.0521613192340981
  0.0571851173886041  0.6103968520626225  0.0519809896881333
  0.2549864933903232  0.3877708656885663  0.0538907606492899
  0.3538289753467281  0.4421277401757109  0.0561762149588379
  0.3562690727829235  0.5555770524226761  0.0563436781645646
  0.2558975309627134  0.6103878913189517  0.0537642508226240
  0.7613987615707974  0.4435005231265552  0.0582407168016740
  0.8596769487349673  0.3873519230250403  0.0554410902791529
  0.9581859532603614  0.4437394962181938  0.0532828682804272
  0.9578606173723697  0.5548287332136195  0.0532099850466038
  0.8577749011264155  0.6098331337554693  0.0556816123456258
  0.0569839679702086  0.7214674333745892  0.0522548631651488
  0.1555915550555644  0.7773904081900392  0.0526342553402753
  0.1560035887167777  0.8885795052968711  0.0531547529740276
  0.0560920575676337  0.9438015284598830  0.0532832594558177
  0.2547382313275841  0.7214363650908004  0.0538127583241674
  0.3530109273567664  0.7777014669815669  0.0560933927701531
  0.3550328238420257  0.8890938337245474  0.0561200320410185
  0.2556238019854385  0.9447022096325255  0.0544048298822196
  0.4515770549365954  0.7217177614034787  0.0589573498033513
  0.5530857822352445  0.8837096514027724  0.0595978043186712
  0.4554297817913932  0.9442138736322092  0.0578832947552517
  0.7569489215114881  0.8815663536169224  0.0579090765348681
  0.6555054554241042  0.9384740141759774  0.0591388716393314
  0.8589933578576224  0.7226406176440688  0.0556659499392752
  0.9576195914248147  0.7773469628580257  0.0535924355031573
  0.9565540499996315  0.8881932370830702  0.0540600428006121
  0.8554018029288799  0.9415116544711618  0.0558863816516043
  0.4566895985478536  0.6092591187762254  0.0593619942398593
  0.7577282692253959  0.5556725135715969  0.0586974694412672
  0.4501168898333971  0.3906347726910407  0.0585879573965641
  0.6647245042024587  0.3903045421268605  0.0603237354510128
  0.5474340071337325  0.7772715026281144  0.0609653822955645
  0.7615123351699546  0.7731154762575492  0.0581963177713397
  0.6439151478529987  0.6586685412050507  0.0614884210302244
  0.5620556455683782  0.4996012483916455  0.0612379035973318
 
  0.00000000E+00  0.00000000E+00  0.00000000E+00
  0.00000000E+00  0.00000000E+00  0.00000000E+00
  0.00000000E+00  0.00000000E+00  0.00000000E+00
  0.00000000E+00  0.00000000E+00  0.00000000E+00
  0.00000000E+00  0.00000000E+00  0.00000000E+00
  0.00000000E+00  0.00000000E+00  0.00000000E+00
  0.00000000E+00  0.00000000E+00  0.00000000E+00
  0.00000000E+00  0.00000000E+00  0.00000000E+00
  0.00000000E+00  0.00000000E+00  0.00000000E+00
  0.00000000E+00  0.00000000E+00  0.00000000E+00
  0.00000000E+00  0.00000000E+00  0.00000000E+00
  0.00000000E+00  0.00000000E+00  0.00000000E+00
  0.00000000E+00  0.00000000E+00  0.00000000E+00
  0.00000000E+00  0.00000000E+00  0.00000000E+00
  0.00000000E+00  0.00000000E+00  0.00000000E+00
  0.00000000E+00  0.00000000E+00  0.00000000E+00
  0.00000000E+00  0.00000000E+00  0.00000000E+00
  0.00000000E+00  0.00000000E+00  0.00000000E+00
  0.00000000E+00  0.00000000E+00  0.00000000E+00
  0.00000000E+00  0.00000000E+00  0.00000000E+00
  0.00000000E+00  0.00000000E+00  0.00000000E+00
  0.00000000E+00  0.00000000E+00  0.00000000E+00
  0.00000000E+00  0.00000000E+00  0.00000000E+00
  0.00000000E+00  0.00000000E+00  0.00000000E+00
  0.00000000E+00  0.00000000E+00  0.00000000E+00
  0.00000000E+00  0.00000000E+00  0.00000000E+00
  0.00000000E+00  0.00000000E+00  0.00000000E+00
  0.00000000E+00  0.00000000E+00  0.00000000E+00
  0.00000000E+00  0.00000000E+00  0.00000000E+00
  0.00000000E+00  0.00000000E+00  0.00000000E+00
  0.00000000E+00  0.00000000E+00  0.00000000E+00
  0.00000000E+00  0.00000000E+00  0.00000000E+00
  0.00000000E+00  0.00000000E+00  0.00000000E+00
  0.00000000E+00  0.00000000E+00  0.00000000E+00
  0.00000000E+00  0.00000000E+00  0.00000000E+00
  0.00000000E+00  0.00000000E+00  0.00000000E+00
  0.00000000E+00  0.00000000E+00  0.00000000E+00
  0.00000000E+00  0.00000000E+00  0.00000000E+00
  0.00000000E+00  0.00000000E+00  0.00000000E+00
  0.00000000E+00  0.00000000E+00  0.00000000E+00
  0.00000000E+00  0.00000000E+00  0.00000000E+00
  0.00000000E+00  0.00000000E+00  0.00000000E+00
  0.00000000E+00  0.00000000E+00  0.00000000E+00
  0.00000000E+00  0.00000000E+00  0.00000000E+00
  0.00000000E+00  0.00000000E+00  0.00000000E+00
  0.00000000E+00  0.00000000E+00  0.00000000E+00
  0.00000000E+00  0.00000000E+00  0.00000000E+00
  0.00000000E+00  0.00000000E+00  0.00000000E+00
  0.00000000E+00  0.00000000E+00  0.00000000E+00
  0.00000000E+00  0.00000000E+00  0.00000000E+00
  0.00000000E+00  0.00000000E+00  0.00000000E+00
  0.00000000E+00  0.00000000E+00  0.00000000E+00
  0.00000000E+00  0.00000000E+00  0.00000000E+00
  0.00000000E+00  0.00000000E+00  0.00000000E+00
  0.00000000E+00  0.00000000E+00  0.00000000E+00
  0.00000000E+00  0.00000000E+00  0.00000000E+00
  0.00000000E+00  0.00000000E+00  0.00000000E+00
  0.00000000E+00  0.00000000E+00  0.00000000E+00
