POSCAR                                  
   1.00000000000000     
    12.3312997818000003    0.0000000000000000    0.0000000000000000
     0.0001127485000000   12.8291997905000006    0.0000000000000000
     0.0005937186000000    0.0011528207000000   19.9943999824000009
   C    N    Fe   Ni
    52     4     1     1
Direct
  0.0559938647982421  0.0543318609845122  0.0557949180803788
  0.1564579095791076  0.1104556034122247  0.0558233951977882
  0.1571324882520828  0.2213105723242876  0.0558052064308815
  0.0569638629132542  0.2759825228714877  0.0557701406952672
  0.2570601356803967  0.0560593268166599  0.0558359438706659
  0.3574258589829067  0.1124323715607263  0.0557856672288030
  0.3581584359326258  0.2243275593266663  0.0557436264099893
  0.2572037986246238  0.2779870509409460  0.0557879455899209
  0.4574127868793109  0.0564097179069860  0.0557492071400519
  0.5582462538857001  0.1127380543088383  0.0556753013162560
  0.5594364153367504  0.2258142225831700  0.0556350669393565
  0.4586141063382118  0.2830012973746411  0.0556652447565326
  0.6567823453720790  0.0525088175657178  0.0556548397334311
  0.7558758214052604  0.1095093703621653  0.0556703127687820
  0.7572158680669137  0.2219214566523641  0.0556579214662307
  0.6599108340181363  0.2821749281543292  0.0556149586440217
  0.8551311932401656  0.0524244196793636  0.0556939967657948
  0.9557252657942816  0.1084702877302961  0.0557349738328401
  0.9570089303454167  0.2199979651382838  0.0557262820779911
  0.8578660153825773  0.2761312798738054  0.0556777573385489
  0.0573264130545177  0.3872375013380080  0.0557705065525368
  0.1560488821832287  0.4438629417516936  0.0558047700882763
  0.1556043360319423  0.5546419812624765  0.0558178337209183
  0.0563414217499949  0.6103074752500327  0.0557929133496456
  0.2557465355383962  0.3891004372584463  0.0557872889190128
  0.3544790753406542  0.4459612379632909  0.0557258661459464
  0.3541491311775231  0.5578261373524283  0.0557282991815849
  0.2544128906116663  0.6117376251829592  0.0558082061944980
  0.7618289478682527  0.4446706315643741  0.0556093864179119
  0.8597465795871031  0.3871722832708723  0.0556632678461628
  0.9585241813203755  0.4428854119326625  0.0557132821317283
  0.9573155454264221  0.5539658763809494  0.0557144363442832
  0.8568429308801407  0.6070090519181942  0.0556361910078611
  0.0554405794660817  0.7209596033618404  0.0558026269642705
  0.1541900039795577  0.7780226400137132  0.0558500422267032
  0.1556019245722078  0.8887722622336905  0.0558582846394153
  0.0552375484731473  0.9432955621980543  0.0558094031655794
  0.2532154150234983  0.7225731635391333  0.0558290842301433
  0.3524866507730511  0.7771116852754458  0.0557879057971492
  0.3555363886048055  0.8888176436462312  0.0558221926466976
  0.2560336700379316  0.9445622013803912  0.0558588621264410
  0.4502522398635873  0.7184351532915109  0.0556800478155782
  0.5540765741416179  0.8852074121028546  0.0556569662407806
  0.4559194731982417  0.9445942912436369  0.0557574029661323
  0.7552658316389594  0.8804478113690356  0.0556377854684442
  0.6557637205626975  0.9392131691796073  0.0556342456268154
  0.8562937243349423  0.7191128775020340  0.0556505722702310
  0.9554027520831710  0.7752915202985308  0.0557323736019891
  0.9556066757057451  0.8867538951805491  0.0557452679178228
  0.8544457944953242  0.9401000026593426  0.0556849545806908
  0.4539080971292769  0.3932644180476413  0.0556487838622529
  0.5489021618767845  0.7751076501775722  0.0556133848717045
  0.7595340575660616  0.5524251565571178  0.0555763838866185
  0.7576266296813532  0.7706501379232359  0.0556134778151870
  0.4517259334280946  0.6092661354214476  0.0556459749312969
  0.6649079008261146  0.3914997264906847  0.0555987530411573
  0.6430421926694242  0.6677604165018409  0.0555724538237047
  0.5629450232700902  0.4950181524109592  0.0556078052992928
 
  0.00000000E+00  0.00000000E+00  0.00000000E+00
  0.00000000E+00  0.00000000E+00  0.00000000E+00
  0.00000000E+00  0.00000000E+00  0.00000000E+00
  0.00000000E+00  0.00000000E+00  0.00000000E+00
  0.00000000E+00  0.00000000E+00  0.00000000E+00
  0.00000000E+00  0.00000000E+00  0.00000000E+00
  0.00000000E+00  0.00000000E+00  0.00000000E+00
  0.00000000E+00  0.00000000E+00  0.00000000E+00
  0.00000000E+00  0.00000000E+00  0.00000000E+00
  0.00000000E+00  0.00000000E+00  0.00000000E+00
  0.00000000E+00  0.00000000E+00  0.00000000E+00
  0.00000000E+00  0.00000000E+00  0.00000000E+00
  0.00000000E+00  0.00000000E+00  0.00000000E+00
  0.00000000E+00  0.00000000E+00  0.00000000E+00
  0.00000000E+00  0.00000000E+00  0.00000000E+00
  0.00000000E+00  0.00000000E+00  0.00000000E+00
  0.00000000E+00  0.00000000E+00  0.00000000E+00
  0.00000000E+00  0.00000000E+00  0.00000000E+00
  0.00000000E+00  0.00000000E+00  0.00000000E+00
  0.00000000E+00  0.00000000E+00  0.00000000E+00
  0.00000000E+00  0.00000000E+00  0.00000000E+00
  0.00000000E+00  0.00000000E+00  0.00000000E+00
  0.00000000E+00  0.00000000E+00  0.00000000E+00
  0.00000000E+00  0.00000000E+00  0.00000000E+00
  0.00000000E+00  0.00000000E+00  0.00000000E+00
  0.00000000E+00  0.00000000E+00  0.00000000E+00
  0.00000000E+00  0.00000000E+00  0.00000000E+00
  0.00000000E+00  0.00000000E+00  0.00000000E+00
  0.00000000E+00  0.00000000E+00  0.00000000E+00
  0.00000000E+00  0.00000000E+00  0.00000000E+00
  0.00000000E+00  0.00000000E+00  0.00000000E+00
  0.00000000E+00  0.00000000E+00  0.00000000E+00
  0.00000000E+00  0.00000000E+00  0.00000000E+00
  0.00000000E+00  0.00000000E+00  0.00000000E+00
  0.00000000E+00  0.00000000E+00  0.00000000E+00
  0.00000000E+00  0.00000000E+00  0.00000000E+00
  0.00000000E+00  0.00000000E+00  0.00000000E+00
  0.00000000E+00  0.00000000E+00  0.00000000E+00
  0.00000000E+00  0.00000000E+00  0.00000000E+00
  0.00000000E+00  0.00000000E+00  0.00000000E+00
  0.00000000E+00  0.00000000E+00  0.00000000E+00
  0.00000000E+00  0.00000000E+00  0.00000000E+00
  0.00000000E+00  0.00000000E+00  0.00000000E+00
  0.00000000E+00  0.00000000E+00  0.00000000E+00
  0.00000000E+00  0.00000000E+00  0.00000000E+00
  0.00000000E+00  0.00000000E+00  0.00000000E+00
  0.00000000E+00  0.00000000E+00  0.00000000E+00
  0.00000000E+00  0.00000000E+00  0.00000000E+00
  0.00000000E+00  0.00000000E+00  0.00000000E+00
  0.00000000E+00  0.00000000E+00  0.00000000E+00
  0.00000000E+00  0.00000000E+00  0.00000000E+00
  0.00000000E+00  0.00000000E+00  0.00000000E+00
  0.00000000E+00  0.00000000E+00  0.00000000E+00
  0.00000000E+00  0.00000000E+00  0.00000000E+00
  0.00000000E+00  0.00000000E+00  0.00000000E+00
  0.00000000E+00  0.00000000E+00  0.00000000E+00
  0.00000000E+00  0.00000000E+00  0.00000000E+00
  0.00000000E+00  0.00000000E+00  0.00000000E+00
