134                                     
   1.00000000000000     
    12.3312997818000003    0.0000000000000000    0.0000000000000000
     0.0001127485000000   12.8291997905000006    0.0000000000000000
     0.0005937186000000    0.0011528207000000   19.9943999824000009
   C    N    Fe   Ni   O    H 
    53     3     1     1     1     1
Direct
  0.0561700929259865  0.0551734451204738  0.0506465061462847
  0.1563771718958953  0.1106281324380458  0.0504082842665416
  0.1563090524469553  0.2213161189333285  0.0493317405441657
  0.0561536503858201  0.2765854755967690  0.0488409817529355
  0.2568481098194967  0.0557739878660352  0.0520390978564328
  0.3572201152123284  0.1112048582561521  0.0555948677075905
  0.3570522077341476  0.2231854050667925  0.0550879392264787
  0.2563002830445130  0.2766939670001215  0.0502136811582237
  0.4567245659661578  0.0548917756250573  0.0597569565181115
  0.5563292711169948  0.1115544186718891  0.0639326720560246
  0.5564094466112838  0.2243519083270110  0.0656336313024798
  0.4558937836720602  0.2818603713677233  0.0600698369709197
  0.6558963887620779  0.0516254908787237  0.0642312248083259
  0.7554400962057866  0.1091345698386624  0.0611582193370502
  0.7563271653840704  0.2215575609249492  0.0622662662474691
  0.6576644295889706  0.2802993751543771  0.0688934230254423
  0.8552594852292298  0.0534310384351730  0.0564987038998437
  0.9555244557945095  0.1096940931702168  0.0529801735601160
  0.9560133611013192  0.2211815023387434  0.0524241335670180
  0.8563251685555995  0.2772823144410488  0.0566680431356704
  0.0570356047504028  0.3878499613540546  0.0464362149220881
  0.1564965690804453  0.4434860099873635  0.0447859769110052
  0.1570104698899391  0.5546311588372479  0.0434150007667290
  0.0578063479688887  0.6104694133081251  0.0434136281521547
  0.2561830498745305  0.3875511537705307  0.0477951475291411
  0.3554272927539099  0.4421275938630643  0.0513297231394082
  0.3568872916793287  0.5556009323072768  0.0514062920436325
  0.2564082538420837  0.6102187734491840  0.0457450363703444
  0.7596386178291683  0.4471167437112162  0.0648111919985297
  0.8580360932782582  0.3889087781552984  0.0553577786078633
  0.9574249544172873  0.4437873587619081  0.0483057049897631
  0.9584680897469194  0.5550738664768528  0.0463971742913907
  0.8595695882896569  0.6112476522648921  0.0517414319147163
  0.0576658591627077  0.7217185573498319  0.0443438790961464
  0.1564361750135539  0.7775639069119005  0.0454331162641628
  0.1564088078059882  0.8887440304667136  0.0478978539875396
  0.0564306481106246  0.9443174477773838  0.0492578794559392
  0.2558235000660249  0.7212934120233828  0.0468978233995504
  0.3542183599799659  0.7771845269054849  0.0529203048126428
  0.3554433886837793  0.8884505649511018  0.0542924660264131
  0.2561353307920231  0.9445450987299425  0.0508738794373289
  0.4523635755024297  0.7207772739708647  0.0614979414263828
  0.5532579323963891  0.8826602510580394  0.0657634989837357
  0.4555328264997152  0.9430703640630183  0.0597596257890390
  0.7572335522059342  0.8816492333941790  0.0605726336151577
  0.6558311122005419  0.9378309487523583  0.0649663706527025
  0.8600872746452382  0.7234284481469637  0.0516270511526839
  0.9583815360766965  0.7781061604271385  0.0476489784451143
  0.9569469307270148  0.8887076695071292  0.0504473750278716
  0.8556707748965591  0.9415638930916559  0.0556107617916166
  0.4554780932699847  0.6090331514595351  0.0615390749389661
  0.6624621255556842  0.3900780390158915  0.0757091900184612
  0.7608213860369436  0.5593851187576051  0.0626637209718677
  0.4525154863364651  0.3904779824111256  0.0583584711927725
  0.5478641044880077  0.7764043576646088  0.0704475517753250
  0.7623691788810217  0.7731115884279118  0.0595327830255424
  0.6551761443993250  0.6654610168516734  0.0851524558871969
  0.5560317480790304  0.4902567706057579  0.0835139521815374
  0.6147515453038749  0.5770258528261042  0.1568371693154363
  0.5492620370304456  0.6052391287543984  0.1776475166049452
 
  0.00000000E+00  0.00000000E+00  0.00000000E+00
  0.00000000E+00  0.00000000E+00  0.00000000E+00
  0.00000000E+00  0.00000000E+00  0.00000000E+00
  0.00000000E+00  0.00000000E+00  0.00000000E+00
  0.00000000E+00  0.00000000E+00  0.00000000E+00
  0.00000000E+00  0.00000000E+00  0.00000000E+00
  0.00000000E+00  0.00000000E+00  0.00000000E+00
  0.00000000E+00  0.00000000E+00  0.00000000E+00
  0.00000000E+00  0.00000000E+00  0.00000000E+00
  0.00000000E+00  0.00000000E+00  0.00000000E+00
  0.00000000E+00  0.00000000E+00  0.00000000E+00
  0.00000000E+00  0.00000000E+00  0.00000000E+00
  0.00000000E+00  0.00000000E+00  0.00000000E+00
  0.00000000E+00  0.00000000E+00  0.00000000E+00
  0.00000000E+00  0.00000000E+00  0.00000000E+00
  0.00000000E+00  0.00000000E+00  0.00000000E+00
  0.00000000E+00  0.00000000E+00  0.00000000E+00
  0.00000000E+00  0.00000000E+00  0.00000000E+00
  0.00000000E+00  0.00000000E+00  0.00000000E+00
  0.00000000E+00  0.00000000E+00  0.00000000E+00
  0.00000000E+00  0.00000000E+00  0.00000000E+00
  0.00000000E+00  0.00000000E+00  0.00000000E+00
  0.00000000E+00  0.00000000E+00  0.00000000E+00
  0.00000000E+00  0.00000000E+00  0.00000000E+00
  0.00000000E+00  0.00000000E+00  0.00000000E+00
  0.00000000E+00  0.00000000E+00  0.00000000E+00
  0.00000000E+00  0.00000000E+00  0.00000000E+00
  0.00000000E+00  0.00000000E+00  0.00000000E+00
  0.00000000E+00  0.00000000E+00  0.00000000E+00
  0.00000000E+00  0.00000000E+00  0.00000000E+00
  0.00000000E+00  0.00000000E+00  0.00000000E+00
  0.00000000E+00  0.00000000E+00  0.00000000E+00
  0.00000000E+00  0.00000000E+00  0.00000000E+00
  0.00000000E+00  0.00000000E+00  0.00000000E+00
  0.00000000E+00  0.00000000E+00  0.00000000E+00
  0.00000000E+00  0.00000000E+00  0.00000000E+00
  0.00000000E+00  0.00000000E+00  0.00000000E+00
  0.00000000E+00  0.00000000E+00  0.00000000E+00
  0.00000000E+00  0.00000000E+00  0.00000000E+00
  0.00000000E+00  0.00000000E+00  0.00000000E+00
  0.00000000E+00  0.00000000E+00  0.00000000E+00
  0.00000000E+00  0.00000000E+00  0.00000000E+00
  0.00000000E+00  0.00000000E+00  0.00000000E+00
  0.00000000E+00  0.00000000E+00  0.00000000E+00
  0.00000000E+00  0.00000000E+00  0.00000000E+00
  0.00000000E+00  0.00000000E+00  0.00000000E+00
  0.00000000E+00  0.00000000E+00  0.00000000E+00
  0.00000000E+00  0.00000000E+00  0.00000000E+00
  0.00000000E+00  0.00000000E+00  0.00000000E+00
  0.00000000E+00  0.00000000E+00  0.00000000E+00
  0.00000000E+00  0.00000000E+00  0.00000000E+00
  0.00000000E+00  0.00000000E+00  0.00000000E+00
  0.00000000E+00  0.00000000E+00  0.00000000E+00
  0.00000000E+00  0.00000000E+00  0.00000000E+00
  0.00000000E+00  0.00000000E+00  0.00000000E+00
  0.00000000E+00  0.00000000E+00  0.00000000E+00
  0.00000000E+00  0.00000000E+00  0.00000000E+00
  0.00000000E+00  0.00000000E+00  0.00000000E+00
  0.00000000E+00  0.00000000E+00  0.00000000E+00
  0.00000000E+00  0.00000000E+00  0.00000000E+00
