CONTCAR\(2)\(3)                         
   1.00000000000000     
    12.3312997818000003    0.0000000000000000    0.0000000000000000
     0.0001127485000000   12.8291997905000006    0.0000000000000000
     0.0005937186000000    0.0011528207000000   19.9943999824000009
   C    N    Fe   Ni   H 
    54     2     1     1     1
Direct
  0.0560936147287345  0.0546704861588489  0.0555165170770072
  0.1561168337516828  0.1104748733222410  0.0547268298164595
  0.1566004074863943  0.2213626863534067  0.0540299354155582
  0.0566384418641948  0.2763958140236392  0.0534038423279119
  0.2565889641819877  0.0558927977892509  0.0547491032044692
  0.3569172047318874  0.1121985301746072  0.0554815120141740
  0.3574303868922791  0.2238106458026671  0.0557978899089616
  0.2564424998435474  0.2773841011870096  0.0543477309493607
  0.4566770806805996  0.0563642659694643  0.0559381519297458
  0.5576049155948064  0.1125542037753558  0.0575406888332956
  0.5579236772174156  0.2247098581195373  0.0586261018288653
  0.4576114170992534  0.2820508549987656  0.0573498924244701
  0.6570246646175683  0.0529459157395268  0.0578823862812143
  0.7563980071263009  0.1096693268971940  0.0575274038433215
  0.7577855835357359  0.2215022453801777  0.0570981870636294
  0.6597237474904778  0.2810373007267448  0.0592982449502735
  0.8553772072784174  0.0530346043636907  0.0570259942762003
  0.9558302552812019  0.1089860055429850  0.0556949771798221
  0.9570658140086761  0.2201940284295363  0.0543735030936783
  0.8577778313359485  0.2761678775739028  0.0547682700156024
  0.0566451741616601  0.3878221380779416  0.0526457760438906
  0.1552903874949077  0.4436884999441320  0.0526655201815849
  0.1552866422867107  0.5552248342495043  0.0526645370445249
  0.0556187871109614  0.6104578971575246  0.0533800552602232
  0.2547987281834121  0.3881472423105868  0.0535085861704991
  0.3531435952013817  0.4442293767586490  0.0544417446930440
  0.3545402106567860  0.5566130069301464  0.0537704254444968
  0.2544421672310779  0.6116983774825815  0.0528645489960342
  0.7599335181967840  0.4431754698550924  0.0566061256118384
  0.8588951460724729  0.3873702257571310  0.0535155216737581
  0.9573404024763652  0.4437339196807069  0.0526257957658830
  0.9563638171869442  0.5547217769235311  0.0535045648856719
  0.8554888021601300  0.6093662898680600  0.0556236943369335
  0.0551386849738371  0.7216164612851952  0.0545189615149125
  0.1540648542227946  0.7777912623663281  0.0541863881792454
  0.1553598611206005  0.8888991757335002  0.0547948076322361
  0.0554982258122430  0.9438412220043898  0.0559565281209894
  0.2535905482457187  0.7224246908606501  0.0532543885349508
  0.3527275647862507  0.7776049332420931  0.0531251649301429
  0.3553051401543934  0.8889581331663245  0.0536271315203619
  0.2556285195387215  0.9447521817774995  0.0542821310243073
  0.4521004370932606  0.7202894262983239  0.0532835643173614
  0.5547920857026339  0.8866822803878228  0.0552116577098799
  0.4554778776559705  0.9448934147526969  0.0545801357193255
  0.7557054030025645  0.8816095519956062  0.0593447213291708
  0.6567235376624493  0.9407882312073856  0.0577879616847711
  0.8557766111914329  0.7220853637331285  0.0575883968077264
  0.9553703785464006  0.7770907061443227  0.0562268259954880
  0.9558089605836019  0.8878907867928938  0.0570678851522486
  0.8546878635559965  0.9407320133542034  0.0580623445517296
  0.4532511481798993  0.3931464515905929  0.0569897935601702
  0.7558739048201832  0.5555871698951403  0.0572638325046676
  0.5497335261488786  0.7783041943825466  0.0542793902711610
  0.4553669693858881  0.6078579289320494  0.0548921588213717
  0.6642727701532125  0.3874156551305469  0.0611543740958014
  0.7572028430110691  0.7713922466976013  0.0609338229575767
  0.6369047236619167  0.6625492343091984  0.0663298268185490
  0.5637116664301188  0.4935851729271382  0.0645796010602918
  0.6281698481932402  0.5725064517086622  0.1204341526431323
 
  0.00000000E+00  0.00000000E+00  0.00000000E+00
  0.00000000E+00  0.00000000E+00  0.00000000E+00
  0.00000000E+00  0.00000000E+00  0.00000000E+00
  0.00000000E+00  0.00000000E+00  0.00000000E+00
  0.00000000E+00  0.00000000E+00  0.00000000E+00
  0.00000000E+00  0.00000000E+00  0.00000000E+00
  0.00000000E+00  0.00000000E+00  0.00000000E+00
  0.00000000E+00  0.00000000E+00  0.00000000E+00
  0.00000000E+00  0.00000000E+00  0.00000000E+00
  0.00000000E+00  0.00000000E+00  0.00000000E+00
  0.00000000E+00  0.00000000E+00  0.00000000E+00
  0.00000000E+00  0.00000000E+00  0.00000000E+00
  0.00000000E+00  0.00000000E+00  0.00000000E+00
  0.00000000E+00  0.00000000E+00  0.00000000E+00
  0.00000000E+00  0.00000000E+00  0.00000000E+00
  0.00000000E+00  0.00000000E+00  0.00000000E+00
  0.00000000E+00  0.00000000E+00  0.00000000E+00
  0.00000000E+00  0.00000000E+00  0.00000000E+00
  0.00000000E+00  0.00000000E+00  0.00000000E+00
  0.00000000E+00  0.00000000E+00  0.00000000E+00
  0.00000000E+00  0.00000000E+00  0.00000000E+00
  0.00000000E+00  0.00000000E+00  0.00000000E+00
  0.00000000E+00  0.00000000E+00  0.00000000E+00
  0.00000000E+00  0.00000000E+00  0.00000000E+00
  0.00000000E+00  0.00000000E+00  0.00000000E+00
  0.00000000E+00  0.00000000E+00  0.00000000E+00
  0.00000000E+00  0.00000000E+00  0.00000000E+00
  0.00000000E+00  0.00000000E+00  0.00000000E+00
  0.00000000E+00  0.00000000E+00  0.00000000E+00
  0.00000000E+00  0.00000000E+00  0.00000000E+00
  0.00000000E+00  0.00000000E+00  0.00000000E+00
  0.00000000E+00  0.00000000E+00  0.00000000E+00
  0.00000000E+00  0.00000000E+00  0.00000000E+00
  0.00000000E+00  0.00000000E+00  0.00000000E+00
  0.00000000E+00  0.00000000E+00  0.00000000E+00
  0.00000000E+00  0.00000000E+00  0.00000000E+00
  0.00000000E+00  0.00000000E+00  0.00000000E+00
  0.00000000E+00  0.00000000E+00  0.00000000E+00
  0.00000000E+00  0.00000000E+00  0.00000000E+00
  0.00000000E+00  0.00000000E+00  0.00000000E+00
  0.00000000E+00  0.00000000E+00  0.00000000E+00
  0.00000000E+00  0.00000000E+00  0.00000000E+00
  0.00000000E+00  0.00000000E+00  0.00000000E+00
  0.00000000E+00  0.00000000E+00  0.00000000E+00
  0.00000000E+00  0.00000000E+00  0.00000000E+00
  0.00000000E+00  0.00000000E+00  0.00000000E+00
  0.00000000E+00  0.00000000E+00  0.00000000E+00
  0.00000000E+00  0.00000000E+00  0.00000000E+00
  0.00000000E+00  0.00000000E+00  0.00000000E+00
  0.00000000E+00  0.00000000E+00  0.00000000E+00
  0.00000000E+00  0.00000000E+00  0.00000000E+00
  0.00000000E+00  0.00000000E+00  0.00000000E+00
  0.00000000E+00  0.00000000E+00  0.00000000E+00
  0.00000000E+00  0.00000000E+00  0.00000000E+00
  0.00000000E+00  0.00000000E+00  0.00000000E+00
  0.00000000E+00  0.00000000E+00  0.00000000E+00
  0.00000000E+00  0.00000000E+00  0.00000000E+00
  0.00000000E+00  0.00000000E+00  0.00000000E+00
  0.00000000E+00  0.00000000E+00  0.00000000E+00
