2356                                    
   1.00000000000000     
    12.3312997818000003    0.0000000000000000    0.0000000000000000
     0.0001127485000000   12.8291997905000006    0.0000000000000000
     0.0005937186000000    0.0011528207000000   19.9943999824000009
   C    N    Fe   Ni   O    H 
    52     4     1     1     1     1
Direct
  0.0559582922382111  0.0544021368475122  0.0519179214701980
  0.1566965873956467  0.1103793479345579  0.0523999713901223
  0.1573203134016877  0.2212979110223702  0.0512453540866845
  0.0569263467383726  0.2757498026085609  0.0502998029105127
  0.2570933564663323  0.0559698170476726  0.0545123289789217
  0.3576088755993331  0.1119312383697996  0.0571702475212588
  0.3581624799896793  0.2239624588716524  0.0560845477884421
  0.2574314727109747  0.2779090520356365  0.0520712267163888
  0.4575292224675966  0.0558619950752951  0.0606486918648705
  0.5576435623554361  0.1127183910428347  0.0625265265694673
  0.5589274997261329  0.2262143378735702  0.0629881858403420
  0.4582536905064012  0.2827092259279581  0.0594126428440443
  0.6551839776578221  0.0521888309370434  0.0618483225054084
  0.7550666095929048  0.1091184170319110  0.0588634446159272
  0.7565671619976402  0.2219028046673132  0.0594547373450618
  0.6597214191854408  0.2827178649770066  0.0639819695706721
  0.8549896879668454  0.0529832196159477  0.0552124617068405
  0.9555635424606896  0.1088443196310875  0.0531032129282552
  0.9566134792698717  0.2202024818091872  0.0525867926645692
  0.8572713475443343  0.2760903982256562  0.0550676373787432
  0.0571933655437271  0.3866355059422454  0.0484217255991581
  0.1562378560846612  0.4434667953779465  0.0478581934431100
  0.1557863971027222  0.5545733105830466  0.0472033115666896
  0.0571535785621599  0.6100414626791079  0.0464320505501633
  0.2559924517167412  0.3892608665889976  0.0501997915110370
  0.3549101067462513  0.4467271465143137  0.0532779402832061
  0.3535593914496800  0.5589218067314272  0.0548271854411468
  0.2545234609783291  0.6118967024340132  0.0501127009245927
  0.7602868420059675  0.4453877023789475  0.0579415823704663
  0.8585800430693208  0.3872796732443449  0.0529582930199667
  0.9581214356409702  0.4418577850291309  0.0487430710707883
  0.9583017551157642  0.5527623120168027  0.0472932728201654
  0.8592154891815441  0.6056643791547991  0.0491563564897589
  0.0566389099801686  0.7211462245839987  0.0472200712576445
  0.1553810483913992  0.7780499585894237  0.0493103585098548
  0.1557437399344033  0.8889239258984430  0.0509980630725700
  0.0553908846522644  0.9434494012584880  0.0507917610977416
  0.2542207048383339  0.7227073384530660  0.0514034023359647
  0.3534165126323424  0.7774122897794672  0.0562732885041043
  0.3552450661313351  0.8887520560906415  0.0573985951781211
  0.2560939470181571  0.9445478947038198  0.0541528065998704
  0.4509271680350145  0.7193332666501173  0.0628536669454280
  0.5529090018088331  0.8827035720545562  0.0649406235231724
  0.4559978711079740  0.9431965080549659  0.0614624258208733
  0.7546504335278045  0.8820994784605636  0.0573666797591721
  0.6539290847355045  0.9385440154082662  0.0623850334603873
  0.8580733138454214  0.7181214316867570  0.0490613905101100
  0.9569355872147560  0.7754337063764128  0.0481561317211692
  0.9553141739624351  0.8868078543039042  0.0504893023856286
  0.8544312622879188  0.9409489586628849  0.0539494042240033
  0.4541121271109452  0.3933701293428790  0.0587790465381418
  0.7584204536426459  0.7710313971706835  0.0549149173457471
  0.4503054902135043  0.6111500959864579  0.0635354676156502
  0.6644027838293145  0.3922089090236086  0.0672940449093020
  0.7616390766999133  0.5534033940105323  0.0541560098882154
  0.5477670180660120  0.7729485718048931  0.0689486377270355
  0.6557330846528570  0.6682612797571428  0.0794164900229613
  0.5559129175575004  0.4909112715572858  0.0825695327756742
  0.6202008486532373  0.5823653534668607  0.1545387364196392
  0.5590663240008354  0.6081621606361701  0.1806126160648393
 
  0.00000000E+00  0.00000000E+00  0.00000000E+00
  0.00000000E+00  0.00000000E+00  0.00000000E+00
  0.00000000E+00  0.00000000E+00  0.00000000E+00
  0.00000000E+00  0.00000000E+00  0.00000000E+00
  0.00000000E+00  0.00000000E+00  0.00000000E+00
  0.00000000E+00  0.00000000E+00  0.00000000E+00
  0.00000000E+00  0.00000000E+00  0.00000000E+00
  0.00000000E+00  0.00000000E+00  0.00000000E+00
  0.00000000E+00  0.00000000E+00  0.00000000E+00
  0.00000000E+00  0.00000000E+00  0.00000000E+00
  0.00000000E+00  0.00000000E+00  0.00000000E+00
  0.00000000E+00  0.00000000E+00  0.00000000E+00
  0.00000000E+00  0.00000000E+00  0.00000000E+00
  0.00000000E+00  0.00000000E+00  0.00000000E+00
  0.00000000E+00  0.00000000E+00  0.00000000E+00
  0.00000000E+00  0.00000000E+00  0.00000000E+00
  0.00000000E+00  0.00000000E+00  0.00000000E+00
  0.00000000E+00  0.00000000E+00  0.00000000E+00
  0.00000000E+00  0.00000000E+00  0.00000000E+00
  0.00000000E+00  0.00000000E+00  0.00000000E+00
  0.00000000E+00  0.00000000E+00  0.00000000E+00
  0.00000000E+00  0.00000000E+00  0.00000000E+00
  0.00000000E+00  0.00000000E+00  0.00000000E+00
  0.00000000E+00  0.00000000E+00  0.00000000E+00
  0.00000000E+00  0.00000000E+00  0.00000000E+00
  0.00000000E+00  0.00000000E+00  0.00000000E+00
  0.00000000E+00  0.00000000E+00  0.00000000E+00
  0.00000000E+00  0.00000000E+00  0.00000000E+00
  0.00000000E+00  0.00000000E+00  0.00000000E+00
  0.00000000E+00  0.00000000E+00  0.00000000E+00
  0.00000000E+00  0.00000000E+00  0.00000000E+00
  0.00000000E+00  0.00000000E+00  0.00000000E+00
  0.00000000E+00  0.00000000E+00  0.00000000E+00
  0.00000000E+00  0.00000000E+00  0.00000000E+00
  0.00000000E+00  0.00000000E+00  0.00000000E+00
  0.00000000E+00  0.00000000E+00  0.00000000E+00
  0.00000000E+00  0.00000000E+00  0.00000000E+00
  0.00000000E+00  0.00000000E+00  0.00000000E+00
  0.00000000E+00  0.00000000E+00  0.00000000E+00
  0.00000000E+00  0.00000000E+00  0.00000000E+00
  0.00000000E+00  0.00000000E+00  0.00000000E+00
  0.00000000E+00  0.00000000E+00  0.00000000E+00
  0.00000000E+00  0.00000000E+00  0.00000000E+00
  0.00000000E+00  0.00000000E+00  0.00000000E+00
  0.00000000E+00  0.00000000E+00  0.00000000E+00
  0.00000000E+00  0.00000000E+00  0.00000000E+00
  0.00000000E+00  0.00000000E+00  0.00000000E+00
  0.00000000E+00  0.00000000E+00  0.00000000E+00
  0.00000000E+00  0.00000000E+00  0.00000000E+00
  0.00000000E+00  0.00000000E+00  0.00000000E+00
  0.00000000E+00  0.00000000E+00  0.00000000E+00
  0.00000000E+00  0.00000000E+00  0.00000000E+00
  0.00000000E+00  0.00000000E+00  0.00000000E+00
  0.00000000E+00  0.00000000E+00  0.00000000E+00
  0.00000000E+00  0.00000000E+00  0.00000000E+00
  0.00000000E+00  0.00000000E+00  0.00000000E+00
  0.00000000E+00  0.00000000E+00  0.00000000E+00
  0.00000000E+00  0.00000000E+00  0.00000000E+00
  0.00000000E+00  0.00000000E+00  0.00000000E+00
  0.00000000E+00  0.00000000E+00  0.00000000E+00
