CONTCAR\(6)                             
   1.00000000000000     
    12.3312997818000003    0.0000000000000000    0.0000000000000000
     0.0001127485000000   12.8291997905000006    0.0000000000000000
     0.0005937186000000    0.0011528207000000   19.9943999824000009
   C    N    Fe   Ni   O 
    51     5     1     1     2
Direct
  0.0551759023472772  0.0536449804037220  0.0493149083383923
  0.1556145799341585  0.1093906788654039  0.0492692525561898
  0.1555549284719495  0.2200940306351183  0.0482140255986209
  0.0554714812927799  0.2754860399579788  0.0477916758179470
  0.2564398000795078  0.0549803249147409  0.0509753925645194
  0.3568221810481511  0.1110219872686501  0.0533305122181464
  0.3565067880869681  0.2230683662722705  0.0525184956347595
  0.2553510987299655  0.2760308897458381  0.0489404044673327
  0.4569341208607032  0.0553639887768265  0.0566017453852287
  0.5567151169021298  0.1130247696470651  0.0589010318363111
  0.5572434155951155  0.2275771874147152  0.0596762774718062
  0.4551447370906248  0.2833260924755923  0.0557117052836281
  0.6550274134660454  0.0521436867967265  0.0587413565557269
  0.7543619766811840  0.1091025329289664  0.0561408675157234
  0.7557628989414700  0.2218252565571797  0.0567341932940974
  0.6591047779736431  0.2831743129892067  0.0614274753191458
  0.8541907434908876  0.0525220430345298  0.0529575717937213
  0.9546893557633368  0.1084253299834854  0.0506662236009929
  0.9555060392095611  0.2200460502781584  0.0501725236974311
  0.8561347396103433  0.2765181598167066  0.0528664478575367
  0.0560102127298552  0.3867160900648927  0.0463848706887226
  0.1549427982080194  0.4428444279356338  0.0460508629864118
  0.1552886516210839  0.5537920806522157  0.0458337871968205
  0.0561571650043477  0.6097159411411077  0.0454210350935255
  0.2542055528012755  0.3868960311227435  0.0478027603488244
  0.3526858827687521  0.4419959655129979  0.0512088702074266
  0.3544891532314500  0.5545371651974077  0.0544972466684994
  0.2546459681730658  0.6096083605206808  0.0489482696616092
  0.7596306983111488  0.4460261274743294  0.0572789269772111
  0.8578113879193257  0.3878975371126825  0.0513732043436188
  0.9570026126146688  0.4426345038671866  0.0472605894970469
  0.9567818849141133  0.5537770693007256  0.0467321754460776
  0.8569098866363171  0.6073335486552544  0.0497939393228756
  0.0561361637804742  0.7204469427402292  0.0461355144389586
  0.1551929449971437  0.7766443883236365  0.0475672602394744
  0.1555522439158350  0.8876475227703230  0.0486216798330206
  0.0551749279221467  0.9426134910773564  0.0486980932850548
  0.2543802147252922  0.7205654233684234  0.0498875439546288
  0.3534196409821765  0.7760349260247099  0.0545360922146265
  0.3550743562630772  0.8877191255026921  0.0539796270439825
  0.2556399734669130  0.9435528825046451  0.0508494653993054
  0.4514035215348605  0.7190761852492694  0.0623834263568965
  0.5531766062825982  0.8824022286845141  0.0610552988665059
  0.4554286642173972  0.9429365150552276  0.0573714686015719
  0.7557292600981593  0.8806444033086183  0.0557890741499664
  0.6547843280083718  0.9374971280937133  0.0593360044305227
  0.8574328726477786  0.7198684935426853  0.0498579516296849
  0.9562274528012686  0.7753773126079063  0.0476785882895209
  0.9554633628232397  0.8866972226511212  0.0492991608112461
  0.8545308434630406  0.9404527920241206  0.0524514173731778
  0.4537891440788701  0.6070249365635134  0.0655423746988985
  0.4498840485100348  0.3911411312786963  0.0545869746837755
  0.6650708908322550  0.3915458887494512  0.0662206555598348
  0.7592432558927998  0.5547924329171832  0.0544297367801787
  0.5479059443919241  0.7749713814026540  0.0649336323780326
  0.7598249831539221  0.7720988543398857  0.0546601305857497
  0.6515382791670925  0.6708358153248384  0.0719986751880231
  0.5553174564573164  0.4918487802293579  0.0825676911809188
  0.6129869719255068  0.5413994724238702  0.1615905334934550
  0.6526177091512680  0.6435228919206044  0.1578532882870333
 
  0.00000000E+00  0.00000000E+00  0.00000000E+00
  0.00000000E+00  0.00000000E+00  0.00000000E+00
  0.00000000E+00  0.00000000E+00  0.00000000E+00
  0.00000000E+00  0.00000000E+00  0.00000000E+00
  0.00000000E+00  0.00000000E+00  0.00000000E+00
  0.00000000E+00  0.00000000E+00  0.00000000E+00
  0.00000000E+00  0.00000000E+00  0.00000000E+00
  0.00000000E+00  0.00000000E+00  0.00000000E+00
  0.00000000E+00  0.00000000E+00  0.00000000E+00
  0.00000000E+00  0.00000000E+00  0.00000000E+00
  0.00000000E+00  0.00000000E+00  0.00000000E+00
  0.00000000E+00  0.00000000E+00  0.00000000E+00
  0.00000000E+00  0.00000000E+00  0.00000000E+00
  0.00000000E+00  0.00000000E+00  0.00000000E+00
  0.00000000E+00  0.00000000E+00  0.00000000E+00
  0.00000000E+00  0.00000000E+00  0.00000000E+00
  0.00000000E+00  0.00000000E+00  0.00000000E+00
  0.00000000E+00  0.00000000E+00  0.00000000E+00
  0.00000000E+00  0.00000000E+00  0.00000000E+00
  0.00000000E+00  0.00000000E+00  0.00000000E+00
  0.00000000E+00  0.00000000E+00  0.00000000E+00
  0.00000000E+00  0.00000000E+00  0.00000000E+00
  0.00000000E+00  0.00000000E+00  0.00000000E+00
  0.00000000E+00  0.00000000E+00  0.00000000E+00
  0.00000000E+00  0.00000000E+00  0.00000000E+00
  0.00000000E+00  0.00000000E+00  0.00000000E+00
  0.00000000E+00  0.00000000E+00  0.00000000E+00
  0.00000000E+00  0.00000000E+00  0.00000000E+00
  0.00000000E+00  0.00000000E+00  0.00000000E+00
  0.00000000E+00  0.00000000E+00  0.00000000E+00
  0.00000000E+00  0.00000000E+00  0.00000000E+00
  0.00000000E+00  0.00000000E+00  0.00000000E+00
  0.00000000E+00  0.00000000E+00  0.00000000E+00
  0.00000000E+00  0.00000000E+00  0.00000000E+00
  0.00000000E+00  0.00000000E+00  0.00000000E+00
  0.00000000E+00  0.00000000E+00  0.00000000E+00
  0.00000000E+00  0.00000000E+00  0.00000000E+00
  0.00000000E+00  0.00000000E+00  0.00000000E+00
  0.00000000E+00  0.00000000E+00  0.00000000E+00
  0.00000000E+00  0.00000000E+00  0.00000000E+00
  0.00000000E+00  0.00000000E+00  0.00000000E+00
  0.00000000E+00  0.00000000E+00  0.00000000E+00
  0.00000000E+00  0.00000000E+00  0.00000000E+00
  0.00000000E+00  0.00000000E+00  0.00000000E+00
  0.00000000E+00  0.00000000E+00  0.00000000E+00
  0.00000000E+00  0.00000000E+00  0.00000000E+00
  0.00000000E+00  0.00000000E+00  0.00000000E+00
  0.00000000E+00  0.00000000E+00  0.00000000E+00
  0.00000000E+00  0.00000000E+00  0.00000000E+00
  0.00000000E+00  0.00000000E+00  0.00000000E+00
  0.00000000E+00  0.00000000E+00  0.00000000E+00
  0.00000000E+00  0.00000000E+00  0.00000000E+00
  0.00000000E+00  0.00000000E+00  0.00000000E+00
  0.00000000E+00  0.00000000E+00  0.00000000E+00
  0.00000000E+00  0.00000000E+00  0.00000000E+00
  0.00000000E+00  0.00000000E+00  0.00000000E+00
  0.00000000E+00  0.00000000E+00  0.00000000E+00
  0.00000000E+00  0.00000000E+00  0.00000000E+00
  0.00000000E+00  0.00000000E+00  0.00000000E+00
  0.00000000E+00  0.00000000E+00  0.00000000E+00
