CONTCAR\(3)                             
   1.00000000000000     
    12.3312997818000003    0.0000000000000000    0.0000000000000000
     0.0001127485000000   12.8291997905000006    0.0000000000000000
     0.0005937186000000    0.0011528207000000   19.9943999824000009
   C    N    Fe   Ni   H 
    52     4     1     1     1
Direct
  0.0557845070847932  0.0551750285785989  0.0514651766760628
  0.1563496287552547  0.1106486019356510  0.0509771283585805
  0.1567270740499029  0.2214411655752318  0.0498420351925560
  0.0562491377017039  0.2761148972419211  0.0496207357582196
  0.2567505236908373  0.0556071987007501  0.0523891726323622
  0.3574042489720232  0.1107322948799124  0.0551406303068520
  0.3578060473573998  0.2228705732965620  0.0543483039493904
  0.2572001917428148  0.2773685303182858  0.0501831298403832
  0.4570792172561678  0.0538424689672837  0.0588060928086947
  0.5572717018509902  0.1102571662586436  0.0621654516820545
  0.5576745133803791  0.2231753654248383  0.0632512385279394
  0.4575779853036992  0.2808679710215052  0.0584347339484327
  0.6558134284309295  0.0498247731532711  0.0625519798455611
  0.7549573945913441  0.1085552335269408  0.0603775381236392
  0.7556588911735319  0.2216701689604707  0.0611138209513481
  0.6576610618436873  0.2817865457931443  0.0658302255612776
  0.8548971995289744  0.0528656960854883  0.0566532273479765
  0.9552105592354133  0.1094445946780842  0.0535522017162010
  0.9557387796438287  0.2209877825180633  0.0528301509817678
  0.8559299764901381  0.2771245492296732  0.0561806275146748
  0.0569554449516615  0.3871865912844699  0.0477373008805512
  0.1562368922629397  0.4433154428729884  0.0459730224789897
  0.1557146311669913  0.5541540667544125  0.0449663676065555
  0.0572383727764920  0.6103081853031547  0.0455044065456963
  0.2564317973974205  0.3887054929254363  0.0479089338237507
  0.3557011339342416  0.4453685783698443  0.0503477577554939
  0.3534754149052166  0.5582644821115565  0.0502450385278344
  0.2541615382583983  0.6114332077842709  0.0466048272049042
  0.7606352423081655  0.4484576107189174  0.0620477446913831
  0.8579239178516382  0.3889765773543231  0.0548647892379521
  0.9580503786130516  0.4429477838226102  0.0496892755370181
  0.9586689878308901  0.5540668070137784  0.0485648284508368
  0.8602698771645464  0.6091815643752752  0.0537900028164147
  0.0568667981241814  0.7213090827218696  0.0464129353755428
  0.1550587314593416  0.7781987417022082  0.0469940460533300
  0.1557330028922855  0.8889985056138223  0.0491316371284874
  0.0557731359821687  0.9442389729616354  0.0503995476192328
  0.2535744359330096  0.7222310248812732  0.0477475965652147
  0.3521930869514265  0.7772207779483068  0.0523168185685809
  0.3548144606512725  0.8881861380892060  0.0541899157854733
  0.2558443344379495  0.9444017297811914  0.0515709723038364
  0.4488357738002272  0.7190489275019391  0.0582244092710020
  0.5526964110674856  0.8797040757452914  0.0634502884406636
  0.4558243164120981  0.9415161125947924  0.0589044807466936
  0.7570770308161031  0.8799915090291365  0.0597882314969693
  0.6551375609386910  0.9352699699898909  0.0629896265833644
  0.8598368144003281  0.7213336670371819  0.0533012466377145
  0.9579370141045459  0.7768381831830575  0.0496029352821775
  0.9565258099914042  0.8878981902045056  0.0516715344172821
  0.8552631464993607  0.9408042794262625  0.0559791479016502
  0.4556465639292209  0.3922282938011883  0.0568164015806369
  0.6606159291180898  0.3940492767665491  0.0699870468406178
  0.4490593448320236  0.6119009100578519  0.0567718493411682
  0.7638826682469524  0.5582986233166770  0.0621705575713352
  0.5460085367573602  0.7708309451050507  0.0663887338332338
  0.7622199237960512  0.7716740479496484  0.0593272947799253
  0.6530312262675209  0.6631584903523873  0.0730192893800650
  0.5568936881402955  0.4959806327070248  0.0750551568441483
  0.6102745249450967  0.5783619756967141  0.1293703923702791
 
  0.00000000E+00  0.00000000E+00  0.00000000E+00
  0.00000000E+00  0.00000000E+00  0.00000000E+00
  0.00000000E+00  0.00000000E+00  0.00000000E+00
  0.00000000E+00  0.00000000E+00  0.00000000E+00
  0.00000000E+00  0.00000000E+00  0.00000000E+00
  0.00000000E+00  0.00000000E+00  0.00000000E+00
  0.00000000E+00  0.00000000E+00  0.00000000E+00
  0.00000000E+00  0.00000000E+00  0.00000000E+00
  0.00000000E+00  0.00000000E+00  0.00000000E+00
  0.00000000E+00  0.00000000E+00  0.00000000E+00
  0.00000000E+00  0.00000000E+00  0.00000000E+00
  0.00000000E+00  0.00000000E+00  0.00000000E+00
  0.00000000E+00  0.00000000E+00  0.00000000E+00
  0.00000000E+00  0.00000000E+00  0.00000000E+00
  0.00000000E+00  0.00000000E+00  0.00000000E+00
  0.00000000E+00  0.00000000E+00  0.00000000E+00
  0.00000000E+00  0.00000000E+00  0.00000000E+00
  0.00000000E+00  0.00000000E+00  0.00000000E+00
  0.00000000E+00  0.00000000E+00  0.00000000E+00
  0.00000000E+00  0.00000000E+00  0.00000000E+00
  0.00000000E+00  0.00000000E+00  0.00000000E+00
  0.00000000E+00  0.00000000E+00  0.00000000E+00
  0.00000000E+00  0.00000000E+00  0.00000000E+00
  0.00000000E+00  0.00000000E+00  0.00000000E+00
  0.00000000E+00  0.00000000E+00  0.00000000E+00
  0.00000000E+00  0.00000000E+00  0.00000000E+00
  0.00000000E+00  0.00000000E+00  0.00000000E+00
  0.00000000E+00  0.00000000E+00  0.00000000E+00
  0.00000000E+00  0.00000000E+00  0.00000000E+00
  0.00000000E+00  0.00000000E+00  0.00000000E+00
  0.00000000E+00  0.00000000E+00  0.00000000E+00
  0.00000000E+00  0.00000000E+00  0.00000000E+00
  0.00000000E+00  0.00000000E+00  0.00000000E+00
  0.00000000E+00  0.00000000E+00  0.00000000E+00
  0.00000000E+00  0.00000000E+00  0.00000000E+00
  0.00000000E+00  0.00000000E+00  0.00000000E+00
  0.00000000E+00  0.00000000E+00  0.00000000E+00
  0.00000000E+00  0.00000000E+00  0.00000000E+00
  0.00000000E+00  0.00000000E+00  0.00000000E+00
  0.00000000E+00  0.00000000E+00  0.00000000E+00
  0.00000000E+00  0.00000000E+00  0.00000000E+00
  0.00000000E+00  0.00000000E+00  0.00000000E+00
  0.00000000E+00  0.00000000E+00  0.00000000E+00
  0.00000000E+00  0.00000000E+00  0.00000000E+00
  0.00000000E+00  0.00000000E+00  0.00000000E+00
  0.00000000E+00  0.00000000E+00  0.00000000E+00
  0.00000000E+00  0.00000000E+00  0.00000000E+00
  0.00000000E+00  0.00000000E+00  0.00000000E+00
  0.00000000E+00  0.00000000E+00  0.00000000E+00
  0.00000000E+00  0.00000000E+00  0.00000000E+00
  0.00000000E+00  0.00000000E+00  0.00000000E+00
  0.00000000E+00  0.00000000E+00  0.00000000E+00
  0.00000000E+00  0.00000000E+00  0.00000000E+00
  0.00000000E+00  0.00000000E+00  0.00000000E+00
  0.00000000E+00  0.00000000E+00  0.00000000E+00
  0.00000000E+00  0.00000000E+00  0.00000000E+00
  0.00000000E+00  0.00000000E+00  0.00000000E+00
  0.00000000E+00  0.00000000E+00  0.00000000E+00
  0.00000000E+00  0.00000000E+00  0.00000000E+00
