CONTCAR\(2)                             
   1.00000000000000     
    12.3312997818000003    0.0000000000000000    0.0000000000000000
     0.0001127485000000   12.8291997905000006    0.0000000000000000
     0.0005937186000000    0.0011528207000000   19.9943999824000009
   C    N    Fe   Ni   O    H 
    53     3     1     1     1     1
Direct
  0.0563844950286946  0.0556111561686367  0.0492791793944473
  0.1567591782752654  0.1111696790844937  0.0486629389258215
  0.1569432823856386  0.2220278591955598  0.0472127467717701
  0.0564811650137114  0.2769467423113030  0.0470243321144390
  0.2573656322385459  0.0563777715154199  0.0505513102922311
  0.3578765710505085  0.1122556824272874  0.0537402434342204
  0.3581780144499167  0.2242719887928518  0.0525577367070607
  0.2570190428876966  0.2777603737083039  0.0476369884602107
  0.4575640805452142  0.0559941934119732  0.0584584664011603
  0.5578622491972783  0.1123593866287054  0.0625388364799842
  0.5581712366292756  0.2254895830635404  0.0634805691417839
  0.4581142024212446  0.2827881217313473  0.0575342218894228
  0.6564499753501707  0.0519824903415519  0.0631782045653978
  0.7557656226419575  0.1094672055782108  0.0599670674938477
  0.7572319465828686  0.2221006504534148  0.0605409796142594
  0.6597454779141697  0.2819937304868506  0.0661950590887629
  0.8554821815796948  0.0538866518162803  0.0554631486175962
  0.9558474150360577  0.1099526734916648  0.0516681857709476
  0.9566816435436062  0.2212730951065784  0.0508250993558936
  0.8571104802925246  0.2771421535753686  0.0549922389958985
  0.0561472156349236  0.3882876825325287  0.0449891427712359
  0.1552077087879295  0.4440353806672470  0.0432949394399904
  0.1553849684911755  0.5555252218892242  0.0426283292443678
  0.0563461707053312  0.6110478189479301  0.0431103373765505
  0.2550702808912700  0.3886964576412213  0.0453911640859275
  0.3531599491369568  0.4451500427765217  0.0486948490040879
  0.3536516206965012  0.5575282965133022  0.0499545216077313
  0.2543864865520108  0.6121813421011981  0.0451013807414437
  0.7585178585489081  0.4451589475074146  0.0619650946699973
  0.8575690684983828  0.3886634156241386  0.0536329982067390
  0.9565739745213024  0.4441634629386863  0.0472558014804031
  0.9569901749042853  0.5553186443159277  0.0460395348000837
  0.8575314555197127  0.6102891272921475  0.0516974005454379
  0.0569129322985631  0.7223346400275531  0.0442195586123954
  0.1556919097012200  0.7786120936468850  0.0450999071874257
  0.1562451226338394  0.8896091778255971  0.0472219805180578
  0.0562333954721966  0.9447727556540915  0.0483088419646777
  0.2549670652193446  0.7228199250225574  0.0465275391609043
  0.3542525747826584  0.7775095884790947  0.0525101895672126
  0.3557442168999907  0.8888825901389937  0.0537465535933836
  0.2564291119866700  0.9450920694913928  0.0500603715752045
  0.4525631595892345  0.7201922072228077  0.0610125146000923
  0.5533160274489466  0.8830793553639893  0.0653479010902117
  0.4560065724193288  0.9437299676416948  0.0590380573899930
  0.7571740539099528  0.8821012900004637  0.0599103818044800
  0.6560022247036610  0.9381621524322402  0.0642786012369795
  0.8592665264645728  0.7229547135176535  0.0516492514684757
  0.9576177153485287  0.7781233465252679  0.0475822128527838
  0.9566757128348166  0.8889211774428896  0.0498036311035677
  0.8555868890143152  0.9418650775152132  0.0548077490589061
  0.4536066241214066  0.3945325047476516  0.0556552704493085
  0.4536371698568426  0.6080872209208253  0.0602118181115781
  0.7577168655334091  0.5581236224852738  0.0615530692210131
  0.6635815734946322  0.3892723533495128  0.0709293139558086
  0.5480391801523793  0.7763882350455890  0.0704588526998135
  0.7618125391417129  0.7732720797949076  0.0591334707904141
  0.6561758143409110  0.6689097719718466  0.0868582795482735
  0.5569994084253850  0.4933052750621041  0.0797481969465108
  0.6068684404473095  0.5831485854956232  0.1567077508025468
  0.5402263708054860  0.6123711645414784  0.1754256992008247
 
  0.00000000E+00  0.00000000E+00  0.00000000E+00
  0.00000000E+00  0.00000000E+00  0.00000000E+00
  0.00000000E+00  0.00000000E+00  0.00000000E+00
  0.00000000E+00  0.00000000E+00  0.00000000E+00
  0.00000000E+00  0.00000000E+00  0.00000000E+00
  0.00000000E+00  0.00000000E+00  0.00000000E+00
  0.00000000E+00  0.00000000E+00  0.00000000E+00
  0.00000000E+00  0.00000000E+00  0.00000000E+00
  0.00000000E+00  0.00000000E+00  0.00000000E+00
  0.00000000E+00  0.00000000E+00  0.00000000E+00
  0.00000000E+00  0.00000000E+00  0.00000000E+00
  0.00000000E+00  0.00000000E+00  0.00000000E+00
  0.00000000E+00  0.00000000E+00  0.00000000E+00
  0.00000000E+00  0.00000000E+00  0.00000000E+00
  0.00000000E+00  0.00000000E+00  0.00000000E+00
  0.00000000E+00  0.00000000E+00  0.00000000E+00
  0.00000000E+00  0.00000000E+00  0.00000000E+00
  0.00000000E+00  0.00000000E+00  0.00000000E+00
  0.00000000E+00  0.00000000E+00  0.00000000E+00
  0.00000000E+00  0.00000000E+00  0.00000000E+00
  0.00000000E+00  0.00000000E+00  0.00000000E+00
  0.00000000E+00  0.00000000E+00  0.00000000E+00
  0.00000000E+00  0.00000000E+00  0.00000000E+00
  0.00000000E+00  0.00000000E+00  0.00000000E+00
  0.00000000E+00  0.00000000E+00  0.00000000E+00
  0.00000000E+00  0.00000000E+00  0.00000000E+00
  0.00000000E+00  0.00000000E+00  0.00000000E+00
  0.00000000E+00  0.00000000E+00  0.00000000E+00
  0.00000000E+00  0.00000000E+00  0.00000000E+00
  0.00000000E+00  0.00000000E+00  0.00000000E+00
  0.00000000E+00  0.00000000E+00  0.00000000E+00
  0.00000000E+00  0.00000000E+00  0.00000000E+00
  0.00000000E+00  0.00000000E+00  0.00000000E+00
  0.00000000E+00  0.00000000E+00  0.00000000E+00
  0.00000000E+00  0.00000000E+00  0.00000000E+00
  0.00000000E+00  0.00000000E+00  0.00000000E+00
  0.00000000E+00  0.00000000E+00  0.00000000E+00
  0.00000000E+00  0.00000000E+00  0.00000000E+00
  0.00000000E+00  0.00000000E+00  0.00000000E+00
  0.00000000E+00  0.00000000E+00  0.00000000E+00
  0.00000000E+00  0.00000000E+00  0.00000000E+00
  0.00000000E+00  0.00000000E+00  0.00000000E+00
  0.00000000E+00  0.00000000E+00  0.00000000E+00
  0.00000000E+00  0.00000000E+00  0.00000000E+00
  0.00000000E+00  0.00000000E+00  0.00000000E+00
  0.00000000E+00  0.00000000E+00  0.00000000E+00
  0.00000000E+00  0.00000000E+00  0.00000000E+00
  0.00000000E+00  0.00000000E+00  0.00000000E+00
  0.00000000E+00  0.00000000E+00  0.00000000E+00
  0.00000000E+00  0.00000000E+00  0.00000000E+00
  0.00000000E+00  0.00000000E+00  0.00000000E+00
  0.00000000E+00  0.00000000E+00  0.00000000E+00
  0.00000000E+00  0.00000000E+00  0.00000000E+00
  0.00000000E+00  0.00000000E+00  0.00000000E+00
  0.00000000E+00  0.00000000E+00  0.00000000E+00
  0.00000000E+00  0.00000000E+00  0.00000000E+00
  0.00000000E+00  0.00000000E+00  0.00000000E+00
  0.00000000E+00  0.00000000E+00  0.00000000E+00
  0.00000000E+00  0.00000000E+00  0.00000000E+00
  0.00000000E+00  0.00000000E+00  0.00000000E+00
