CONTCAR\(6)                             
   1.00000000000000     
    12.3312997818000003    0.0000000000000000    0.0000000000000000
     0.0001127485000000   12.8291997905000006    0.0000000000000000
     0.0005937186000000    0.0011528207000000   19.9943999824000009
   C    N    Fe   Ni   H 
    51     5     1     1     2
Direct
  0.0551186220964521  0.0523096277856254  0.0509564480752858
  0.1555385033943896  0.1078406160051208  0.0507373368662307
  0.1553378597814306  0.2184812914346130  0.0495838571481239
  0.0553477367942569  0.2740098085825654  0.0492017235524139
  0.2564555407353005  0.0534442341101684  0.0521601132876990
  0.3568841262515886  0.1092785085368506  0.0551866229590076
  0.3563177194047787  0.2213237762674335  0.0542723942660707
  0.2551337794714388  0.2742370049881215  0.0499103699498838
  0.4571563301086266  0.0537150343160740  0.0591305799498297
  0.5567906579814456  0.1119500616839492  0.0622334638374257
  0.5571680670666880  0.2268302009843517  0.0627319751754651
  0.4545212775821636  0.2819672841188893  0.0580492582427739
  0.6551110888855156  0.0506698309870470  0.0625454194667282
  0.7542694166914676  0.1081175468058496  0.0599269316803471
  0.7554192909985142  0.2213650212918034  0.0604963392759376
  0.6588367295297398  0.2834289384866587  0.0646851380249076
  0.8541101236811265  0.0513918103313334  0.0560633813685951
  0.9546426173678519  0.1071309204588839  0.0531627717769470
  0.9553598599133696  0.2187572233073941  0.0525742737107118
  0.8561032870277124  0.2755044105234474  0.0558515030583650
  0.0559900372077958  0.3852389526018231  0.0467384306191478
  0.1547988944908649  0.4413150492356854  0.0448204122356914
  0.1551022418387415  0.5522747308164947  0.0435175084075407
  0.0564277150123767  0.6084762921367828  0.0437033108924479
  0.2538670461325895  0.3850252669607182  0.0472894700491156
  0.3522277948477408  0.4398767274284591  0.0504218908835298
  0.3534868663137494  0.5526161656202203  0.0507990859871879
  0.2544253935482964  0.6080999191952414  0.0456992258809955
  0.7607742185419891  0.4452969032947205  0.0605592098464358
  0.8582801126810156  0.3869793111017142  0.0539670851984991
  0.9573978932261855  0.4414336861238607  0.0482836686191697
  0.9574086518140864  0.5524965178332434  0.0466329531346915
  0.8583761808077136  0.6066473052623675  0.0513658615375299
  0.0563598488376981  0.7193088755372351  0.0446129257641931
  0.1554409397144491  0.7754270674585481  0.0457388651095836
  0.1556949784538643  0.8863721038921416  0.0481063355950956
  0.0552850691507249  0.9413634892719706  0.0493926440474163
  0.2546851336013311  0.7192629801365155  0.0470027779812908
  0.3537148585569139  0.7747529976039355  0.0525075670842940
  0.3552808849781545  0.8863575211310454  0.0541389301943263
  0.2558027202311262  0.9421416878396457  0.0510716989761916
  0.4513428888633165  0.7174366531977419  0.0600951906724021
  0.5534713087002697  0.8799521846901964  0.0644334041891391
  0.4558133265193964  0.9409378144044311  0.0594413465050777
  0.7560806793117492  0.8789244627078451  0.0589883560171040
  0.6550326418995605  0.9356615681278050  0.0632397711340527
  0.8579629914277476  0.7188323595464183  0.0508201771437323
  0.9566182591686103  0.7743633082887353  0.0476203166263128
  0.9556020714363881  0.8855856745240698  0.0501854593915267
  0.8545453139067346  0.9391235838504207  0.0548819954229193
  0.4527988580116228  0.6054955730568362  0.0603957281253888
  0.4491861558094771  0.3894458138934642  0.0563657702556494
  0.6650491015052205  0.3929116452737094  0.0686514601293591
  0.7611396650498915  0.5545257801233776  0.0589570746472394
  0.5484789151218071  0.7718543308645479  0.0675609799988783
  0.7601101893613512  0.7700264849568254  0.0568518992421828
  0.6509156700021332  0.6642974366888075  0.0718684113025612
  0.5552847387833100  0.4978485386993594  0.0733215427557646
  0.5987498271236745  0.5840435722755046  0.1252596271835193
  0.6626072952464690  0.6761166393413379  0.1446517145400391
 
  0.00000000E+00  0.00000000E+00  0.00000000E+00
  0.00000000E+00  0.00000000E+00  0.00000000E+00
  0.00000000E+00  0.00000000E+00  0.00000000E+00
  0.00000000E+00  0.00000000E+00  0.00000000E+00
  0.00000000E+00  0.00000000E+00  0.00000000E+00
  0.00000000E+00  0.00000000E+00  0.00000000E+00
  0.00000000E+00  0.00000000E+00  0.00000000E+00
  0.00000000E+00  0.00000000E+00  0.00000000E+00
  0.00000000E+00  0.00000000E+00  0.00000000E+00
  0.00000000E+00  0.00000000E+00  0.00000000E+00
  0.00000000E+00  0.00000000E+00  0.00000000E+00
  0.00000000E+00  0.00000000E+00  0.00000000E+00
  0.00000000E+00  0.00000000E+00  0.00000000E+00
  0.00000000E+00  0.00000000E+00  0.00000000E+00
  0.00000000E+00  0.00000000E+00  0.00000000E+00
  0.00000000E+00  0.00000000E+00  0.00000000E+00
  0.00000000E+00  0.00000000E+00  0.00000000E+00
  0.00000000E+00  0.00000000E+00  0.00000000E+00
  0.00000000E+00  0.00000000E+00  0.00000000E+00
  0.00000000E+00  0.00000000E+00  0.00000000E+00
  0.00000000E+00  0.00000000E+00  0.00000000E+00
  0.00000000E+00  0.00000000E+00  0.00000000E+00
  0.00000000E+00  0.00000000E+00  0.00000000E+00
  0.00000000E+00  0.00000000E+00  0.00000000E+00
  0.00000000E+00  0.00000000E+00  0.00000000E+00
  0.00000000E+00  0.00000000E+00  0.00000000E+00
  0.00000000E+00  0.00000000E+00  0.00000000E+00
  0.00000000E+00  0.00000000E+00  0.00000000E+00
  0.00000000E+00  0.00000000E+00  0.00000000E+00
  0.00000000E+00  0.00000000E+00  0.00000000E+00
  0.00000000E+00  0.00000000E+00  0.00000000E+00
  0.00000000E+00  0.00000000E+00  0.00000000E+00
  0.00000000E+00  0.00000000E+00  0.00000000E+00
  0.00000000E+00  0.00000000E+00  0.00000000E+00
  0.00000000E+00  0.00000000E+00  0.00000000E+00
  0.00000000E+00  0.00000000E+00  0.00000000E+00
  0.00000000E+00  0.00000000E+00  0.00000000E+00
  0.00000000E+00  0.00000000E+00  0.00000000E+00
  0.00000000E+00  0.00000000E+00  0.00000000E+00
  0.00000000E+00  0.00000000E+00  0.00000000E+00
  0.00000000E+00  0.00000000E+00  0.00000000E+00
  0.00000000E+00  0.00000000E+00  0.00000000E+00
  0.00000000E+00  0.00000000E+00  0.00000000E+00
  0.00000000E+00  0.00000000E+00  0.00000000E+00
  0.00000000E+00  0.00000000E+00  0.00000000E+00
  0.00000000E+00  0.00000000E+00  0.00000000E+00
  0.00000000E+00  0.00000000E+00  0.00000000E+00
  0.00000000E+00  0.00000000E+00  0.00000000E+00
  0.00000000E+00  0.00000000E+00  0.00000000E+00
  0.00000000E+00  0.00000000E+00  0.00000000E+00
  0.00000000E+00  0.00000000E+00  0.00000000E+00
  0.00000000E+00  0.00000000E+00  0.00000000E+00
  0.00000000E+00  0.00000000E+00  0.00000000E+00
  0.00000000E+00  0.00000000E+00  0.00000000E+00
  0.00000000E+00  0.00000000E+00  0.00000000E+00
  0.00000000E+00  0.00000000E+00  0.00000000E+00
  0.00000000E+00  0.00000000E+00  0.00000000E+00
  0.00000000E+00  0.00000000E+00  0.00000000E+00
  0.00000000E+00  0.00000000E+00  0.00000000E+00
  0.00000000E+00  0.00000000E+00  0.00000000E+00
