an6                                     
   1.00000000000000     
    12.3312997818000003    0.0000000000000000    0.0000000000000000
     0.0001127485000000   12.8291997905000006    0.0000000000000000
     0.0005937186000000    0.0011528207000000   19.9943999824000009
   C    N    Fe   Ni
    54     2     1     1
Direct
  0.0555625027060631  0.0544566401858782  0.0557779692247204
  0.1556977312928218  0.1105352970930002  0.0557947030590878
  0.1568303435781538  0.2214411327475455  0.0557771278120527
  0.0570228421417013  0.2758806238686386  0.0557519517006025
  0.2558484438129008  0.0561108282686156  0.0558032281845881
  0.3564920713643865  0.1116952046620598  0.0557763494447234
  0.3575793580985795  0.2233495083314799  0.0557502259433098
  0.2571711685894316  0.2775853642761946  0.0557669266045672
  0.4558968799883023  0.0557441105913252  0.0557486848867457
  0.5565629873470458  0.1112688099916537  0.0557131206676933
  0.5575501734414500  0.2226780359100706  0.0556935360399303
  0.4579915931277223  0.2805217272416135  0.0556997842713539
  0.6555139598067038  0.0519684092907323  0.0556750169992771
  0.7557230563600840  0.1084944870860294  0.0556875866461734
  0.7569991119503782  0.2206793480860011  0.0557008464965381
  0.6586653184772399  0.2793923678898211  0.0556731409497437
  0.8549331063379677  0.0522470157853825  0.0556980872608037
  0.9553638032370694  0.1088992694232949  0.0557401903422375
  0.9566635734636796  0.2202689044245326  0.0557372891913216
  0.8570036486567785  0.2761344315797137  0.0557185621462663
  0.0583876867707294  0.3871259409804029  0.0557412585378898
  0.1573240967368298  0.4435272277238939  0.0557650108867238
  0.1572539706236779  0.5550468635228114  0.0557744853274225
  0.0576447072761473  0.6098195268046932  0.0557549588992893
  0.2573289340493017  0.3887333506858450  0.0557625012157795
  0.3569226311696905  0.4449975270131684  0.0557304663161019
  0.3582998659996815  0.5588566579747507  0.0557198272384465
  0.2567642284717305  0.6118382473236672  0.0557735408877864
  0.7608535594109991  0.4460110028032293  0.0556529583234670
  0.8591760070026372  0.3878033176886664  0.0556984924172537
  0.9591034557738992  0.4421487984689585  0.0557062270024752
  0.9586316423455935  0.5527606783983725  0.0556969198852869
  0.8585393362238626  0.6064679046502357  0.0556604850066713
  0.0564622117283801  0.7211664654387737  0.0557767691535759
  0.1546357844893676  0.7776940098234189  0.0558094761933082
  0.1546401643754885  0.8888483087762028  0.0558143130122330
  0.0547411707994254  0.9432854894454333  0.0557842902500291
  0.2540511719506207  0.7225753019194210  0.0557894162359005
  0.3517689851436225  0.7795040277567521  0.0557506682047354
  0.3535541156816668  0.8901125231635356  0.0557715937773980
  0.2543779087022985  0.9453408778879826  0.0558136707069383
  0.4503484227705403  0.7243396967649939  0.0556741705058501
  0.5523990241964285  0.8854466932991110  0.0556536511915671
  0.4541738097591524  0.9444001579837363  0.0557323021577281
  0.7539824001899434  0.8812217061589263  0.0556346676689461
  0.6547079722740360  0.9397658954512346  0.0556410260982483
  0.8579386210174174  0.7187483906993434  0.0556617508253612
  0.9566631556012454  0.7755028303870258  0.0557243346784236
  0.9550662537735864  0.8865466991933438  0.0557321373426902
  0.8538822346591579  0.9399550175777444  0.0556781858773719
  0.4561678086356303  0.3917711276223704  0.0556826263955059
  0.4582291786347290  0.6138128746860121  0.0556636302571490
  0.6615999409969512  0.3895834339788025  0.0556394102286306
  0.7567081053710155  0.7684331790075800  0.0556289824896326
  0.7607657262449883  0.5560357445858300  0.0556348176400229
  0.5468858855924323  0.7793185121791221  0.0556247611017651
  0.6421030031574063  0.6673275483811657  0.0556232280946455
  0.5641751916212454  0.4933148750598399  0.0556286720959791
 
  0.00000000E+00  0.00000000E+00  0.00000000E+00
  0.00000000E+00  0.00000000E+00  0.00000000E+00
  0.00000000E+00  0.00000000E+00  0.00000000E+00
  0.00000000E+00  0.00000000E+00  0.00000000E+00
  0.00000000E+00  0.00000000E+00  0.00000000E+00
  0.00000000E+00  0.00000000E+00  0.00000000E+00
  0.00000000E+00  0.00000000E+00  0.00000000E+00
  0.00000000E+00  0.00000000E+00  0.00000000E+00
  0.00000000E+00  0.00000000E+00  0.00000000E+00
  0.00000000E+00  0.00000000E+00  0.00000000E+00
  0.00000000E+00  0.00000000E+00  0.00000000E+00
  0.00000000E+00  0.00000000E+00  0.00000000E+00
  0.00000000E+00  0.00000000E+00  0.00000000E+00
  0.00000000E+00  0.00000000E+00  0.00000000E+00
  0.00000000E+00  0.00000000E+00  0.00000000E+00
  0.00000000E+00  0.00000000E+00  0.00000000E+00
  0.00000000E+00  0.00000000E+00  0.00000000E+00
  0.00000000E+00  0.00000000E+00  0.00000000E+00
  0.00000000E+00  0.00000000E+00  0.00000000E+00
  0.00000000E+00  0.00000000E+00  0.00000000E+00
  0.00000000E+00  0.00000000E+00  0.00000000E+00
  0.00000000E+00  0.00000000E+00  0.00000000E+00
  0.00000000E+00  0.00000000E+00  0.00000000E+00
  0.00000000E+00  0.00000000E+00  0.00000000E+00
  0.00000000E+00  0.00000000E+00  0.00000000E+00
  0.00000000E+00  0.00000000E+00  0.00000000E+00
  0.00000000E+00  0.00000000E+00  0.00000000E+00
  0.00000000E+00  0.00000000E+00  0.00000000E+00
  0.00000000E+00  0.00000000E+00  0.00000000E+00
  0.00000000E+00  0.00000000E+00  0.00000000E+00
  0.00000000E+00  0.00000000E+00  0.00000000E+00
  0.00000000E+00  0.00000000E+00  0.00000000E+00
  0.00000000E+00  0.00000000E+00  0.00000000E+00
  0.00000000E+00  0.00000000E+00  0.00000000E+00
  0.00000000E+00  0.00000000E+00  0.00000000E+00
  0.00000000E+00  0.00000000E+00  0.00000000E+00
  0.00000000E+00  0.00000000E+00  0.00000000E+00
  0.00000000E+00  0.00000000E+00  0.00000000E+00
  0.00000000E+00  0.00000000E+00  0.00000000E+00
  0.00000000E+00  0.00000000E+00  0.00000000E+00
  0.00000000E+00  0.00000000E+00  0.00000000E+00
  0.00000000E+00  0.00000000E+00  0.00000000E+00
  0.00000000E+00  0.00000000E+00  0.00000000E+00
  0.00000000E+00  0.00000000E+00  0.00000000E+00
  0.00000000E+00  0.00000000E+00  0.00000000E+00
  0.00000000E+00  0.00000000E+00  0.00000000E+00
  0.00000000E+00  0.00000000E+00  0.00000000E+00
  0.00000000E+00  0.00000000E+00  0.00000000E+00
  0.00000000E+00  0.00000000E+00  0.00000000E+00
  0.00000000E+00  0.00000000E+00  0.00000000E+00
  0.00000000E+00  0.00000000E+00  0.00000000E+00
  0.00000000E+00  0.00000000E+00  0.00000000E+00
  0.00000000E+00  0.00000000E+00  0.00000000E+00
  0.00000000E+00  0.00000000E+00  0.00000000E+00
  0.00000000E+00  0.00000000E+00  0.00000000E+00
  0.00000000E+00  0.00000000E+00  0.00000000E+00
  0.00000000E+00  0.00000000E+00  0.00000000E+00
  0.00000000E+00  0.00000000E+00  0.00000000E+00
