CONTCAR                                 
   1.00000000000000     
    12.3312997818000003    0.0000000000000000    0.0000000000000000
     0.0001127485000000   12.8291997905000006    0.0000000000000000
     0.0005937186000000    0.0011528207000000   19.9943999824000009
   C    N    Fe   Ni   O    H 
    53     3     1     1     2     2
Direct
  0.0558836374333882  0.0541540709931911  0.0481800909418412
  0.1560427168731951  0.1098904628923460  0.0476566526541426
  0.1562239230849634  0.2207692732649061  0.0471245553066917
  0.0565043887952220  0.2759197952184408  0.0478509286970278
  0.2565132135715835  0.0554567733342805  0.0485402504223275
  0.3568076683259736  0.1117576655188683  0.0500066273292146
  0.3567371169170814  0.2235621893631773  0.0490645580617936
  0.2558451738958849  0.2768049142986369  0.0470405894999239
  0.4565418741722989  0.0564687039027418  0.0527130939649643
  0.5559832444756598  0.1140363197444552  0.0551674242069716
  0.5564135238511576  0.2272709444424965  0.0552585381309200
  0.4553482999735653  0.2833228814500646  0.0506852612252485
  0.6546879823748372  0.0536508609180480  0.0563425161298008
  0.7551169990621797  0.1096514917834735  0.0544668070997888
  0.7567659665258373  0.2217101414403164  0.0549994751919985
  0.6590047455578185  0.2823690898907991  0.0582957734876563
  0.8548227573033363  0.0533731439583134  0.0519650970488120
  0.9554673345543876  0.1090913715945846  0.0497339308718313
  0.9565492058307251  0.2201692059880088  0.0497694544390155
  0.8570902079171785  0.2761961186401904  0.0525199613979802
  0.0572296750450066  0.3870885775598035  0.0475538315518922
  0.1559667221130889  0.4432648298574167  0.0465318752967053
  0.1565912950133397  0.5545588936164598  0.0460225801877955
  0.0571912987129029  0.6097316893792798  0.0469274878656554
  0.2552776712638034  0.3875380537103910  0.0466819876362150
  0.3544741271896205  0.4424512864354764  0.0473019192960911
  0.3570522261705213  0.5554276514067104  0.0499113161621928
  0.2563894888358407  0.6102469398780731  0.0469226741676332
  0.7599686534796747  0.4436548690517159  0.0592415511849209
  0.8587247772622877  0.3873011845762495  0.0530422226773701
  0.9579029559780035  0.4426876920918357  0.0496459758968918
  0.9579183247039977  0.5532218622694572  0.0495750182678271
  0.8576814617022558  0.6073521057701278  0.0538230901777411
  0.0571379099038797  0.7211333859778986  0.0470298225363353
  0.1560336975969757  0.7768782335530466  0.0468523340256875
  0.1557816007778205  0.8882640624149467  0.0473447231451533
  0.0555878639930502  0.9432068320653516  0.0479256583454514
  0.2557273134381003  0.7211117377904518  0.0476419405929812
  0.3547308846341991  0.7769719656946423  0.0503588890327120
  0.3553600343098732  0.8885681471385326  0.0504340210818792
  0.2556012475128308  0.9442494883780764  0.0484046812673778
  0.4541976188682745  0.7210699743690714  0.0555629754580655
  0.5527526016108310  0.8845680124783923  0.0573537824083978
  0.4550279538397229  0.9441713414474122  0.0533591625283774
  0.7544331324207973  0.8836731275451081  0.0561067498793106
  0.6543096536767544  0.9409980479015413  0.0576310839856966
  0.8588416492496799  0.7200909953560448  0.0525136939894985
  0.9572715935537200  0.7764744884073203  0.0489136702104348
  0.9555395583739080  0.8874149604046784  0.0493800089455976
  0.8545368515196177  0.9415165146799742  0.0521359986334037
  0.4572314161891721  0.6082750694385495  0.0575332144537088
  0.7573213499409178  0.5556257712034954  0.0610145943599979
  0.7595192737478527  0.7723642200386654  0.0578498571612450
  0.4510610899804100  0.3913250091591595  0.0472259075716778
  0.6644503188086678  0.3882138586183986  0.0626942573514481
  0.5489730589906122  0.7780052834293191  0.0594874369474681
  0.6539399095539864  0.6732621366290380  0.0879048677576930
  0.5598174986234249  0.4946739209079916  0.0729023351986115
  0.5691674368158255  0.4999613513994194  0.1657787883891678
  0.6587579655470273  0.6960600789778107  0.1791106166528453
  0.7291735270065774  0.6877130201290658  0.2005275492422990
  0.5832173965488782  0.5699479282262629  0.1839882823705787
 
  0.00000000E+00  0.00000000E+00  0.00000000E+00
  0.00000000E+00  0.00000000E+00  0.00000000E+00
  0.00000000E+00  0.00000000E+00  0.00000000E+00
  0.00000000E+00  0.00000000E+00  0.00000000E+00
  0.00000000E+00  0.00000000E+00  0.00000000E+00
  0.00000000E+00  0.00000000E+00  0.00000000E+00
  0.00000000E+00  0.00000000E+00  0.00000000E+00
  0.00000000E+00  0.00000000E+00  0.00000000E+00
  0.00000000E+00  0.00000000E+00  0.00000000E+00
  0.00000000E+00  0.00000000E+00  0.00000000E+00
  0.00000000E+00  0.00000000E+00  0.00000000E+00
  0.00000000E+00  0.00000000E+00  0.00000000E+00
  0.00000000E+00  0.00000000E+00  0.00000000E+00
  0.00000000E+00  0.00000000E+00  0.00000000E+00
  0.00000000E+00  0.00000000E+00  0.00000000E+00
  0.00000000E+00  0.00000000E+00  0.00000000E+00
  0.00000000E+00  0.00000000E+00  0.00000000E+00
  0.00000000E+00  0.00000000E+00  0.00000000E+00
  0.00000000E+00  0.00000000E+00  0.00000000E+00
  0.00000000E+00  0.00000000E+00  0.00000000E+00
  0.00000000E+00  0.00000000E+00  0.00000000E+00
  0.00000000E+00  0.00000000E+00  0.00000000E+00
  0.00000000E+00  0.00000000E+00  0.00000000E+00
  0.00000000E+00  0.00000000E+00  0.00000000E+00
  0.00000000E+00  0.00000000E+00  0.00000000E+00
  0.00000000E+00  0.00000000E+00  0.00000000E+00
  0.00000000E+00  0.00000000E+00  0.00000000E+00
  0.00000000E+00  0.00000000E+00  0.00000000E+00
  0.00000000E+00  0.00000000E+00  0.00000000E+00
  0.00000000E+00  0.00000000E+00  0.00000000E+00
  0.00000000E+00  0.00000000E+00  0.00000000E+00
  0.00000000E+00  0.00000000E+00  0.00000000E+00
  0.00000000E+00  0.00000000E+00  0.00000000E+00
  0.00000000E+00  0.00000000E+00  0.00000000E+00
  0.00000000E+00  0.00000000E+00  0.00000000E+00
  0.00000000E+00  0.00000000E+00  0.00000000E+00
  0.00000000E+00  0.00000000E+00  0.00000000E+00
  0.00000000E+00  0.00000000E+00  0.00000000E+00
  0.00000000E+00  0.00000000E+00  0.00000000E+00
  0.00000000E+00  0.00000000E+00  0.00000000E+00
  0.00000000E+00  0.00000000E+00  0.00000000E+00
  0.00000000E+00  0.00000000E+00  0.00000000E+00
  0.00000000E+00  0.00000000E+00  0.00000000E+00
  0.00000000E+00  0.00000000E+00  0.00000000E+00
  0.00000000E+00  0.00000000E+00  0.00000000E+00
  0.00000000E+00  0.00000000E+00  0.00000000E+00
  0.00000000E+00  0.00000000E+00  0.00000000E+00
  0.00000000E+00  0.00000000E+00  0.00000000E+00
  0.00000000E+00  0.00000000E+00  0.00000000E+00
  0.00000000E+00  0.00000000E+00  0.00000000E+00
  0.00000000E+00  0.00000000E+00  0.00000000E+00
  0.00000000E+00  0.00000000E+00  0.00000000E+00
  0.00000000E+00  0.00000000E+00  0.00000000E+00
  0.00000000E+00  0.00000000E+00  0.00000000E+00
  0.00000000E+00  0.00000000E+00  0.00000000E+00
  0.00000000E+00  0.00000000E+00  0.00000000E+00
  0.00000000E+00  0.00000000E+00  0.00000000E+00
  0.00000000E+00  0.00000000E+00  0.00000000E+00
  0.00000000E+00  0.00000000E+00  0.00000000E+00
  0.00000000E+00  0.00000000E+00  0.00000000E+00
  0.00000000E+00  0.00000000E+00  0.00000000E+00
  0.00000000E+00  0.00000000E+00  0.00000000E+00
