CONTCAR\(3)                             
   1.00000000000000     
    12.3312997818000003    0.0000000000000000    0.0000000000000000
     0.0001127485000000   12.8291997905000006    0.0000000000000000
     0.0005937186000000    0.0011528207000000   19.9943999824000009
   C    N    Fe   Ni   H 
    52     4     1     1     2
Direct
  0.0558401073371120  0.0532129914037844  0.0509105553047741
  0.1562692934835780  0.1086302001816001  0.0514826080230072
  0.1559528006426913  0.2193415282719807  0.0499207395083438
  0.0561800762909439  0.2750156563873460  0.0481374421771137
  0.2570871104654817  0.0543390130940498  0.0541404566460306
  0.3572744861020138  0.1106028797248822  0.0572374665768902
  0.3566112197011269  0.2224591855935130  0.0564146684515645
  0.2554505262925790  0.2751199590143817  0.0515173693263646
  0.4575611795087877  0.0554690109984486  0.0610207114509989
  0.5573278443921962  0.1137609479865687  0.0627706732824241
  0.5575971262074612  0.2282462237797198  0.0631161625766053
  0.4548657304099072  0.2830489866256650  0.0604573868379996
  0.6563450424683438  0.0532331797480577  0.0618234107336903
  0.7555580047552424  0.1101857175820180  0.0580032750087165
  0.7564814206556313  0.2227883838832654  0.0577924996778695
  0.6596843649805624  0.2848977217951044  0.0626603129016905
  0.8549310350241539  0.0529427778976196  0.0544795486833542
  0.9555544589922661  0.1082121880425886  0.0518019895657480
  0.9562943746752696  0.2196836064022228  0.0505458624449933
  0.8571968631182512  0.2763899137981206  0.0528634093345662
  0.0566763343274932  0.3862595086419570  0.0458373435618992
  0.1552927475061941  0.4424687418394693  0.0459502922961419
  0.1552821025521277  0.5535087253580190  0.0456204797663779
  0.0565873797322899  0.6097419032855533  0.0445061867468618
  0.2539735397447376  0.3857556674099635  0.0494790480851380
  0.3519301674296592  0.4403799323331925  0.0546351265539479
  0.3524901515980436  0.5525501592214044  0.0560856090035563
  0.2543145241165774  0.6090196061072891  0.0499843783657401
  0.7619925680940661  0.4454584565097394  0.0564365905700466
  0.8593269072887761  0.3875060900088957  0.0506038744618356
  0.9581317793455966  0.4425443498647582  0.0461460795840542
  0.9577583061805094  0.5536876671902087  0.0452605911620640
  0.8578710642862131  0.6072145133891487  0.0487974480307136
  0.0562204609570372  0.7204979021211082  0.0460977768616128
  0.1555881680762297  0.7763772120615237  0.0485578409717674
  0.1563645109839995  0.8873560603013724  0.0504429872336368
  0.0559242934066926  0.9422939298551253  0.0501424144333872
  0.2547998642575307  0.7203175813344469  0.0511862047898273
  0.3541097854871551  0.7752237287978562  0.0572194694525531
  0.3563058162727114  0.8870623002146807  0.0578491809424138
  0.2567422103516672  0.9428315862351562  0.0539378677191012
  0.4516366339529146  0.7166941738574893  0.0662329167673635
  0.5555173227047530  0.8839812234104003  0.0669043019091907
  0.4568080611783497  0.9428781440057168  0.0622470167610411
  0.7565644089007283  0.8813794779876931  0.0577795986742426
  0.6563424199965245  0.9395540680960108  0.0630873038677335
  0.8568522325733182  0.7202800028902705  0.0497100661958745
  0.9562378422147043  0.7754553992163674  0.0479653872021601
  0.9560465363911400  0.8867604232143246  0.0502431516013419
  0.8551978286815656  0.9406494679946817  0.0538503940727000
  0.4515301743632258  0.6045127474207530  0.0665257969080414
  0.5511072256936750  0.7731201750635410  0.0722609453217257
  0.4490737161576531  0.3905264145688614  0.0608012989275016
  0.6658782457353786  0.3936314810395846  0.0654511280512121
  0.7620257300897524  0.5534176249944230  0.0545634523804233
  0.7590547601864516  0.7721786927908694  0.0555158504673595
  0.6495047353349802  0.6662644201833084  0.0723138214997760
  0.5562265444661756  0.4992109212766404  0.0756454696838195
  0.6484040485480803  0.6857970945365982  0.1449755272040955
  0.6033858693317069  0.5841122321606869  0.1270132223990081
 
  0.00000000E+00  0.00000000E+00  0.00000000E+00
  0.00000000E+00  0.00000000E+00  0.00000000E+00
  0.00000000E+00  0.00000000E+00  0.00000000E+00
  0.00000000E+00  0.00000000E+00  0.00000000E+00
  0.00000000E+00  0.00000000E+00  0.00000000E+00
  0.00000000E+00  0.00000000E+00  0.00000000E+00
  0.00000000E+00  0.00000000E+00  0.00000000E+00
  0.00000000E+00  0.00000000E+00  0.00000000E+00
  0.00000000E+00  0.00000000E+00  0.00000000E+00
  0.00000000E+00  0.00000000E+00  0.00000000E+00
  0.00000000E+00  0.00000000E+00  0.00000000E+00
  0.00000000E+00  0.00000000E+00  0.00000000E+00
  0.00000000E+00  0.00000000E+00  0.00000000E+00
  0.00000000E+00  0.00000000E+00  0.00000000E+00
  0.00000000E+00  0.00000000E+00  0.00000000E+00
  0.00000000E+00  0.00000000E+00  0.00000000E+00
  0.00000000E+00  0.00000000E+00  0.00000000E+00
  0.00000000E+00  0.00000000E+00  0.00000000E+00
  0.00000000E+00  0.00000000E+00  0.00000000E+00
  0.00000000E+00  0.00000000E+00  0.00000000E+00
  0.00000000E+00  0.00000000E+00  0.00000000E+00
  0.00000000E+00  0.00000000E+00  0.00000000E+00
  0.00000000E+00  0.00000000E+00  0.00000000E+00
  0.00000000E+00  0.00000000E+00  0.00000000E+00
  0.00000000E+00  0.00000000E+00  0.00000000E+00
  0.00000000E+00  0.00000000E+00  0.00000000E+00
  0.00000000E+00  0.00000000E+00  0.00000000E+00
  0.00000000E+00  0.00000000E+00  0.00000000E+00
  0.00000000E+00  0.00000000E+00  0.00000000E+00
  0.00000000E+00  0.00000000E+00  0.00000000E+00
  0.00000000E+00  0.00000000E+00  0.00000000E+00
  0.00000000E+00  0.00000000E+00  0.00000000E+00
  0.00000000E+00  0.00000000E+00  0.00000000E+00
  0.00000000E+00  0.00000000E+00  0.00000000E+00
  0.00000000E+00  0.00000000E+00  0.00000000E+00
  0.00000000E+00  0.00000000E+00  0.00000000E+00
  0.00000000E+00  0.00000000E+00  0.00000000E+00
  0.00000000E+00  0.00000000E+00  0.00000000E+00
  0.00000000E+00  0.00000000E+00  0.00000000E+00
  0.00000000E+00  0.00000000E+00  0.00000000E+00
  0.00000000E+00  0.00000000E+00  0.00000000E+00
  0.00000000E+00  0.00000000E+00  0.00000000E+00
  0.00000000E+00  0.00000000E+00  0.00000000E+00
  0.00000000E+00  0.00000000E+00  0.00000000E+00
  0.00000000E+00  0.00000000E+00  0.00000000E+00
  0.00000000E+00  0.00000000E+00  0.00000000E+00
  0.00000000E+00  0.00000000E+00  0.00000000E+00
  0.00000000E+00  0.00000000E+00  0.00000000E+00
  0.00000000E+00  0.00000000E+00  0.00000000E+00
  0.00000000E+00  0.00000000E+00  0.00000000E+00
  0.00000000E+00  0.00000000E+00  0.00000000E+00
  0.00000000E+00  0.00000000E+00  0.00000000E+00
  0.00000000E+00  0.00000000E+00  0.00000000E+00
  0.00000000E+00  0.00000000E+00  0.00000000E+00
  0.00000000E+00  0.00000000E+00  0.00000000E+00
  0.00000000E+00  0.00000000E+00  0.00000000E+00
  0.00000000E+00  0.00000000E+00  0.00000000E+00
  0.00000000E+00  0.00000000E+00  0.00000000E+00
  0.00000000E+00  0.00000000E+00  0.00000000E+00
  0.00000000E+00  0.00000000E+00  0.00000000E+00
