CONTCAR                                 
   1.00000000000000     
    12.3312997818000003    0.0000000000000000    0.0000000000000000
     0.0001127485000000   12.8291997905000006    0.0000000000000000
     0.0005937186000000    0.0011528207000000   19.9943999824000009
   C    N    Fe   Ni   O    H 
    52     4     1     1     2     2
Direct
  0.0546138663921009  0.0549434993904353  0.0454167612018784
  0.1550139164844393  0.1108812100782716  0.0453341221072285
  0.1556926921766488  0.2219212082503086  0.0453375406736739
  0.0556937414512691  0.2766490956064729  0.0452454114779119
  0.2550763460206317  0.0559962092222094  0.0463506268911225
  0.3556590525197353  0.1112009810824517  0.0491669945197026
  0.3556996363824722  0.2228036919908691  0.0499396774850599
  0.2560079600484951  0.2779973493839940  0.0469300446124019
  0.4553868372268145  0.0554303718114191  0.0521047331702992
  0.5550756026657601  0.1122057875359174  0.0557486521566319
  0.5557814464390798  0.2244114549304115  0.0592750286328839
  0.4543801061686354  0.2804500768691435  0.0563687438029730
  0.6538443529030433  0.0525508846167487  0.0553158481394189
  0.7540651977461645  0.1092461744127725  0.0529513034653553
  0.7552941335021812  0.2215137978890511  0.0541828933342966
  0.6573195655996934  0.2805355577548859  0.0614707087591554
  0.8538383882705309  0.0531925479284803  0.0496016449588712
  0.9541703889646598  0.1097453885174626  0.0470614474121106
  0.9549221435143196  0.2213716117486861  0.0471544362578656
  0.8552285037618855  0.2774506875344986  0.0506325097984561
  0.0573498004236320  0.3875790413982914  0.0447997202155654
  0.1572425772669468  0.4439563231610049  0.0443645448749225
  0.1576477475619452  0.5547299613823382  0.0443158673246774
  0.0578257588490436  0.6100938265138027  0.0446592104829359
  0.2574465445840612  0.3895262275183539  0.0464290368985365
  0.3584423319156942  0.4444423066859772  0.0509388865316855
  0.3605039869445846  0.5591654222074733  0.0500173931345940
  0.2576772750180172  0.6107351887103788  0.0458017393974078
  0.7595160801751720  0.4489279995573538  0.0598142103654901
  0.8570702128805248  0.3893329670304358  0.0512044505097886
  0.9579429060287356  0.4427866158171834  0.0471138928747452
  0.9584687882608619  0.5534154059083602  0.0474487180775505
  0.8588085053172437  0.6073159731998001  0.0522597889006245
  0.0564558580456477  0.7211317180413958  0.0443919815969318
  0.1549978833674821  0.7775441335215856  0.0440292539725858
  0.1545445261178503  0.8887240627520876  0.0443793262456350
  0.0542923539487138  0.9437217692637223  0.0450414845756055
  0.2544816623095262  0.7219760522703719  0.0453488133120342
  0.3523083061056839  0.7788397123505970  0.0477037660865649
  0.3535832687451561  0.8896261990583542  0.0478475683177541
  0.2541656277896696  0.9449362579812375  0.0457621780069342
  0.4502890676267002  0.7221826432744805  0.0518242265298139
  0.5515810454679720  0.8834343023293439  0.0545522284663866
  0.4541484172298779  0.9436913495641218  0.0513164418407015
  0.7534566354470308  0.8827085383655630  0.0543609027502467
  0.6530947011684103  0.9395647678672380  0.0557131138630482
  0.8581754706676988  0.7190952668549527  0.0508030972351640
  0.9565416519473645  0.7758746134506629  0.0463435153246864
  0.9545816084194506  0.8871573009939844  0.0466856053439491
  0.8534171400144700  0.9411104572451345  0.0498051600064393
  0.6632841688681893  0.3904760952885313  0.0704223933611209
  0.7581037345963541  0.7711135373111685  0.0570836820570979
  0.4518975363009919  0.3879769047887370  0.0602311915683842
  0.4551696582107909  0.6159344182226187  0.0538925569114333
  0.7610690682463411  0.5580056623123969  0.0598854288906991
  0.5472146894431761  0.7758027178512229  0.0550775706580012
  0.6525297164284245  0.6740191397381226  0.0832821089864365
  0.5529910038141416  0.4587780034707669  0.1097333397205131
  0.5910358366265174  0.4934931954195830  0.1910936134454300
  0.6551415664329486  0.6918236968416962  0.1748403162683056
  0.7222628464313449  0.7166690094882752  0.1948502594576854
  0.6127486657170695  0.5680537544368002  0.1944522877545979
 
  0.00000000E+00  0.00000000E+00  0.00000000E+00
  0.00000000E+00  0.00000000E+00  0.00000000E+00
  0.00000000E+00  0.00000000E+00  0.00000000E+00
  0.00000000E+00  0.00000000E+00  0.00000000E+00
  0.00000000E+00  0.00000000E+00  0.00000000E+00
  0.00000000E+00  0.00000000E+00  0.00000000E+00
  0.00000000E+00  0.00000000E+00  0.00000000E+00
  0.00000000E+00  0.00000000E+00  0.00000000E+00
  0.00000000E+00  0.00000000E+00  0.00000000E+00
  0.00000000E+00  0.00000000E+00  0.00000000E+00
  0.00000000E+00  0.00000000E+00  0.00000000E+00
  0.00000000E+00  0.00000000E+00  0.00000000E+00
  0.00000000E+00  0.00000000E+00  0.00000000E+00
  0.00000000E+00  0.00000000E+00  0.00000000E+00
  0.00000000E+00  0.00000000E+00  0.00000000E+00
  0.00000000E+00  0.00000000E+00  0.00000000E+00
  0.00000000E+00  0.00000000E+00  0.00000000E+00
  0.00000000E+00  0.00000000E+00  0.00000000E+00
  0.00000000E+00  0.00000000E+00  0.00000000E+00
  0.00000000E+00  0.00000000E+00  0.00000000E+00
  0.00000000E+00  0.00000000E+00  0.00000000E+00
  0.00000000E+00  0.00000000E+00  0.00000000E+00
  0.00000000E+00  0.00000000E+00  0.00000000E+00
  0.00000000E+00  0.00000000E+00  0.00000000E+00
  0.00000000E+00  0.00000000E+00  0.00000000E+00
  0.00000000E+00  0.00000000E+00  0.00000000E+00
  0.00000000E+00  0.00000000E+00  0.00000000E+00
  0.00000000E+00  0.00000000E+00  0.00000000E+00
  0.00000000E+00  0.00000000E+00  0.00000000E+00
  0.00000000E+00  0.00000000E+00  0.00000000E+00
  0.00000000E+00  0.00000000E+00  0.00000000E+00
  0.00000000E+00  0.00000000E+00  0.00000000E+00
  0.00000000E+00  0.00000000E+00  0.00000000E+00
  0.00000000E+00  0.00000000E+00  0.00000000E+00
  0.00000000E+00  0.00000000E+00  0.00000000E+00
  0.00000000E+00  0.00000000E+00  0.00000000E+00
  0.00000000E+00  0.00000000E+00  0.00000000E+00
  0.00000000E+00  0.00000000E+00  0.00000000E+00
  0.00000000E+00  0.00000000E+00  0.00000000E+00
  0.00000000E+00  0.00000000E+00  0.00000000E+00
  0.00000000E+00  0.00000000E+00  0.00000000E+00
  0.00000000E+00  0.00000000E+00  0.00000000E+00
  0.00000000E+00  0.00000000E+00  0.00000000E+00
  0.00000000E+00  0.00000000E+00  0.00000000E+00
  0.00000000E+00  0.00000000E+00  0.00000000E+00
  0.00000000E+00  0.00000000E+00  0.00000000E+00
  0.00000000E+00  0.00000000E+00  0.00000000E+00
  0.00000000E+00  0.00000000E+00  0.00000000E+00
  0.00000000E+00  0.00000000E+00  0.00000000E+00
  0.00000000E+00  0.00000000E+00  0.00000000E+00
  0.00000000E+00  0.00000000E+00  0.00000000E+00
  0.00000000E+00  0.00000000E+00  0.00000000E+00
  0.00000000E+00  0.00000000E+00  0.00000000E+00
  0.00000000E+00  0.00000000E+00  0.00000000E+00
  0.00000000E+00  0.00000000E+00  0.00000000E+00
  0.00000000E+00  0.00000000E+00  0.00000000E+00
  0.00000000E+00  0.00000000E+00  0.00000000E+00
  0.00000000E+00  0.00000000E+00  0.00000000E+00
  0.00000000E+00  0.00000000E+00  0.00000000E+00
  0.00000000E+00  0.00000000E+00  0.00000000E+00
  0.00000000E+00  0.00000000E+00  0.00000000E+00
  0.00000000E+00  0.00000000E+00  0.00000000E+00
