126                                     
   1.00000000000000     
    12.3312997818000003    0.0000000000000000    0.0000000000000000
     0.0001127485000000   12.8291997905000006    0.0000000000000000
     0.0005937186000000    0.0011528207000000   19.9943999824000009
   C    N    Fe   Ni   O    H 
    53     3     1     1     1     1
Direct
  0.0567777569415967  0.0542138498340075  0.0523354253691014
  0.1571155463097428  0.1094828911290490  0.0525107300563795
  0.1568892957266694  0.2204673128325929  0.0513902533846360
  0.0569905625230872  0.2757725543575722  0.0500606951555054
  0.2576658832418518  0.0548091416464166  0.0541613081973363
  0.3577780172080199  0.1112201168686048  0.0564595774914293
  0.3571681165185810  0.2233321158232159  0.0559824225393659
  0.2562873641546651  0.2765090386315780  0.0524570730409964
  0.4576709775233042  0.0555777910353246  0.0593681312370731
  0.5566402995081269  0.1141783883443802  0.0612806196111938
  0.5569040573918560  0.2277191347343676  0.0615808680706838
  0.4555669257795979  0.2835791195497377  0.0590980057438954
  0.6556289634847174  0.0545664949371808  0.0610500470739309
  0.7557666702288880  0.1107093928644065  0.0578016837328813
  0.7569264605796819  0.2227510992744719  0.0572598046919077
  0.6588299366393459  0.2834860850420833  0.0611490528883029
  0.8557380396795445  0.0544228674139221  0.0551546231310780
  0.9563741862349912  0.1093572127003737  0.0528988851254387
  0.9571140088249684  0.2202872490828074  0.0517858413232644
  0.8576342146055670  0.2763258146699837  0.0533767817621096
  0.0572425585932403  0.3869119260461875  0.0484683794417571
  0.1558264481508288  0.4430764023957288  0.0484763019529904
  0.1558097644039796  0.5541983991992775  0.0482791736757486
  0.0567835424881000  0.6099211472656143  0.0481974889867593
  0.2551174288445337  0.3875156266760579  0.0507978317597044
  0.3539114514224534  0.4424120963433233  0.0536454994889029
  0.3543840709694498  0.5553014377757193  0.0535872656654510
  0.2549114318414391  0.6100383068578490  0.0503694446418244
  0.7604864334651625  0.4437123199251408  0.0556204846289869
  0.8591256851703961  0.3871017016696943  0.0516872625228067
  0.9579543384086995  0.4427695773910379  0.0487583151249324
  0.9576866130155675  0.5536103847982758  0.0485899375012851
  0.8573009313405405  0.6079102585907034  0.0506090071562729
  0.0569675948650053  0.7213740865482189  0.0492681721215027
  0.1562077537079108  0.7770073135314428  0.0503167720486344
  0.1569002745083745  0.8882735175159165  0.0517239875010579
  0.0566430918978563  0.9433784782444267  0.0520042187209721
  0.2556349109278613  0.7210545986620339  0.0513584489319893
  0.3558585169666463  0.7747785353392390  0.0550187862324273
  0.3573023158570820  0.8869521868302399  0.0561839029074944
  0.2573649641089903  0.9432068096443875  0.0537841761638201
  0.4542213632964140  0.7151883121384873  0.0597288656297756
  0.5556860987209304  0.8832918060013515  0.0641942044941046
  0.4572584722391236  0.9426275651895157  0.0598349575557341
  0.7558077787783340  0.8854478254739758  0.0594168860118634
  0.6554204544840345  0.9421061375734994  0.0627167954803384
  0.8579074942891781  0.7211080746049275  0.0526118901750715
  0.9570451907898534  0.7769125230384684  0.0510094970136122
  0.9563236483359467  0.8880298913076445  0.0525640690541160
  0.8556325710126123  0.9427310396828728  0.0552973687291469
  0.7576955473257637  0.5545175131923403  0.0541310005868117
  0.5535665496436553  0.7713734258405489  0.0680536804643086
  0.7582970009706964  0.7743762101812882  0.0594550835320244
  0.4507205065966923  0.3915372603277776  0.0585754260699836
  0.4512836759636248  0.6057676123139017  0.0584472470529618
  0.6639358922677467  0.3904566920739840  0.0624427474167185
  0.6603548825296860  0.6695071898420960  0.0909079761028128
  0.5586362346139236  0.4956824202057534  0.0718935591443787
  0.6092266205519271  0.5828996445975549  0.1595800077666422
  0.5472926705309027  0.6107660183914402  0.1841020369177373
 
  0.00000000E+00  0.00000000E+00  0.00000000E+00
  0.00000000E+00  0.00000000E+00  0.00000000E+00
  0.00000000E+00  0.00000000E+00  0.00000000E+00
  0.00000000E+00  0.00000000E+00  0.00000000E+00
  0.00000000E+00  0.00000000E+00  0.00000000E+00
  0.00000000E+00  0.00000000E+00  0.00000000E+00
  0.00000000E+00  0.00000000E+00  0.00000000E+00
  0.00000000E+00  0.00000000E+00  0.00000000E+00
  0.00000000E+00  0.00000000E+00  0.00000000E+00
  0.00000000E+00  0.00000000E+00  0.00000000E+00
  0.00000000E+00  0.00000000E+00  0.00000000E+00
  0.00000000E+00  0.00000000E+00  0.00000000E+00
  0.00000000E+00  0.00000000E+00  0.00000000E+00
  0.00000000E+00  0.00000000E+00  0.00000000E+00
  0.00000000E+00  0.00000000E+00  0.00000000E+00
  0.00000000E+00  0.00000000E+00  0.00000000E+00
  0.00000000E+00  0.00000000E+00  0.00000000E+00
  0.00000000E+00  0.00000000E+00  0.00000000E+00
  0.00000000E+00  0.00000000E+00  0.00000000E+00
  0.00000000E+00  0.00000000E+00  0.00000000E+00
  0.00000000E+00  0.00000000E+00  0.00000000E+00
  0.00000000E+00  0.00000000E+00  0.00000000E+00
  0.00000000E+00  0.00000000E+00  0.00000000E+00
  0.00000000E+00  0.00000000E+00  0.00000000E+00
  0.00000000E+00  0.00000000E+00  0.00000000E+00
  0.00000000E+00  0.00000000E+00  0.00000000E+00
  0.00000000E+00  0.00000000E+00  0.00000000E+00
  0.00000000E+00  0.00000000E+00  0.00000000E+00
  0.00000000E+00  0.00000000E+00  0.00000000E+00
  0.00000000E+00  0.00000000E+00  0.00000000E+00
  0.00000000E+00  0.00000000E+00  0.00000000E+00
  0.00000000E+00  0.00000000E+00  0.00000000E+00
  0.00000000E+00  0.00000000E+00  0.00000000E+00
  0.00000000E+00  0.00000000E+00  0.00000000E+00
  0.00000000E+00  0.00000000E+00  0.00000000E+00
  0.00000000E+00  0.00000000E+00  0.00000000E+00
  0.00000000E+00  0.00000000E+00  0.00000000E+00
  0.00000000E+00  0.00000000E+00  0.00000000E+00
  0.00000000E+00  0.00000000E+00  0.00000000E+00
  0.00000000E+00  0.00000000E+00  0.00000000E+00
  0.00000000E+00  0.00000000E+00  0.00000000E+00
  0.00000000E+00  0.00000000E+00  0.00000000E+00
  0.00000000E+00  0.00000000E+00  0.00000000E+00
  0.00000000E+00  0.00000000E+00  0.00000000E+00
  0.00000000E+00  0.00000000E+00  0.00000000E+00
  0.00000000E+00  0.00000000E+00  0.00000000E+00
  0.00000000E+00  0.00000000E+00  0.00000000E+00
  0.00000000E+00  0.00000000E+00  0.00000000E+00
  0.00000000E+00  0.00000000E+00  0.00000000E+00
  0.00000000E+00  0.00000000E+00  0.00000000E+00
  0.00000000E+00  0.00000000E+00  0.00000000E+00
  0.00000000E+00  0.00000000E+00  0.00000000E+00
  0.00000000E+00  0.00000000E+00  0.00000000E+00
  0.00000000E+00  0.00000000E+00  0.00000000E+00
  0.00000000E+00  0.00000000E+00  0.00000000E+00
  0.00000000E+00  0.00000000E+00  0.00000000E+00
  0.00000000E+00  0.00000000E+00  0.00000000E+00
  0.00000000E+00  0.00000000E+00  0.00000000E+00
  0.00000000E+00  0.00000000E+00  0.00000000E+00
  0.00000000E+00  0.00000000E+00  0.00000000E+00
