CONTCAR\(9)                             
   1.00000000000000     
    12.3312997818000003    0.0000000000000000    0.0000000000000000
     0.0001127485000000   12.8291997905000006    0.0000000000000000
     0.0005937186000000    0.0011528207000000   19.9943999824000009
   C    N    Fe   Ni   H 
    53     3     1     1     2
Direct
  0.0554867326931345  0.0540828032425408  0.0548409759649283
  0.1556571842356674  0.1101070272048339  0.0546486045068511
  0.1568194348515320  0.2210264911969364  0.0543497764503863
  0.0567349394998963  0.2755687613345882  0.0541594036609988
  0.2558276551488328  0.0555354664237829  0.0545885881404268
  0.3566110793190110  0.1108363869067129  0.0548911812104537
  0.3577850232844545  0.2225904541958726  0.0547735612591048
  0.2572502415985928  0.2769528234532369  0.0541537809290091
  0.4560680543398921  0.0543969855591749  0.0553649034428480
  0.5569636361134799  0.1096363464786918  0.0560858595592084
  0.5577404800125595  0.2214383115653633  0.0561049865696760
  0.4582861990566025  0.2797077368465828  0.0552571367956566
  0.6560557089329058  0.0498867108238394  0.0565184174112818
  0.7556126871509464  0.1075200849468916  0.0559757608816140
  0.7568724406441689  0.2198985680175096  0.0557251979091901
  0.6584920595583417  0.2786975073322321  0.0564779674712511
  0.8548989531580365  0.0514926030866870  0.0555266683783526
  0.9552008442135587  0.1082950646775157  0.0550660992207458
  0.9564718460242542  0.2198664926323103  0.0546638996063562
  0.8567943480896874  0.2757517701964599  0.0547860233365446
  0.0579930406758905  0.3868864632162577  0.0535173231237606
  0.1571580392142675  0.4430043795329432  0.0531120458526354
  0.1568775035301507  0.5543440007920184  0.0526665172228592
  0.0568299720616732  0.6093593046340939  0.0527100913156377
  0.2574659215235669  0.3881755160837769  0.0534843357196688
  0.3569417338216120  0.4443593471771140  0.0535428171014317
  0.3579842518862444  0.5578288602118130  0.0531525226253034
  0.2562597054948413  0.6110482531747109  0.0526797778630397
  0.7605081607538009  0.4460019883116959  0.0554583306014730
  0.8588753212692676  0.3875983889771146  0.0542051742824965
  0.9585575960968561  0.4422993656732960  0.0534436026335106
  0.9577510915426173  0.5532074260602745  0.0530698143202995
  0.8568233249172781  0.6070702658747871  0.0540115816008509
  0.0556138233479354  0.7204257843016005  0.0529845067192821
  0.1539672062747311  0.7770515248467423  0.0530861478012163
  0.1545368216302593  0.8882234004313179  0.0538883842871331
  0.0547345639235784  0.9429479355275527  0.0544828467145878
  0.2533960965921999  0.7218851712561449  0.0528221624049049
  0.3511064569637694  0.7787924293503729  0.0536745647397904
  0.3533449993503214  0.8893114405072524  0.0543530714895160
  0.2541988269160111  0.9446653385405203  0.0542357767223405
  0.4495276936491059  0.7235945583564701  0.0548765240427904
  0.5522616692595047  0.8833083208203490  0.0568323901170970
  0.4541526259325215  0.9430877153312131  0.0552245703018187
  0.7553791141411565  0.8792013858140538  0.0564650813846501
  0.6552773162304396  0.9368309134954919  0.0571115614393732
  0.8566159451756094  0.7198726778575070  0.0543573504730669
  0.9558293939143202  0.7752146309402682  0.0537205406010897
  0.9553750760275265  0.8863265963388512  0.0545510353038405
  0.8542729463322761  0.9391108588795997  0.0554833677491043
  0.4568296219928483  0.3912445086290773  0.0548365108807899
  0.4576884060621333  0.6133144309968884  0.0541607169887483
  0.6611592509685302  0.3889961158241310  0.0572499282772603
  0.7598247932661122  0.5557163995475071  0.0557073867124111
  0.5461112379930738  0.7775242636738234  0.0582582232601911
  0.7584578079518733  0.7694435916659520  0.0564702090933158
  0.6411769955141040  0.6660441094802610  0.0630736215390648
  0.5643542323133367  0.4931844553437372  0.0582363950570979
  0.6155335255434535  0.6121141852122403  0.1462723588488246
  0.6444183610196305  0.6673553971894418  0.1541420290828122
 
  0.00000000E+00  0.00000000E+00  0.00000000E+00
  0.00000000E+00  0.00000000E+00  0.00000000E+00
  0.00000000E+00  0.00000000E+00  0.00000000E+00
  0.00000000E+00  0.00000000E+00  0.00000000E+00
  0.00000000E+00  0.00000000E+00  0.00000000E+00
  0.00000000E+00  0.00000000E+00  0.00000000E+00
  0.00000000E+00  0.00000000E+00  0.00000000E+00
  0.00000000E+00  0.00000000E+00  0.00000000E+00
  0.00000000E+00  0.00000000E+00  0.00000000E+00
  0.00000000E+00  0.00000000E+00  0.00000000E+00
  0.00000000E+00  0.00000000E+00  0.00000000E+00
  0.00000000E+00  0.00000000E+00  0.00000000E+00
  0.00000000E+00  0.00000000E+00  0.00000000E+00
  0.00000000E+00  0.00000000E+00  0.00000000E+00
  0.00000000E+00  0.00000000E+00  0.00000000E+00
  0.00000000E+00  0.00000000E+00  0.00000000E+00
  0.00000000E+00  0.00000000E+00  0.00000000E+00
  0.00000000E+00  0.00000000E+00  0.00000000E+00
  0.00000000E+00  0.00000000E+00  0.00000000E+00
  0.00000000E+00  0.00000000E+00  0.00000000E+00
  0.00000000E+00  0.00000000E+00  0.00000000E+00
  0.00000000E+00  0.00000000E+00  0.00000000E+00
  0.00000000E+00  0.00000000E+00  0.00000000E+00
  0.00000000E+00  0.00000000E+00  0.00000000E+00
  0.00000000E+00  0.00000000E+00  0.00000000E+00
  0.00000000E+00  0.00000000E+00  0.00000000E+00
  0.00000000E+00  0.00000000E+00  0.00000000E+00
  0.00000000E+00  0.00000000E+00  0.00000000E+00
  0.00000000E+00  0.00000000E+00  0.00000000E+00
  0.00000000E+00  0.00000000E+00  0.00000000E+00
  0.00000000E+00  0.00000000E+00  0.00000000E+00
  0.00000000E+00  0.00000000E+00  0.00000000E+00
  0.00000000E+00  0.00000000E+00  0.00000000E+00
  0.00000000E+00  0.00000000E+00  0.00000000E+00
  0.00000000E+00  0.00000000E+00  0.00000000E+00
  0.00000000E+00  0.00000000E+00  0.00000000E+00
  0.00000000E+00  0.00000000E+00  0.00000000E+00
  0.00000000E+00  0.00000000E+00  0.00000000E+00
  0.00000000E+00  0.00000000E+00  0.00000000E+00
  0.00000000E+00  0.00000000E+00  0.00000000E+00
  0.00000000E+00  0.00000000E+00  0.00000000E+00
  0.00000000E+00  0.00000000E+00  0.00000000E+00
  0.00000000E+00  0.00000000E+00  0.00000000E+00
  0.00000000E+00  0.00000000E+00  0.00000000E+00
  0.00000000E+00  0.00000000E+00  0.00000000E+00
  0.00000000E+00  0.00000000E+00  0.00000000E+00
  0.00000000E+00  0.00000000E+00  0.00000000E+00
  0.00000000E+00  0.00000000E+00  0.00000000E+00
  0.00000000E+00  0.00000000E+00  0.00000000E+00
  0.00000000E+00  0.00000000E+00  0.00000000E+00
  0.00000000E+00  0.00000000E+00  0.00000000E+00
  0.00000000E+00  0.00000000E+00  0.00000000E+00
  0.00000000E+00  0.00000000E+00  0.00000000E+00
  0.00000000E+00  0.00000000E+00  0.00000000E+00
  0.00000000E+00  0.00000000E+00  0.00000000E+00
  0.00000000E+00  0.00000000E+00  0.00000000E+00
  0.00000000E+00  0.00000000E+00  0.00000000E+00
  0.00000000E+00  0.00000000E+00  0.00000000E+00
  0.00000000E+00  0.00000000E+00  0.00000000E+00
  0.00000000E+00  0.00000000E+00  0.00000000E+00
