CONTCAR                                 
   1.00000000000000     
    12.3312997818000003    0.0000000000000000    0.0000000000000000
     0.0001127485000000   12.8291997905000006    0.0000000000000000
     0.0005937186000000    0.0011528207000000   19.9943999824000009
   C    N    Fe   Ni   H 
    55     1     1     1     1
Direct
  0.0557757237606743  0.0549633386705701  0.0523050798906378
  0.1558638734557343  0.1109660858273652  0.0527247373901721
  0.1568921081660963  0.2217288021984684  0.0522414313549666
  0.0568094159839753  0.2763163118725912  0.0508871590673036
  0.2559043559318527  0.0563477749171748  0.0540293034985214
  0.3562522992830969  0.1118205364529665  0.0566307988004887
  0.3573592069845011  0.2233475597552223  0.0570247950680933
  0.2570795961866991  0.2776693340204631  0.0537239436552417
  0.4556969064112704  0.0554730052825340  0.0589476256827011
  0.5561541889321020  0.1108448753554435  0.0610741247816726
  0.5569096455996959  0.2221057764382875  0.0622084647372006
  0.4575209193801205  0.2805125812325808  0.0606089238989119
  0.6553336013406326  0.0518704042213655  0.0606356863866162
  0.7555981102108524  0.1086155289032258  0.0578618853275547
  0.7567767300588802  0.2203251700560341  0.0575790162430454
  0.6576980141433729  0.2782560033078391  0.0620450122375300
  0.8551901197005457  0.0526545838631703  0.0552109950275161
  0.9554118952009146  0.1092434267167404  0.0531334348271110
  0.9565067827787366  0.2204528799382151  0.0521588466018829
  0.8568483635624574  0.2761341732125769  0.0534551107696479
  0.0579092868769657  0.3874511681642944  0.0496175811052884
  0.1572087100072541  0.4436735433412525  0.0499307137877131
  0.1575167214548488  0.5550682189694848  0.0492828648515536
  0.0578068702370659  0.6101126285377563  0.0484978801313849
  0.2571805257598704  0.3887010012388091  0.0524641896479326
  0.3565829626476795  0.4448099708644971  0.0555208744908480
  0.3574821420130495  0.5581657485713608  0.0546260013220472
  0.2564240173813980  0.6119111283026876  0.0510082772789442
  0.7595095224917034  0.4450114061590016  0.0558849493893255
  0.8586191536585494  0.3874501119900400  0.0514937075775471
  0.9583558927035267  0.4425970808099900  0.0492383477962567
  0.9589799625601759  0.5533684778427895  0.0488986067087538
  0.8595528571074776  0.6085419439803752  0.0507226483105799
  0.0569794866360791  0.7215890286799926  0.0489754300995400
  0.1551830570747499  0.7780388459142861  0.0496676120939999
  0.1550185625765990  0.8891786707320661  0.0509467616943046
  0.0551127864516501  0.9441243488104566  0.0514647926201859
  0.2544859544208239  0.7226206654293147  0.0507884657824459
  0.3522078978854936  0.7794439650104116  0.0541825804849287
  0.3536353354773498  0.8900664595987150  0.0552543966672394
  0.2545510782110150  0.9454865521723080  0.0530665972094722
  0.4505085734993264  0.7242538519640512  0.0602323459129925
  0.5522314334863917  0.8852704167724115  0.0630614949102406
  0.4540140422829017  0.9443546355122509  0.0589113964351883
  0.7544391099654527  0.8819612589151776  0.0582071917363342
  0.6545026881391639  0.9398466924531964  0.0615671243724154
  0.8596427148098398  0.7206863383085432  0.0520662044273793
  0.9574785213493991  0.7770717701230995  0.0504704106506874
  0.9555345564338431  0.8878231853817762  0.0519561788089542
  0.8543820702170604  0.9408822610209373  0.0549287250740616
  0.4562738709863063  0.3916948957087878  0.0608143979373717
  0.4559793885529746  0.6134350067193866  0.0603867839274499
  0.6611977576624606  0.3878127576371277  0.0645147584650983
  0.7589594939187349  0.5571100979418493  0.0554795006008275
  0.7580407846538252  0.7703167273360543  0.0566420689792955
  0.5469300178455206  0.7793265090518768  0.0673659316600297
  0.6459676165807204  0.6654369047582444  0.0707451076977936
  0.5640536181109984  0.4930880910876733  0.0741211159543069
  0.6076790447995160  0.5705595119448229  0.1312596011524767
 
  0.00000000E+00  0.00000000E+00  0.00000000E+00
  0.00000000E+00  0.00000000E+00  0.00000000E+00
  0.00000000E+00  0.00000000E+00  0.00000000E+00
  0.00000000E+00  0.00000000E+00  0.00000000E+00
  0.00000000E+00  0.00000000E+00  0.00000000E+00
  0.00000000E+00  0.00000000E+00  0.00000000E+00
  0.00000000E+00  0.00000000E+00  0.00000000E+00
  0.00000000E+00  0.00000000E+00  0.00000000E+00
  0.00000000E+00  0.00000000E+00  0.00000000E+00
  0.00000000E+00  0.00000000E+00  0.00000000E+00
  0.00000000E+00  0.00000000E+00  0.00000000E+00
  0.00000000E+00  0.00000000E+00  0.00000000E+00
  0.00000000E+00  0.00000000E+00  0.00000000E+00
  0.00000000E+00  0.00000000E+00  0.00000000E+00
  0.00000000E+00  0.00000000E+00  0.00000000E+00
  0.00000000E+00  0.00000000E+00  0.00000000E+00
  0.00000000E+00  0.00000000E+00  0.00000000E+00
  0.00000000E+00  0.00000000E+00  0.00000000E+00
  0.00000000E+00  0.00000000E+00  0.00000000E+00
  0.00000000E+00  0.00000000E+00  0.00000000E+00
  0.00000000E+00  0.00000000E+00  0.00000000E+00
  0.00000000E+00  0.00000000E+00  0.00000000E+00
  0.00000000E+00  0.00000000E+00  0.00000000E+00
  0.00000000E+00  0.00000000E+00  0.00000000E+00
  0.00000000E+00  0.00000000E+00  0.00000000E+00
  0.00000000E+00  0.00000000E+00  0.00000000E+00
  0.00000000E+00  0.00000000E+00  0.00000000E+00
  0.00000000E+00  0.00000000E+00  0.00000000E+00
  0.00000000E+00  0.00000000E+00  0.00000000E+00
  0.00000000E+00  0.00000000E+00  0.00000000E+00
  0.00000000E+00  0.00000000E+00  0.00000000E+00
  0.00000000E+00  0.00000000E+00  0.00000000E+00
  0.00000000E+00  0.00000000E+00  0.00000000E+00
  0.00000000E+00  0.00000000E+00  0.00000000E+00
  0.00000000E+00  0.00000000E+00  0.00000000E+00
  0.00000000E+00  0.00000000E+00  0.00000000E+00
  0.00000000E+00  0.00000000E+00  0.00000000E+00
  0.00000000E+00  0.00000000E+00  0.00000000E+00
  0.00000000E+00  0.00000000E+00  0.00000000E+00
  0.00000000E+00  0.00000000E+00  0.00000000E+00
  0.00000000E+00  0.00000000E+00  0.00000000E+00
  0.00000000E+00  0.00000000E+00  0.00000000E+00
  0.00000000E+00  0.00000000E+00  0.00000000E+00
  0.00000000E+00  0.00000000E+00  0.00000000E+00
  0.00000000E+00  0.00000000E+00  0.00000000E+00
  0.00000000E+00  0.00000000E+00  0.00000000E+00
  0.00000000E+00  0.00000000E+00  0.00000000E+00
  0.00000000E+00  0.00000000E+00  0.00000000E+00
  0.00000000E+00  0.00000000E+00  0.00000000E+00
  0.00000000E+00  0.00000000E+00  0.00000000E+00
  0.00000000E+00  0.00000000E+00  0.00000000E+00
  0.00000000E+00  0.00000000E+00  0.00000000E+00
  0.00000000E+00  0.00000000E+00  0.00000000E+00
  0.00000000E+00  0.00000000E+00  0.00000000E+00
  0.00000000E+00  0.00000000E+00  0.00000000E+00
  0.00000000E+00  0.00000000E+00  0.00000000E+00
  0.00000000E+00  0.00000000E+00  0.00000000E+00
  0.00000000E+00  0.00000000E+00  0.00000000E+00
  0.00000000E+00  0.00000000E+00  0.00000000E+00
