34                                      
   1.00000000000000     
    12.3312997818000003    0.0000000000000000    0.0000000000000000
     0.0001127485000000   12.8291997905000006    0.0000000000000000
     0.0005937186000000    0.0011528207000000   19.9943999824000009
   C    N    Fe   Ni   O 
    54     2     1     1     1
Direct
  0.0559307299127729  0.0555104617364111  0.0510567172232280
  0.1561003656898380  0.1107412178659874  0.0508910980123030
  0.1561259421804423  0.2216348247593567  0.0501709328806228
  0.0558355972673398  0.2767486753828945  0.0495531377366576
  0.2564429922006147  0.0553864247356429  0.0520201714610676
  0.3568228705360356  0.1105953361993892  0.0555240653789407
  0.3569007619222577  0.2222560998970894  0.0557198002523057
  0.2564877451296991  0.2768987397458134  0.0510722940087001
  0.4564442629173618  0.0542731444475434  0.0591208734466811
  0.5567509198566050  0.1097946083306165  0.0632458230689152
  0.5565245420271935  0.2216492880895881  0.0649241566956475
  0.4566931107521218  0.2791455347145619  0.0612546160403994
  0.6562968454901708  0.0506865462291231  0.0637663983419459
  0.7553732046756626  0.1090364024564048  0.0611755174404981
  0.7557057804134063  0.2217353859096567  0.0615767866748082
  0.6563736578767062  0.2798291472699706  0.0664457723789979
  0.8552090823786187  0.0537035924171832  0.0569780790458480
  0.9553185697980631  0.1100817564177735  0.0534045336720315
  0.9555253730318318  0.2215132198299660  0.0527249187608275
  0.8554572393668157  0.2775878528978529  0.0564718930262730
  0.0563416561545301  0.3880707510302178  0.0471119304043544
  0.1560891951158040  0.4432344728469983  0.0450793375856405
  0.1568302792598962  0.5547229175912789  0.0432576866783560
  0.0575760118754765  0.6104069245005400  0.0432041452952286
  0.2560974086648735  0.3877636458145420  0.0481664434072192
  0.3557056547004398  0.4431977930919259  0.0513996158858298
  0.3568158297251495  0.5563133109978168  0.0487707843818154
  0.2562534303618175  0.6110038812549455  0.0444579230413079
  0.7568999272720722  0.4477344277753482  0.0624565067640476
  0.8563989645012405  0.3894937235183356  0.0551868764102533
  0.9564571039283755  0.4440177393715292  0.0487161769724978
  0.9579500120211759  0.5550778636491884  0.0462553760193813
  0.8592552421955026  0.6115669986955378  0.0518447378759622
  0.0574949823519111  0.7218011231899972  0.0440275264350168
  0.1561571104347185  0.7777447341190323  0.0446069518223988
  0.1560762255835984  0.8888828748438081  0.0474681502417892
  0.0563017898758326  0.9446034488139349  0.0494204617698684
  0.2556756460987842  0.7216919372867594  0.0452781412086576
  0.3543923113995677  0.7771884021537939  0.0505431589381073
  0.3553988779552291  0.8881944158997541  0.0527876357613579
  0.2559214550972901  0.9443587176308817  0.0502738748220681
  0.4536646663098830  0.7212568454921544  0.0568741116682198
  0.5533545784071039  0.8825785145729822  0.0637678068310634
  0.4554818525901272  0.9426120732900279  0.0582544134313427
  0.7577435048028873  0.8817384876926891  0.0615529717252275
  0.6562632497748065  0.9374713908907701  0.0645938955153522
  0.8600518458301342  0.7238216600668438  0.0528969688631135
  0.9584395170870832  0.7783364292484040  0.0480537189418303
  0.9569938110566374  0.8888901435796424  0.0510055364337817
  0.8558116681131803  0.9417247732647209  0.0564404036998706
  0.4544176205891981  0.3903036271199859  0.0614773859217368
  0.4552947793729825  0.6100508727489515  0.0551208597713301
  0.6587311584512400  0.3903744645050030  0.0706776547434635
  0.7605528845796036  0.5600776770940246  0.0627082964688062
  0.5483630385628510  0.7764817608749169  0.0662176392510504
  0.7629517584643836  0.7733027461475213  0.0615501958700503
  0.6535194404009990  0.6634175148924079  0.0866441136017067
  0.5537338704396699  0.4909761362844952  0.0906576530573043
  0.6037118481703692  0.5873565588254703  0.1501353579368652
 
  0.00000000E+00  0.00000000E+00  0.00000000E+00
  0.00000000E+00  0.00000000E+00  0.00000000E+00
  0.00000000E+00  0.00000000E+00  0.00000000E+00
  0.00000000E+00  0.00000000E+00  0.00000000E+00
  0.00000000E+00  0.00000000E+00  0.00000000E+00
  0.00000000E+00  0.00000000E+00  0.00000000E+00
  0.00000000E+00  0.00000000E+00  0.00000000E+00
  0.00000000E+00  0.00000000E+00  0.00000000E+00
  0.00000000E+00  0.00000000E+00  0.00000000E+00
  0.00000000E+00  0.00000000E+00  0.00000000E+00
  0.00000000E+00  0.00000000E+00  0.00000000E+00
  0.00000000E+00  0.00000000E+00  0.00000000E+00
  0.00000000E+00  0.00000000E+00  0.00000000E+00
  0.00000000E+00  0.00000000E+00  0.00000000E+00
  0.00000000E+00  0.00000000E+00  0.00000000E+00
  0.00000000E+00  0.00000000E+00  0.00000000E+00
  0.00000000E+00  0.00000000E+00  0.00000000E+00
  0.00000000E+00  0.00000000E+00  0.00000000E+00
  0.00000000E+00  0.00000000E+00  0.00000000E+00
  0.00000000E+00  0.00000000E+00  0.00000000E+00
  0.00000000E+00  0.00000000E+00  0.00000000E+00
  0.00000000E+00  0.00000000E+00  0.00000000E+00
  0.00000000E+00  0.00000000E+00  0.00000000E+00
  0.00000000E+00  0.00000000E+00  0.00000000E+00
  0.00000000E+00  0.00000000E+00  0.00000000E+00
  0.00000000E+00  0.00000000E+00  0.00000000E+00
  0.00000000E+00  0.00000000E+00  0.00000000E+00
  0.00000000E+00  0.00000000E+00  0.00000000E+00
  0.00000000E+00  0.00000000E+00  0.00000000E+00
  0.00000000E+00  0.00000000E+00  0.00000000E+00
  0.00000000E+00  0.00000000E+00  0.00000000E+00
  0.00000000E+00  0.00000000E+00  0.00000000E+00
  0.00000000E+00  0.00000000E+00  0.00000000E+00
  0.00000000E+00  0.00000000E+00  0.00000000E+00
  0.00000000E+00  0.00000000E+00  0.00000000E+00
  0.00000000E+00  0.00000000E+00  0.00000000E+00
  0.00000000E+00  0.00000000E+00  0.00000000E+00
  0.00000000E+00  0.00000000E+00  0.00000000E+00
  0.00000000E+00  0.00000000E+00  0.00000000E+00
  0.00000000E+00  0.00000000E+00  0.00000000E+00
  0.00000000E+00  0.00000000E+00  0.00000000E+00
  0.00000000E+00  0.00000000E+00  0.00000000E+00
  0.00000000E+00  0.00000000E+00  0.00000000E+00
  0.00000000E+00  0.00000000E+00  0.00000000E+00
  0.00000000E+00  0.00000000E+00  0.00000000E+00
  0.00000000E+00  0.00000000E+00  0.00000000E+00
  0.00000000E+00  0.00000000E+00  0.00000000E+00
  0.00000000E+00  0.00000000E+00  0.00000000E+00
  0.00000000E+00  0.00000000E+00  0.00000000E+00
  0.00000000E+00  0.00000000E+00  0.00000000E+00
  0.00000000E+00  0.00000000E+00  0.00000000E+00
  0.00000000E+00  0.00000000E+00  0.00000000E+00
  0.00000000E+00  0.00000000E+00  0.00000000E+00
  0.00000000E+00  0.00000000E+00  0.00000000E+00
  0.00000000E+00  0.00000000E+00  0.00000000E+00
  0.00000000E+00  0.00000000E+00  0.00000000E+00
  0.00000000E+00  0.00000000E+00  0.00000000E+00
  0.00000000E+00  0.00000000E+00  0.00000000E+00
  0.00000000E+00  0.00000000E+00  0.00000000E+00
