CONTCAR                                 
   1.00000000000000     
    12.3312997818000003    0.0000000000000000    0.0000000000000000
     0.0001127485000000   12.8291997905000006    0.0000000000000000
     0.0005937186000000    0.0011528207000000   19.9943999824000009
   C    N    Fe   Ni   H 
    52     4     1     1     1
Direct
  0.0558189174058920  0.0542643739312290  0.0520455304998778
  0.1563864426240530  0.1097277035279846  0.0521255058117011
  0.1563237116479511  0.2205994689713043  0.0503437993612299
  0.0564088951740854  0.2758884196293242  0.0491373618611073
  0.2570020332447921  0.0554148665231662  0.0545799009946802
  0.3571292583988998  0.1120266169182227  0.0572999132942976
  0.3565663631369222  0.2237021558558678  0.0558425812748856
  0.2557021029126018  0.2768666740899791  0.0512221851650650
  0.4573250727442345  0.0568406242078726  0.0613404599927118
  0.5565080531738156  0.1154237247290574  0.0631141946868898
  0.5572333118525263  0.2298777942393846  0.0632336653596748
  0.4549049901722860  0.2844626577604508  0.0594044761246334
  0.6549939318511937  0.0551408431695734  0.0625366752028869
  0.7549136312194326  0.1117344012199486  0.0591645803214946
  0.7559996914192739  0.2242328891334734  0.0592245578328624
  0.6588256049132117  0.2863473320820618  0.0638780957107333
  0.8546918540044224  0.0545561760420778  0.0557406819555044
  0.9554397649804128  0.1094476150923888  0.0531493443556706
  0.9563003776408814  0.2206487940430051  0.0519579144012881
  0.8571994692178765  0.2770840726033512  0.0544158679627410
  0.0571965526573509  0.3866982532000818  0.0468586972332101
  0.1556880440053038  0.4434973617867168  0.0464799184576535
  0.1560110973617654  0.5544331034646960  0.0463983149455656
  0.0576522454710047  0.6106741660959647  0.0459082714578383
  0.2545902963648020  0.3879266852404458  0.0492884395723126
  0.3530290382234926  0.4429970161444989  0.0535610578108572
  0.3531586957953396  0.5552432035663050  0.0561954959274573
  0.2547307960823562  0.6104756761577468  0.0506151374170531
  0.7624280342737286  0.4463269068044267  0.0572448291874140
  0.8594952261553780  0.3878952940251126  0.0518616750247663
  0.9586623558980604  0.4426252540465846  0.0473858774328155
  0.9593122220662463  0.5534506671727857  0.0466129520717693
  0.8603322933880252  0.6067078811559411  0.0491924526803582
  0.0566337119566373  0.7215157305765156  0.0475656193119011
  0.1557425820558938  0.7776196312681680  0.0499449494110438
  0.1562113276728424  0.8886339574133580  0.0516809097291099
  0.0556342007362120  0.9434737275086655  0.0514172389786320
  0.2547560214936585  0.7216586071871958  0.0524745724088934
  0.3544083623673555  0.7757964700813771  0.0582837644955053
  0.3563857851801454  0.8878233058007065  0.0587115415274998
  0.2566489302170331  0.9438441135209298  0.0547513234157398
  0.4519318349966154  0.7162641854474409  0.0659915993455942
  0.5545315374644795  0.8846701088422773  0.0669250347240890
  0.4565690126149329  0.9439832203856372  0.0628330156587538
  0.7547102233084179  0.8843438879978525  0.0581416010003047
  0.6545598454535674  0.9421998291797919  0.0633829379621787
  0.8573753131397676  0.7195021323387444  0.0503197986891512
  0.9564696067444680  0.7762538595283929  0.0492495174036092
  0.9553127509521550  0.8876342966589816  0.0515111012602784
  0.8544492700349018  0.9423360237611809  0.0549005450243081
  0.5514801025959688  0.7726162827311613  0.0718859088539529
  0.7568847684088840  0.7729505973776176  0.0552673061075022
  0.4498230389327982  0.3915288675780178  0.0585625671143973
  0.4491833770695160  0.6063118245367795  0.0665862309551437
  0.6651582670044573  0.3956986586884978  0.0674768312151813
  0.7645171823593581  0.5530178540670796  0.0536580862354031
  0.6530173367735682  0.6653421702922105  0.0715576986660988
  0.5542415195898194  0.4968551105431817  0.0782136740861385
  0.6129336983989437  0.5715968510572006  0.1274362240305853
 
  0.00000000E+00  0.00000000E+00  0.00000000E+00
  0.00000000E+00  0.00000000E+00  0.00000000E+00
  0.00000000E+00  0.00000000E+00  0.00000000E+00
  0.00000000E+00  0.00000000E+00  0.00000000E+00
  0.00000000E+00  0.00000000E+00  0.00000000E+00
  0.00000000E+00  0.00000000E+00  0.00000000E+00
  0.00000000E+00  0.00000000E+00  0.00000000E+00
  0.00000000E+00  0.00000000E+00  0.00000000E+00
  0.00000000E+00  0.00000000E+00  0.00000000E+00
  0.00000000E+00  0.00000000E+00  0.00000000E+00
  0.00000000E+00  0.00000000E+00  0.00000000E+00
  0.00000000E+00  0.00000000E+00  0.00000000E+00
  0.00000000E+00  0.00000000E+00  0.00000000E+00
  0.00000000E+00  0.00000000E+00  0.00000000E+00
  0.00000000E+00  0.00000000E+00  0.00000000E+00
  0.00000000E+00  0.00000000E+00  0.00000000E+00
  0.00000000E+00  0.00000000E+00  0.00000000E+00
  0.00000000E+00  0.00000000E+00  0.00000000E+00
  0.00000000E+00  0.00000000E+00  0.00000000E+00
  0.00000000E+00  0.00000000E+00  0.00000000E+00
  0.00000000E+00  0.00000000E+00  0.00000000E+00
  0.00000000E+00  0.00000000E+00  0.00000000E+00
  0.00000000E+00  0.00000000E+00  0.00000000E+00
  0.00000000E+00  0.00000000E+00  0.00000000E+00
  0.00000000E+00  0.00000000E+00  0.00000000E+00
  0.00000000E+00  0.00000000E+00  0.00000000E+00
  0.00000000E+00  0.00000000E+00  0.00000000E+00
  0.00000000E+00  0.00000000E+00  0.00000000E+00
  0.00000000E+00  0.00000000E+00  0.00000000E+00
  0.00000000E+00  0.00000000E+00  0.00000000E+00
  0.00000000E+00  0.00000000E+00  0.00000000E+00
  0.00000000E+00  0.00000000E+00  0.00000000E+00
  0.00000000E+00  0.00000000E+00  0.00000000E+00
  0.00000000E+00  0.00000000E+00  0.00000000E+00
  0.00000000E+00  0.00000000E+00  0.00000000E+00
  0.00000000E+00  0.00000000E+00  0.00000000E+00
  0.00000000E+00  0.00000000E+00  0.00000000E+00
  0.00000000E+00  0.00000000E+00  0.00000000E+00
  0.00000000E+00  0.00000000E+00  0.00000000E+00
  0.00000000E+00  0.00000000E+00  0.00000000E+00
  0.00000000E+00  0.00000000E+00  0.00000000E+00
  0.00000000E+00  0.00000000E+00  0.00000000E+00
  0.00000000E+00  0.00000000E+00  0.00000000E+00
  0.00000000E+00  0.00000000E+00  0.00000000E+00
  0.00000000E+00  0.00000000E+00  0.00000000E+00
  0.00000000E+00  0.00000000E+00  0.00000000E+00
  0.00000000E+00  0.00000000E+00  0.00000000E+00
  0.00000000E+00  0.00000000E+00  0.00000000E+00
  0.00000000E+00  0.00000000E+00  0.00000000E+00
  0.00000000E+00  0.00000000E+00  0.00000000E+00
  0.00000000E+00  0.00000000E+00  0.00000000E+00
  0.00000000E+00  0.00000000E+00  0.00000000E+00
  0.00000000E+00  0.00000000E+00  0.00000000E+00
  0.00000000E+00  0.00000000E+00  0.00000000E+00
  0.00000000E+00  0.00000000E+00  0.00000000E+00
  0.00000000E+00  0.00000000E+00  0.00000000E+00
  0.00000000E+00  0.00000000E+00  0.00000000E+00
  0.00000000E+00  0.00000000E+00  0.00000000E+00
  0.00000000E+00  0.00000000E+00  0.00000000E+00
