CONTCAR                                 
   1.00000000000000     
    12.3312997818000003    0.0000000000000000    0.0000000000000000
     0.0001127485000000   12.8291997905000006    0.0000000000000000
     0.0005937186000000    0.0011528207000000   19.9943999824000009
   C    N    Fe   Ni   O 
    53     3     1     1     2
Direct
  0.0558097719388278  0.0544096581501565  0.0503201748368845
  0.1560226689194037  0.1103569188675768  0.0503757624902354
  0.1565102043547214  0.2212382466798824  0.0495219785408368
  0.0567672965398608  0.2761968442599595  0.0486820814723083
  0.2564011893335209  0.0561447179912141  0.0520076723991588
  0.3567309008650619  0.1124422212364792  0.0541947100623988
  0.3568867334981426  0.2242202689539830  0.0537499138896627
  0.2560953005571516  0.2773764252448208  0.0505785159990179
  0.4564523392868147  0.0571478618925399  0.0569407372473373
  0.5560916193841006  0.1142063400797624  0.0588713115021006
  0.5567117432256647  0.2275520316657622  0.0596987158287974
  0.4556731731205350  0.2836893095509872  0.0568854072564129
  0.6546935434254226  0.0539730340113050  0.0584673684659378
  0.7551442694784712  0.1098678120025897  0.0557310118712997
  0.7569817557310202  0.2218393175075743  0.0555968271660494
  0.6593269882950706  0.2823776709314313  0.0600718468559159
  0.8547022047555644  0.0533635013007073  0.0532190534532111
  0.9554063541154139  0.1091370680114372  0.0510471867774065
  0.9567585348237335  0.2202971038163133  0.0502886873658826
  0.8574347143251784  0.2762468200020491  0.0521808187317005
  0.0576478278919630  0.3873251773960789  0.0475587766519323
  0.1564031217830202  0.4437119344492466  0.0477833838432214
  0.1570678810208219  0.5550430240330275  0.0478015312709859
  0.0575934291608189  0.6101058743594601  0.0475117578570585
  0.2557031444146299  0.3882037204163697  0.0496281940303452
  0.3547296729233358  0.4432905847586258  0.0523042901346311
  0.3575969456439623  0.5563235655327201  0.0533777640582345
  0.2566695996698665  0.6108298903262426  0.0499140214887792
  0.7605504017583966  0.4439339674888055  0.0557302363649358
  0.8591838902450425  0.3872849413913627  0.0510361323243584
  0.9583029444588508  0.4427806544800515  0.0479766003838188
  0.9584281573984161  0.5534139637349370  0.0478427829109583
  0.8583257250931168  0.6073999566308611  0.0501506469215904
  0.0569428266005634  0.7214548114037949  0.0484415795090667
  0.1557203684544522  0.7773503660179916  0.0494962367496923
  0.1555269585128435  0.8887361025878545  0.0502724016811105
  0.0552829384130614  0.9434944280518455  0.0502580267633561
  0.2553826679970500  0.7217263329326470  0.0508112028639526
  0.3540042679683860  0.7779377879405068  0.0542104083764003
  0.3548856959034440  0.8894301214838803  0.0543760425875546
  0.2552620086591303  0.9448794791472411  0.0519324438354812
  0.4531790878384361  0.7222091317259232  0.0594364271816942
  0.5524692168587052  0.8858735991590662  0.0604832615521291
  0.4546805117815302  0.9450209177853601  0.0573060076698572
  0.7539132672012292  0.8830756038481483  0.0568596148634045
  0.6541894706158088  0.9412614556361394  0.0593832258356903
  0.8584407957711784  0.7200561645750634  0.0512052086035019
  0.9567917258942094  0.7765817231819362  0.0497545583399242
  0.9551987449107785  0.8875804321844850  0.0509566959085045
  0.8541243811338698  0.9413486141712555  0.0534277353850947
  0.4578002002858625  0.6094555041545018  0.0602486394389812
  0.7580101970777886  0.5553107901355944  0.0543132116487478
  0.7579233538469754  0.7711966363042734  0.0567169584717422
  0.4512943191730801  0.3919853325735997  0.0561041674658935
  0.6649108960230558  0.3885043011056302  0.0632167946473990
  0.5481486319534765  0.7795034042960786  0.0632502394166994
  0.6473264505281254  0.6672545188108872  0.0748318262612474
  0.5613164721164137  0.4919174401865787  0.0777004212418818
  0.6028750090365331  0.5392964691977926  0.1644087697572122
  0.6418855170080862  0.6397180902476067  0.1649120014903594
 
  0.00000000E+00  0.00000000E+00  0.00000000E+00
  0.00000000E+00  0.00000000E+00  0.00000000E+00
  0.00000000E+00  0.00000000E+00  0.00000000E+00
  0.00000000E+00  0.00000000E+00  0.00000000E+00
  0.00000000E+00  0.00000000E+00  0.00000000E+00
  0.00000000E+00  0.00000000E+00  0.00000000E+00
  0.00000000E+00  0.00000000E+00  0.00000000E+00
  0.00000000E+00  0.00000000E+00  0.00000000E+00
  0.00000000E+00  0.00000000E+00  0.00000000E+00
  0.00000000E+00  0.00000000E+00  0.00000000E+00
  0.00000000E+00  0.00000000E+00  0.00000000E+00
  0.00000000E+00  0.00000000E+00  0.00000000E+00
  0.00000000E+00  0.00000000E+00  0.00000000E+00
  0.00000000E+00  0.00000000E+00  0.00000000E+00
  0.00000000E+00  0.00000000E+00  0.00000000E+00
  0.00000000E+00  0.00000000E+00  0.00000000E+00
  0.00000000E+00  0.00000000E+00  0.00000000E+00
  0.00000000E+00  0.00000000E+00  0.00000000E+00
  0.00000000E+00  0.00000000E+00  0.00000000E+00
  0.00000000E+00  0.00000000E+00  0.00000000E+00
  0.00000000E+00  0.00000000E+00  0.00000000E+00
  0.00000000E+00  0.00000000E+00  0.00000000E+00
  0.00000000E+00  0.00000000E+00  0.00000000E+00
  0.00000000E+00  0.00000000E+00  0.00000000E+00
  0.00000000E+00  0.00000000E+00  0.00000000E+00
  0.00000000E+00  0.00000000E+00  0.00000000E+00
  0.00000000E+00  0.00000000E+00  0.00000000E+00
  0.00000000E+00  0.00000000E+00  0.00000000E+00
  0.00000000E+00  0.00000000E+00  0.00000000E+00
  0.00000000E+00  0.00000000E+00  0.00000000E+00
  0.00000000E+00  0.00000000E+00  0.00000000E+00
  0.00000000E+00  0.00000000E+00  0.00000000E+00
  0.00000000E+00  0.00000000E+00  0.00000000E+00
  0.00000000E+00  0.00000000E+00  0.00000000E+00
  0.00000000E+00  0.00000000E+00  0.00000000E+00
  0.00000000E+00  0.00000000E+00  0.00000000E+00
  0.00000000E+00  0.00000000E+00  0.00000000E+00
  0.00000000E+00  0.00000000E+00  0.00000000E+00
  0.00000000E+00  0.00000000E+00  0.00000000E+00
  0.00000000E+00  0.00000000E+00  0.00000000E+00
  0.00000000E+00  0.00000000E+00  0.00000000E+00
  0.00000000E+00  0.00000000E+00  0.00000000E+00
  0.00000000E+00  0.00000000E+00  0.00000000E+00
  0.00000000E+00  0.00000000E+00  0.00000000E+00
  0.00000000E+00  0.00000000E+00  0.00000000E+00
  0.00000000E+00  0.00000000E+00  0.00000000E+00
  0.00000000E+00  0.00000000E+00  0.00000000E+00
  0.00000000E+00  0.00000000E+00  0.00000000E+00
  0.00000000E+00  0.00000000E+00  0.00000000E+00
  0.00000000E+00  0.00000000E+00  0.00000000E+00
  0.00000000E+00  0.00000000E+00  0.00000000E+00
  0.00000000E+00  0.00000000E+00  0.00000000E+00
  0.00000000E+00  0.00000000E+00  0.00000000E+00
  0.00000000E+00  0.00000000E+00  0.00000000E+00
  0.00000000E+00  0.00000000E+00  0.00000000E+00
  0.00000000E+00  0.00000000E+00  0.00000000E+00
  0.00000000E+00  0.00000000E+00  0.00000000E+00
  0.00000000E+00  0.00000000E+00  0.00000000E+00
  0.00000000E+00  0.00000000E+00  0.00000000E+00
  0.00000000E+00  0.00000000E+00  0.00000000E+00
