CONTCAR\(2)                             
   1.00000000000000     
    12.3312997818000003    0.0000000000000000    0.0000000000000000
     0.0001127485000000   12.8291997905000006    0.0000000000000000
     0.0005937186000000    0.0011528207000000   19.9943999824000009
   C    N    Fe   Ni   H 
    53     3     1     1     1
Direct
  0.0556639411135094  0.0548267191527862  0.0509142846881645
  0.1560223860583095  0.1099895048738775  0.0504509334828299
  0.1559277325209167  0.2206227622225446  0.0484135605606091
  0.0561707940989671  0.2761368701851115  0.0471247085344592
  0.2565340727562582  0.0555443415357158  0.0527254673398092
  0.3569323915494937  0.1113938231843112  0.0561986470403217
  0.3565792104244035  0.2232186349808349  0.0553394288435920
  0.2556517967502951  0.2761754114587889  0.0495517837976763
  0.4566438596871227  0.0557888490141921  0.0608164262365729
  0.5562954235483775  0.1136424490032370  0.0643260378747352
  0.5565028482252758  0.2268964706673396  0.0656948352563377
  0.4548853987801798  0.2828750490040573  0.0608448195295456
  0.6562100026992574  0.0535094435848665  0.0642684130458492
  0.7556334989525662  0.1110510689351808  0.0607304257930245
  0.7562151551726788  0.2236290831928779  0.0609823663017851
  0.6582933664888755  0.2845307421361243  0.0675609900267904
  0.8548589648103104  0.0540747571020789  0.0566206066442740
  0.9553369702260514  0.1097220810910909  0.0527337910852361
  0.9559270550003497  0.2211726426284004  0.0510638351641520
  0.8566738677292632  0.2779010296771796  0.0547385558447539
  0.0573180876778714  0.3873462349804061  0.0442390368075436
  0.1560273000471134  0.4434178831627115  0.0431135465913087
  0.1560944185213251  0.5546799474386160  0.0424583415029665
  0.0572363043441432  0.6108927185522811  0.0426435856661997
  0.2549808330180569  0.3868065431766642  0.0468023394569262
  0.3533150005756296  0.4414153306670130  0.0523499178341302
  0.3536768145935494  0.5542648621706915  0.0533392094174944
  0.2548245465486449  0.6102729950935860  0.0465680889450888
  0.7631457315239458  0.4484817040155030  0.0620189574151727
  0.8595148405790949  0.3894599865514085  0.0527448895323957
  0.9586580292343966  0.4436401084435792  0.0461855343541352
  0.9591075023314517  0.5547381199366004  0.0454366350105357
  0.8599553357460816  0.6093133857748996  0.0521410459146998
  0.0563561940899305  0.7218963801086775  0.0446848924323974
  0.1552461515480143  0.7776991751638425  0.0463618329721494
  0.1559011494378381  0.8888177604128557  0.0490116911505058
  0.0557504629720123  0.9439836711419992  0.0500556870644342
  0.2544233995123961  0.7216111579358524  0.0483366703363316
  0.3529163552894127  0.7769688750968532  0.0553196501127646
  0.3554843111781723  0.8883967323818825  0.0562312308327263
  0.2560334466626389  0.9443568592013055  0.0522116772091760
  0.4500356545686909  0.7190167853792621  0.0652746944874282
  0.5546747739966366  0.8843011632960182  0.0676878864967891
  0.4559833956367644  0.9434849215344132  0.0617338527347851
  0.7565337397763569  0.8822987011736917  0.0611688899133115
  0.6561485384275288  0.9403075048611392  0.0654497289763585
  0.8580169592960577  0.7224182323956099  0.0528479781609376
  0.9567614119395592  0.7773775199824842  0.0487076602908734
  0.9560428463576822  0.8883858267769805  0.0513697040926673
  0.8550735760825101  0.9416961919093230  0.0563180939857586
  0.4513800749079795  0.6069566096158693  0.0657202894665546
  0.6636125582674093  0.3955814396359000  0.0732223723449191
  0.5491636237797860  0.7741195600305197  0.0731195024625091
  0.4500871247493474  0.3911666391883962  0.0604397224492938
  0.7657707034642419  0.5573740667204430  0.0610591346539665
  0.7599789974310864  0.7726159643818081  0.0603823181055051
  0.6495080319006951  0.6635888970157657  0.0757607736966855
  0.5557005572149885  0.4969943800615420  0.0806723307931729
  0.6141424801785027  0.5678434510030129  0.1318106942388667
 
  0.00000000E+00  0.00000000E+00  0.00000000E+00
  0.00000000E+00  0.00000000E+00  0.00000000E+00
  0.00000000E+00  0.00000000E+00  0.00000000E+00
  0.00000000E+00  0.00000000E+00  0.00000000E+00
  0.00000000E+00  0.00000000E+00  0.00000000E+00
  0.00000000E+00  0.00000000E+00  0.00000000E+00
  0.00000000E+00  0.00000000E+00  0.00000000E+00
  0.00000000E+00  0.00000000E+00  0.00000000E+00
  0.00000000E+00  0.00000000E+00  0.00000000E+00
  0.00000000E+00  0.00000000E+00  0.00000000E+00
  0.00000000E+00  0.00000000E+00  0.00000000E+00
  0.00000000E+00  0.00000000E+00  0.00000000E+00
  0.00000000E+00  0.00000000E+00  0.00000000E+00
  0.00000000E+00  0.00000000E+00  0.00000000E+00
  0.00000000E+00  0.00000000E+00  0.00000000E+00
  0.00000000E+00  0.00000000E+00  0.00000000E+00
  0.00000000E+00  0.00000000E+00  0.00000000E+00
  0.00000000E+00  0.00000000E+00  0.00000000E+00
  0.00000000E+00  0.00000000E+00  0.00000000E+00
  0.00000000E+00  0.00000000E+00  0.00000000E+00
  0.00000000E+00  0.00000000E+00  0.00000000E+00
  0.00000000E+00  0.00000000E+00  0.00000000E+00
  0.00000000E+00  0.00000000E+00  0.00000000E+00
  0.00000000E+00  0.00000000E+00  0.00000000E+00
  0.00000000E+00  0.00000000E+00  0.00000000E+00
  0.00000000E+00  0.00000000E+00  0.00000000E+00
  0.00000000E+00  0.00000000E+00  0.00000000E+00
  0.00000000E+00  0.00000000E+00  0.00000000E+00
  0.00000000E+00  0.00000000E+00  0.00000000E+00
  0.00000000E+00  0.00000000E+00  0.00000000E+00
  0.00000000E+00  0.00000000E+00  0.00000000E+00
  0.00000000E+00  0.00000000E+00  0.00000000E+00
  0.00000000E+00  0.00000000E+00  0.00000000E+00
  0.00000000E+00  0.00000000E+00  0.00000000E+00
  0.00000000E+00  0.00000000E+00  0.00000000E+00
  0.00000000E+00  0.00000000E+00  0.00000000E+00
  0.00000000E+00  0.00000000E+00  0.00000000E+00
  0.00000000E+00  0.00000000E+00  0.00000000E+00
  0.00000000E+00  0.00000000E+00  0.00000000E+00
  0.00000000E+00  0.00000000E+00  0.00000000E+00
  0.00000000E+00  0.00000000E+00  0.00000000E+00
  0.00000000E+00  0.00000000E+00  0.00000000E+00
  0.00000000E+00  0.00000000E+00  0.00000000E+00
  0.00000000E+00  0.00000000E+00  0.00000000E+00
  0.00000000E+00  0.00000000E+00  0.00000000E+00
  0.00000000E+00  0.00000000E+00  0.00000000E+00
  0.00000000E+00  0.00000000E+00  0.00000000E+00
  0.00000000E+00  0.00000000E+00  0.00000000E+00
  0.00000000E+00  0.00000000E+00  0.00000000E+00
  0.00000000E+00  0.00000000E+00  0.00000000E+00
  0.00000000E+00  0.00000000E+00  0.00000000E+00
  0.00000000E+00  0.00000000E+00  0.00000000E+00
  0.00000000E+00  0.00000000E+00  0.00000000E+00
  0.00000000E+00  0.00000000E+00  0.00000000E+00
  0.00000000E+00  0.00000000E+00  0.00000000E+00
  0.00000000E+00  0.00000000E+00  0.00000000E+00
  0.00000000E+00  0.00000000E+00  0.00000000E+00
  0.00000000E+00  0.00000000E+00  0.00000000E+00
  0.00000000E+00  0.00000000E+00  0.00000000E+00
