CONTCAR\(7)                             
   1.00000000000000     
    12.3312997818000003    0.0000000000000000    0.0000000000000000
     0.0001127485000000   12.8291997905000006    0.0000000000000000
     0.0005937186000000    0.0011528207000000   19.9943999824000009
   C    N    Fe   Ni   O    H 
    51     5     1     1     2     2
Direct
  0.0562757241211751  0.0553252159134847  0.0486213132798494
  0.1568484159585684  0.1112289382495174  0.0483925152910533
  0.1573327374685212  0.2223175716938471  0.0478106196622568
  0.0567777968900467  0.2768115534017808  0.0480430541303464
  0.2572266542260614  0.0563744081516313  0.0493123257505445
  0.3579368983906566  0.1118317437118489  0.0506586078444923
  0.3583181437240310  0.2238309481763822  0.0500521801126709
  0.2576712237633066  0.2785505038723697  0.0480088923168075
  0.4579197489629865  0.0555179012899952  0.0529788907468731
  0.5583934342272582  0.1116076191740849  0.0551322600530682
  0.5592289232791532  0.2251937667790996  0.0561868851572335
  0.4585123485362993  0.2816396106706650  0.0530081491543302
  0.6562110707710901  0.0509794774440304  0.0554270713813283
  0.7554919983619924  0.1086496359803878  0.0538802482598761
  0.7569072451669007  0.2216455983611382  0.0547005982118358
  0.6599688170554282  0.2818426562414705  0.0581713210409686
  0.8553583507054554  0.0529866720158936  0.0513873722756758
  0.9557367355068015  0.1094863820635901  0.0497305550301317
  0.9565502367993972  0.2211261199338048  0.0497571160209703
  0.8570120174549857  0.2769786600993233  0.0521516149034530
  0.0567663993485646  0.3879724148476116  0.0475311629696852
  0.1562829779357577  0.4442251630884773  0.0470311157981675
  0.1559944660504208  0.5551554073284765  0.0472810145156595
  0.0567271458119237  0.6107019850013334  0.0469762658672761
  0.2563743377567478  0.3900299401219425  0.0476243653599629
  0.3557585946854989  0.4472502948079692  0.0498238851699347
  0.3555848293527890  0.5596906649852165  0.0523884642803934
  0.2551092864492306  0.6122252244503904  0.0495406890237377
  0.7591784666536221  0.4464826210067948  0.0570943681605819
  0.8577172471675091  0.3887487823485196  0.0519644319731977
  0.9575777681789706  0.4434330133308513  0.0489050152668133
  0.9571289247778699  0.5545520140978596  0.0484969607253353
  0.8572170890770627  0.6079584462921125  0.0513759570378594
  0.0565981455031412  0.7215616711379602  0.0470597241451665
  0.1553079084868149  0.7784466781610755  0.0479742365014409
  0.1560419894497273  0.8893503772294634  0.0483051752093622
  0.0560227117941443  0.9441870895104343  0.0482974987111540
  0.2539873477816594  0.7229510320314484  0.0497989074120403
  0.3531359284469698  0.7778856022912903  0.0519840296375316
  0.3554257053866755  0.8891592428472838  0.0512996005721040
  0.2562827431031249  0.9450225725942221  0.0494759139838508
  0.4504354036339234  0.7200201479526784  0.0562177082627350
  0.5532561699532307  0.8817886114602271  0.0559397942017679
  0.4563710967381872  0.9430582358377639  0.0532486371404674
  0.7567166613157357  0.8808073011761319  0.0544299113514005
  0.6552157756598466  0.9364963213234031  0.0560240472816533
  0.8584966071565898  0.7202472306715783  0.0504963274214354
  0.9572082204876513  0.7763417656193532  0.0479298389691238
  0.9564636671569344  0.8876353215684276  0.0488243851957833
  0.8554143113770348  0.9407501514993956  0.0511091163399173
  0.4543413662094265  0.3924310607072420  0.0532994143950689
  0.4526012782227335  0.6125064756913631  0.0581082884709790
  0.6641548673436423  0.3909428516206861  0.0619023149258961
  0.7584210445305211  0.5562639118943364  0.0569301756361187
  0.5474619672775153  0.7730207936586982  0.0576045584341201
  0.7610587973014520  0.7720057797257805  0.0552842265893289
  0.6551144808693857  0.6758364259242755  0.0792495482957503
  0.5558995237870772  0.4819031758026135  0.0872824115027911
  0.5923820788936519  0.5043298576851104  0.1736965600873576
  0.6508883588391499  0.7028403459389611  0.1691652533621245
  0.7226524224008074  0.7192380792228734  0.1868788778738380
  0.5930873992771506  0.5779408762840302  0.1877982283173145
 
  0.00000000E+00  0.00000000E+00  0.00000000E+00
  0.00000000E+00  0.00000000E+00  0.00000000E+00
  0.00000000E+00  0.00000000E+00  0.00000000E+00
  0.00000000E+00  0.00000000E+00  0.00000000E+00
  0.00000000E+00  0.00000000E+00  0.00000000E+00
  0.00000000E+00  0.00000000E+00  0.00000000E+00
  0.00000000E+00  0.00000000E+00  0.00000000E+00
  0.00000000E+00  0.00000000E+00  0.00000000E+00
  0.00000000E+00  0.00000000E+00  0.00000000E+00
  0.00000000E+00  0.00000000E+00  0.00000000E+00
  0.00000000E+00  0.00000000E+00  0.00000000E+00
  0.00000000E+00  0.00000000E+00  0.00000000E+00
  0.00000000E+00  0.00000000E+00  0.00000000E+00
  0.00000000E+00  0.00000000E+00  0.00000000E+00
  0.00000000E+00  0.00000000E+00  0.00000000E+00
  0.00000000E+00  0.00000000E+00  0.00000000E+00
  0.00000000E+00  0.00000000E+00  0.00000000E+00
  0.00000000E+00  0.00000000E+00  0.00000000E+00
  0.00000000E+00  0.00000000E+00  0.00000000E+00
  0.00000000E+00  0.00000000E+00  0.00000000E+00
  0.00000000E+00  0.00000000E+00  0.00000000E+00
  0.00000000E+00  0.00000000E+00  0.00000000E+00
  0.00000000E+00  0.00000000E+00  0.00000000E+00
  0.00000000E+00  0.00000000E+00  0.00000000E+00
  0.00000000E+00  0.00000000E+00  0.00000000E+00
  0.00000000E+00  0.00000000E+00  0.00000000E+00
  0.00000000E+00  0.00000000E+00  0.00000000E+00
  0.00000000E+00  0.00000000E+00  0.00000000E+00
  0.00000000E+00  0.00000000E+00  0.00000000E+00
  0.00000000E+00  0.00000000E+00  0.00000000E+00
  0.00000000E+00  0.00000000E+00  0.00000000E+00
  0.00000000E+00  0.00000000E+00  0.00000000E+00
  0.00000000E+00  0.00000000E+00  0.00000000E+00
  0.00000000E+00  0.00000000E+00  0.00000000E+00
  0.00000000E+00  0.00000000E+00  0.00000000E+00
  0.00000000E+00  0.00000000E+00  0.00000000E+00
  0.00000000E+00  0.00000000E+00  0.00000000E+00
  0.00000000E+00  0.00000000E+00  0.00000000E+00
  0.00000000E+00  0.00000000E+00  0.00000000E+00
  0.00000000E+00  0.00000000E+00  0.00000000E+00
  0.00000000E+00  0.00000000E+00  0.00000000E+00
  0.00000000E+00  0.00000000E+00  0.00000000E+00
  0.00000000E+00  0.00000000E+00  0.00000000E+00
  0.00000000E+00  0.00000000E+00  0.00000000E+00
  0.00000000E+00  0.00000000E+00  0.00000000E+00
  0.00000000E+00  0.00000000E+00  0.00000000E+00
  0.00000000E+00  0.00000000E+00  0.00000000E+00
  0.00000000E+00  0.00000000E+00  0.00000000E+00
  0.00000000E+00  0.00000000E+00  0.00000000E+00
  0.00000000E+00  0.00000000E+00  0.00000000E+00
  0.00000000E+00  0.00000000E+00  0.00000000E+00
  0.00000000E+00  0.00000000E+00  0.00000000E+00
  0.00000000E+00  0.00000000E+00  0.00000000E+00
  0.00000000E+00  0.00000000E+00  0.00000000E+00
  0.00000000E+00  0.00000000E+00  0.00000000E+00
  0.00000000E+00  0.00000000E+00  0.00000000E+00
  0.00000000E+00  0.00000000E+00  0.00000000E+00
  0.00000000E+00  0.00000000E+00  0.00000000E+00
  0.00000000E+00  0.00000000E+00  0.00000000E+00
  0.00000000E+00  0.00000000E+00  0.00000000E+00
  0.00000000E+00  0.00000000E+00  0.00000000E+00
  0.00000000E+00  0.00000000E+00  0.00000000E+00
