CONTCAR\(2)\(3)                         
   1.00000000000000     
    12.3312997818000003    0.0000000000000000    0.0000000000000000
     0.0001127485000000   12.8291997905000006    0.0000000000000000
     0.0005937186000000    0.0011528207000000   19.9943999824000009
   C    N    Fe   Ni   O 
    52     4     1     1     2
Direct
  0.0571487175701555  0.0556264238142200  0.0505544947809706
  0.1574233051693679  0.1107409679638722  0.0503132988145264
  0.1567279027063414  0.2216708900331841  0.0498155990139618
  0.0566374979475088  0.2772724879998935  0.0492659148930343
  0.2581279190415235  0.0555480111366896  0.0512261681643790
  0.3583943003241631  0.1113599203944407  0.0538296226327075
  0.3572218749679528  0.2233899502628814  0.0539039844142205
  0.2563331788354075  0.2772536493198974  0.0507344352248885
  0.4586779147779740  0.0553474865450714  0.0566942523756465
  0.5577853845768832  0.1136649693165305  0.0594948523985456
  0.5575062560248351  0.2278881214758247  0.0599553673468089
  0.4554613612189822  0.2835563954270293  0.0574805404338116
  0.6569310860230139  0.0536190287491684  0.0601685498832584
  0.7562170451367655  0.1110262397059456  0.0577033558222893
  0.7570335751318553  0.2235161595623003  0.0570753449132998
  0.6590144183731161  0.2842633526635390  0.0600311530002085
  0.8561990682323669  0.0549815573610257  0.0549895852402334
  0.9565072953915165  0.1105614217454230  0.0521046427021183
  0.9567990649006310  0.2218469896155453  0.0512742298993432
  0.8572105670241248  0.2781755048955493  0.0533981233274539
  0.0566183220836893  0.3885360272904987  0.0478541979503210
  0.1555539199745206  0.4441389662664003  0.0469348848823067
  0.1557212073577146  0.5550240766529406  0.0460982645230803
  0.0568142864616750  0.6113083679418709  0.0464855065615428
  0.2549222851206940  0.3882886676747561  0.0490842682191454
  0.3538690816118264  0.4427335486178363  0.0518816876266231
  0.3545436292786046  0.5557273834561191  0.0508587492695167
  0.2550124248370638  0.6105941219781506  0.0472462897310571
  0.7596027797313127  0.4465716561870178  0.0576807034346943
  0.8583936303375552  0.3896950835259114  0.0526604968320536
  0.9574202225809377  0.4450769078659906  0.0491077444590393
  0.9572079788490233  0.5561211120850772  0.0486281885183591
  0.8570700041709803  0.6116374476298284  0.0529389534285740
  0.0575860538601332  0.7223046725600584  0.0469454660923297
  0.1565633256349704  0.7780059183320205  0.0468810876630129
  0.1576866164073145  0.8892004506969916  0.0483965948031784
  0.0575824926954554  0.9448433043845945  0.0498054014079092
  0.2556371113774308  0.7216746944071791  0.0473695210129871
  0.3555151453562365  0.7755216682172758  0.0503369450566392
  0.3580375989394486  0.8874604761890295  0.0518480680593000
  0.2580641700986358  0.9440089270851298  0.0500966865728578
  0.4531293408130501  0.7156730758317373  0.0548012879073219
  0.5569886991779888  0.8816906132742108  0.0605804299213579
  0.4584805119833010  0.9423250928749985  0.0561140209487193
  0.7585455388219599  0.8839052079810688  0.0604493675788956
  0.6571898775485611  0.9398111826776772  0.0617352465763557
  0.8597658836485108  0.7242084616387829  0.0541307811030303
  0.9582652182193508  0.7786093707099062  0.0498861833318157
  0.9578799931514137  0.8895185756993303  0.0515633264801101
  0.8569562106664903  0.9430480032046127  0.0554872036588490
  0.7568477964660355  0.5591916528883467  0.0594652309279682
  0.5529439262301149  0.7695390963688917  0.0625894936492380
  0.4500721921509380  0.3909992482634329  0.0574054811453634
  0.4510122009295542  0.6070673775441650  0.0549214850825891
  0.6639977811294555  0.3916327723969846  0.0612330897338282
  0.7628762836907246  0.7753630780232539  0.0624668631588788
  0.6582289720333242  0.6732860936756727  0.0931536746241991
  0.5584053488464149  0.4985992268250192  0.0736319672350083
  0.5748982913328660  0.5260855540305546  0.1688693903283248
  0.6230457400202349  0.6235832980586266  0.1715522792219140
 
  0.00000000E+00  0.00000000E+00  0.00000000E+00
  0.00000000E+00  0.00000000E+00  0.00000000E+00
  0.00000000E+00  0.00000000E+00  0.00000000E+00
  0.00000000E+00  0.00000000E+00  0.00000000E+00
  0.00000000E+00  0.00000000E+00  0.00000000E+00
  0.00000000E+00  0.00000000E+00  0.00000000E+00
  0.00000000E+00  0.00000000E+00  0.00000000E+00
  0.00000000E+00  0.00000000E+00  0.00000000E+00
  0.00000000E+00  0.00000000E+00  0.00000000E+00
  0.00000000E+00  0.00000000E+00  0.00000000E+00
  0.00000000E+00  0.00000000E+00  0.00000000E+00
  0.00000000E+00  0.00000000E+00  0.00000000E+00
  0.00000000E+00  0.00000000E+00  0.00000000E+00
  0.00000000E+00  0.00000000E+00  0.00000000E+00
  0.00000000E+00  0.00000000E+00  0.00000000E+00
  0.00000000E+00  0.00000000E+00  0.00000000E+00
  0.00000000E+00  0.00000000E+00  0.00000000E+00
  0.00000000E+00  0.00000000E+00  0.00000000E+00
  0.00000000E+00  0.00000000E+00  0.00000000E+00
  0.00000000E+00  0.00000000E+00  0.00000000E+00
  0.00000000E+00  0.00000000E+00  0.00000000E+00
  0.00000000E+00  0.00000000E+00  0.00000000E+00
  0.00000000E+00  0.00000000E+00  0.00000000E+00
  0.00000000E+00  0.00000000E+00  0.00000000E+00
  0.00000000E+00  0.00000000E+00  0.00000000E+00
  0.00000000E+00  0.00000000E+00  0.00000000E+00
  0.00000000E+00  0.00000000E+00  0.00000000E+00
  0.00000000E+00  0.00000000E+00  0.00000000E+00
  0.00000000E+00  0.00000000E+00  0.00000000E+00
  0.00000000E+00  0.00000000E+00  0.00000000E+00
  0.00000000E+00  0.00000000E+00  0.00000000E+00
  0.00000000E+00  0.00000000E+00  0.00000000E+00
  0.00000000E+00  0.00000000E+00  0.00000000E+00
  0.00000000E+00  0.00000000E+00  0.00000000E+00
  0.00000000E+00  0.00000000E+00  0.00000000E+00
  0.00000000E+00  0.00000000E+00  0.00000000E+00
  0.00000000E+00  0.00000000E+00  0.00000000E+00
  0.00000000E+00  0.00000000E+00  0.00000000E+00
  0.00000000E+00  0.00000000E+00  0.00000000E+00
  0.00000000E+00  0.00000000E+00  0.00000000E+00
  0.00000000E+00  0.00000000E+00  0.00000000E+00
  0.00000000E+00  0.00000000E+00  0.00000000E+00
  0.00000000E+00  0.00000000E+00  0.00000000E+00
  0.00000000E+00  0.00000000E+00  0.00000000E+00
  0.00000000E+00  0.00000000E+00  0.00000000E+00
  0.00000000E+00  0.00000000E+00  0.00000000E+00
  0.00000000E+00  0.00000000E+00  0.00000000E+00
  0.00000000E+00  0.00000000E+00  0.00000000E+00
  0.00000000E+00  0.00000000E+00  0.00000000E+00
  0.00000000E+00  0.00000000E+00  0.00000000E+00
  0.00000000E+00  0.00000000E+00  0.00000000E+00
  0.00000000E+00  0.00000000E+00  0.00000000E+00
  0.00000000E+00  0.00000000E+00  0.00000000E+00
  0.00000000E+00  0.00000000E+00  0.00000000E+00
  0.00000000E+00  0.00000000E+00  0.00000000E+00
  0.00000000E+00  0.00000000E+00  0.00000000E+00
  0.00000000E+00  0.00000000E+00  0.00000000E+00
  0.00000000E+00  0.00000000E+00  0.00000000E+00
  0.00000000E+00  0.00000000E+00  0.00000000E+00
  0.00000000E+00  0.00000000E+00  0.00000000E+00
