CONTCAR\(2)\(3)                         
   1.00000000000000     
    12.3312997818000003    0.0000000000000000    0.0000000000000000
     0.0001127485000000   12.8291997905000006    0.0000000000000000
     0.0005937186000000    0.0011528207000000   19.9943999824000009
   C    N    Fe   Ni   O    H 
    55     1     1     1     1     1
Direct
  0.0561932122257471  0.0550473856291248  0.0493389581036506
  0.1564229427474632  0.1105699415556712  0.0490570634256784
  0.1566839070947333  0.2214617466360749  0.0476074651381881
  0.0565732561213141  0.2766816946523316  0.0466038674128654
  0.2569392151812147  0.0560158007037810  0.0511094638552592
  0.3570303534257293  0.1127332651555040  0.0538397098169103
  0.3574090141268111  0.2245382155955686  0.0530196440941123
  0.2562085576566411  0.2775797457690045  0.0486626956072686
  0.4566324609262057  0.0569199846967567  0.0578346244166498
  0.5567237815767367  0.1142042017637118  0.0604817600890916
  0.5571573574335773  0.2262644909856805  0.0613028997607411
  0.4571283683933413  0.2834301352172541  0.0575014066103642
  0.6559971562150027  0.0552431598166828  0.0602575312584768
  0.7560449096417035  0.1110768531476949  0.0566910171058203
  0.7573569274380680  0.2225703961779643  0.0563416967620388
  0.6593704030605386  0.2822934719906662  0.0617205744557537
  0.8555704832726567  0.0546771911330483  0.0534836181561235
  0.9559390299395422  0.1100616872233024  0.0503741582694340
  0.9568776515758056  0.2209436304079933  0.0490861921681347
  0.8574331413634112  0.2768528596917799  0.0516585080119968
  0.0561328094746558  0.3878165378936485  0.0451285866725023
  0.1546229422043019  0.4440562750887490  0.0449938893760508
  0.1544541260299749  0.5555575563732448  0.0451618434460129
  0.0552115397988818  0.6108987749133568  0.0455807468387698
  0.2540865458991722  0.3882855313204923  0.0471589470803798
  0.3516893311859847  0.4447394350212151  0.0509028937463634
  0.3520493553744735  0.5564368146507717  0.0520966622035855
  0.2535079658791228  0.6120756583147708  0.0476878320444505
  0.7587712925135124  0.4435105391074164  0.0556032328876230
  0.8579903398667039  0.3875770560306599  0.0501055686444309
  0.9566733534067920  0.4435227227994363  0.0461566697959553
  0.9562040811928689  0.5542066100741040  0.0462925642744809
  0.8555665235128401  0.6082296198762239  0.0490548484222323
  0.0556684343265146  0.7223749412328532  0.0468975457847365
  0.1549888775132229  0.7782683922986107  0.0478282296792867
  0.1558133427967346  0.8893504012429196  0.0490588088038132
  0.0556028816898513  0.9442761301917483  0.0494066020921562
  0.2546047049748442  0.7227633770646229  0.0490705980117710
  0.3546656695566150  0.7768426421404779  0.0539412521618368
  0.3560807807151283  0.8885364608003964  0.0545314982062131
  0.2562694628023786  0.9447019073578468  0.0511176240492762
  0.4538485669433712  0.7181337973678614  0.0614312268418080
  0.5549541191494252  0.8869033350056760  0.0639635988592267
  0.4558527099372539  0.9449219454231600  0.0588128921052090
  0.7550998703084632  0.8859267991215132  0.0586304266840756
  0.6556130427142967  0.9437987675912636  0.0619289736095109
  0.8564700895028653  0.7216176891433542  0.0515818101491825
  0.9557416787201847  0.7776059160557541  0.0492261707280549
  0.9554501117333397  0.8885977310411484  0.0506889631153736
  0.8549608998879618  0.9430643847218293  0.0539260683164604
  0.4528143895092299  0.3950388637727393  0.0572232577222482
  0.7562810684419460  0.5545637838620864  0.0538320510776751
  0.5516815789831960  0.7770880769520822  0.0695568676855268
  0.7567596493744355  0.7745455775358324  0.0592533898582272
  0.4527077169077310  0.6055457408507703  0.0618574038575297
  0.6633752983790744  0.3884371313779764  0.0649461919662751
  0.6539647684007777  0.6700430644100186  0.0868506307751768
  0.5588084420488592  0.4937933537069100  0.0770862891198702
  0.6192217875008161  0.5777600277866063  0.1583490223659244
  0.5557977464259837  0.6027807535302142  0.1828154704221572
 
  0.00000000E+00  0.00000000E+00  0.00000000E+00
  0.00000000E+00  0.00000000E+00  0.00000000E+00
  0.00000000E+00  0.00000000E+00  0.00000000E+00
  0.00000000E+00  0.00000000E+00  0.00000000E+00
  0.00000000E+00  0.00000000E+00  0.00000000E+00
  0.00000000E+00  0.00000000E+00  0.00000000E+00
  0.00000000E+00  0.00000000E+00  0.00000000E+00
  0.00000000E+00  0.00000000E+00  0.00000000E+00
  0.00000000E+00  0.00000000E+00  0.00000000E+00
  0.00000000E+00  0.00000000E+00  0.00000000E+00
  0.00000000E+00  0.00000000E+00  0.00000000E+00
  0.00000000E+00  0.00000000E+00  0.00000000E+00
  0.00000000E+00  0.00000000E+00  0.00000000E+00
  0.00000000E+00  0.00000000E+00  0.00000000E+00
  0.00000000E+00  0.00000000E+00  0.00000000E+00
  0.00000000E+00  0.00000000E+00  0.00000000E+00
  0.00000000E+00  0.00000000E+00  0.00000000E+00
  0.00000000E+00  0.00000000E+00  0.00000000E+00
  0.00000000E+00  0.00000000E+00  0.00000000E+00
  0.00000000E+00  0.00000000E+00  0.00000000E+00
  0.00000000E+00  0.00000000E+00  0.00000000E+00
  0.00000000E+00  0.00000000E+00  0.00000000E+00
  0.00000000E+00  0.00000000E+00  0.00000000E+00
  0.00000000E+00  0.00000000E+00  0.00000000E+00
  0.00000000E+00  0.00000000E+00  0.00000000E+00
  0.00000000E+00  0.00000000E+00  0.00000000E+00
  0.00000000E+00  0.00000000E+00  0.00000000E+00
  0.00000000E+00  0.00000000E+00  0.00000000E+00
  0.00000000E+00  0.00000000E+00  0.00000000E+00
  0.00000000E+00  0.00000000E+00  0.00000000E+00
  0.00000000E+00  0.00000000E+00  0.00000000E+00
  0.00000000E+00  0.00000000E+00  0.00000000E+00
  0.00000000E+00  0.00000000E+00  0.00000000E+00
  0.00000000E+00  0.00000000E+00  0.00000000E+00
  0.00000000E+00  0.00000000E+00  0.00000000E+00
  0.00000000E+00  0.00000000E+00  0.00000000E+00
  0.00000000E+00  0.00000000E+00  0.00000000E+00
  0.00000000E+00  0.00000000E+00  0.00000000E+00
  0.00000000E+00  0.00000000E+00  0.00000000E+00
  0.00000000E+00  0.00000000E+00  0.00000000E+00
  0.00000000E+00  0.00000000E+00  0.00000000E+00
  0.00000000E+00  0.00000000E+00  0.00000000E+00
  0.00000000E+00  0.00000000E+00  0.00000000E+00
  0.00000000E+00  0.00000000E+00  0.00000000E+00
  0.00000000E+00  0.00000000E+00  0.00000000E+00
  0.00000000E+00  0.00000000E+00  0.00000000E+00
  0.00000000E+00  0.00000000E+00  0.00000000E+00
  0.00000000E+00  0.00000000E+00  0.00000000E+00
  0.00000000E+00  0.00000000E+00  0.00000000E+00
  0.00000000E+00  0.00000000E+00  0.00000000E+00
  0.00000000E+00  0.00000000E+00  0.00000000E+00
  0.00000000E+00  0.00000000E+00  0.00000000E+00
  0.00000000E+00  0.00000000E+00  0.00000000E+00
  0.00000000E+00  0.00000000E+00  0.00000000E+00
  0.00000000E+00  0.00000000E+00  0.00000000E+00
  0.00000000E+00  0.00000000E+00  0.00000000E+00
  0.00000000E+00  0.00000000E+00  0.00000000E+00
  0.00000000E+00  0.00000000E+00  0.00000000E+00
  0.00000000E+00  0.00000000E+00  0.00000000E+00
  0.00000000E+00  0.00000000E+00  0.00000000E+00
