CONTCAR\(7)                             
   1.00000000000000     
    12.3312997818000003    0.0000000000000000    0.0000000000000000
     0.0001127485000000   12.8291997905000006    0.0000000000000000
     0.0005937186000000    0.0011528207000000   19.9943999824000009
   C    N    Fe   Ni   H 
    53     3     1     1     2
Direct
  0.0560733060522161  0.0527732622841188  0.0525000226752468
  0.1563764523710612  0.1085941183891250  0.0519152394449784
  0.1566081783201389  0.2196328919287316  0.0514661271883423
  0.0568791105160055  0.2746320184448467  0.0515841525434741
  0.2567197981460260  0.0541941104930406  0.0521970803293879
  0.3568477761656413  0.1109575862107512  0.0530573906527086
  0.3567302659235138  0.2227298891702819  0.0528399749707318
  0.2560373892304825  0.2760017682848045  0.0515934637238640
  0.4566501960783603  0.0557046818587288  0.0543034534810224
  0.5562685993517609  0.1133815597402112  0.0559585406862232
  0.5567179608869426  0.2266417339114168  0.0559912512919099
  0.4555588689674091  0.2826301893832017  0.0538246266879506
  0.6552571136640084  0.0536259617187823  0.0572750345003613
  0.7556605544537776  0.1093744816409025  0.0564898624405203
  0.7570814677684858  0.2211949119606665  0.0563392232464270
  0.6590208154103813  0.2818973533649195  0.0577178380517841
  0.8549483252663028  0.0522335804230205  0.0552737489861072
  0.9557655697950561  0.1075381044659418  0.0534017052599610
  0.9570197796271477  0.2186368702161376  0.0529233616680179
  0.8579868491950209  0.2747675956105728  0.0544786331757768
  0.0575509555064393  0.3857588904259059  0.0511031232810854
  0.1561633985943325  0.4422909450249439  0.0506605194336866
  0.1562021620684758  0.5532792580257914  0.0504573560386139
  0.0567715773240885  0.6088494667966439  0.0510634869097566
  0.2553802570238292  0.3871277058693836  0.0512023456120573
  0.3546581246658706  0.4419763200330703  0.0515985012828601
  0.3557932737153068  0.5546783854309654  0.0517540995434032
  0.2555644322041222  0.6091696239430653  0.0508788299901023
  0.7620953878302505  0.4420158765294674  0.0585582530004183
  0.8600957285701732  0.3855349300271017  0.0544996794290437
  0.9586848514427707  0.4414534274285380  0.0522905206696051
  0.9576694497450501  0.5523001995363531  0.0524052865349814
  0.8573834602830661  0.6062853950347601  0.0555824836365519
  0.0560438241571294  0.7199322656975764  0.0514783608203169
  0.1552628630616489  0.7758350984901518  0.0510799828348755
  0.1558208672618616  0.8870859242840023  0.0516105472687300
  0.0555154840732361  0.9418885491615683  0.0525130104247547
  0.2546958034597607  0.7202466184657444  0.0511016226177664
  0.3544829051889045  0.7749687484395500  0.0521836221053505
  0.3560070948030960  0.8869466522116952  0.0526383465154340
  0.2560907635725044  0.9425980358237466  0.0519705357991022
  0.4530321295175389  0.7164394853374432  0.0538045323296931
  0.5538532111391145  0.8853847221947396  0.0571799633589420
  0.4556708717740962  0.9435987932651350  0.0542119224255957
  0.7539655236066166  0.8820544266301811  0.0591882823847204
  0.6548577868849957  0.9414720996226530  0.0586000256774887
  0.8568404089805596  0.7187773287878212  0.0561660278430479
  0.9557103938778587  0.7750164234249520  0.0533684661617210
  0.9551774762494405  0.8861510200499365  0.0539682830199440
  0.8541708408345428  0.9400681454249653  0.0562010697402620
  0.7574649112836609  0.5527776070795821  0.0606420718456901
  0.5516953557066822  0.7752295202705017  0.0592593986210275
  0.7553262271546571  0.7694460435948683  0.0610379330365316
  0.4513141889908525  0.3903233407156023  0.0523365800154812
  0.4535361857399829  0.6064166229014306  0.0535096517426532
  0.6648939599107452  0.3884316633392657  0.0602661460263152
  0.6411458331284795  0.6629731042201373  0.0742367022299553
  0.5630520569720073  0.4945418436950200  0.0571166071590662
  0.6411372377408349  0.6276221878392331  0.1634881546258108
  0.6157944517656483  0.6851405484263114  0.1632769170027296
 
  0.00000000E+00  0.00000000E+00  0.00000000E+00
  0.00000000E+00  0.00000000E+00  0.00000000E+00
  0.00000000E+00  0.00000000E+00  0.00000000E+00
  0.00000000E+00  0.00000000E+00  0.00000000E+00
  0.00000000E+00  0.00000000E+00  0.00000000E+00
  0.00000000E+00  0.00000000E+00  0.00000000E+00
  0.00000000E+00  0.00000000E+00  0.00000000E+00
  0.00000000E+00  0.00000000E+00  0.00000000E+00
  0.00000000E+00  0.00000000E+00  0.00000000E+00
  0.00000000E+00  0.00000000E+00  0.00000000E+00
  0.00000000E+00  0.00000000E+00  0.00000000E+00
  0.00000000E+00  0.00000000E+00  0.00000000E+00
  0.00000000E+00  0.00000000E+00  0.00000000E+00
  0.00000000E+00  0.00000000E+00  0.00000000E+00
  0.00000000E+00  0.00000000E+00  0.00000000E+00
  0.00000000E+00  0.00000000E+00  0.00000000E+00
  0.00000000E+00  0.00000000E+00  0.00000000E+00
  0.00000000E+00  0.00000000E+00  0.00000000E+00
  0.00000000E+00  0.00000000E+00  0.00000000E+00
  0.00000000E+00  0.00000000E+00  0.00000000E+00
  0.00000000E+00  0.00000000E+00  0.00000000E+00
  0.00000000E+00  0.00000000E+00  0.00000000E+00
  0.00000000E+00  0.00000000E+00  0.00000000E+00
  0.00000000E+00  0.00000000E+00  0.00000000E+00
  0.00000000E+00  0.00000000E+00  0.00000000E+00
  0.00000000E+00  0.00000000E+00  0.00000000E+00
  0.00000000E+00  0.00000000E+00  0.00000000E+00
  0.00000000E+00  0.00000000E+00  0.00000000E+00
  0.00000000E+00  0.00000000E+00  0.00000000E+00
  0.00000000E+00  0.00000000E+00  0.00000000E+00
  0.00000000E+00  0.00000000E+00  0.00000000E+00
  0.00000000E+00  0.00000000E+00  0.00000000E+00
  0.00000000E+00  0.00000000E+00  0.00000000E+00
  0.00000000E+00  0.00000000E+00  0.00000000E+00
  0.00000000E+00  0.00000000E+00  0.00000000E+00
  0.00000000E+00  0.00000000E+00  0.00000000E+00
  0.00000000E+00  0.00000000E+00  0.00000000E+00
  0.00000000E+00  0.00000000E+00  0.00000000E+00
  0.00000000E+00  0.00000000E+00  0.00000000E+00
  0.00000000E+00  0.00000000E+00  0.00000000E+00
  0.00000000E+00  0.00000000E+00  0.00000000E+00
  0.00000000E+00  0.00000000E+00  0.00000000E+00
  0.00000000E+00  0.00000000E+00  0.00000000E+00
  0.00000000E+00  0.00000000E+00  0.00000000E+00
  0.00000000E+00  0.00000000E+00  0.00000000E+00
  0.00000000E+00  0.00000000E+00  0.00000000E+00
  0.00000000E+00  0.00000000E+00  0.00000000E+00
  0.00000000E+00  0.00000000E+00  0.00000000E+00
  0.00000000E+00  0.00000000E+00  0.00000000E+00
  0.00000000E+00  0.00000000E+00  0.00000000E+00
  0.00000000E+00  0.00000000E+00  0.00000000E+00
  0.00000000E+00  0.00000000E+00  0.00000000E+00
  0.00000000E+00  0.00000000E+00  0.00000000E+00
  0.00000000E+00  0.00000000E+00  0.00000000E+00
  0.00000000E+00  0.00000000E+00  0.00000000E+00
  0.00000000E+00  0.00000000E+00  0.00000000E+00
  0.00000000E+00  0.00000000E+00  0.00000000E+00
  0.00000000E+00  0.00000000E+00  0.00000000E+00
  0.00000000E+00  0.00000000E+00  0.00000000E+00
  0.00000000E+00  0.00000000E+00  0.00000000E+00
