1h\(2)                                  
   1.00000000000000     
    12.3312997818000003    0.0000000000000000    0.0000000000000000
     0.0001127485000000   12.8291997905000006    0.0000000000000000
     0.0005937186000000    0.0011528207000000   19.9943999824000009
   C    N    Fe   Ni
    53     3     1     1
Direct
  0.0559493593659619  0.0541253236455658  0.0549393142994677
  0.1562782658964920  0.1102971491052100  0.0549746090400274
  0.1570028382857080  0.2211349472773793  0.0545386939625764
  0.0570546801655284  0.2760193602038993  0.0541517580105138
  0.2568742895500795  0.0561391575142139  0.0557614792937180
  0.3571923531859485  0.1126309406932254  0.0565283431073535
  0.3579507058407104  0.2243511342830187  0.0562251874273354
  0.2569430395869395  0.2774972206243831  0.0549674521407396
  0.4571352477586045  0.0569635569260287  0.0575130092232698
  0.5582483853313428  0.1131784127177908  0.0578570273673207
  0.5592721824251964  0.2259180957222574  0.0577641480313381
  0.4584768945185056  0.2830565533881528  0.0571715424290003
  0.6571694270179912  0.0532899523390600  0.0577467565191673
  0.7564568374541005  0.1097091014958361  0.0569548055382766
  0.7579141421508798  0.2218254156772090  0.0567829936210226
  0.6606534990185792  0.2819818027128782  0.0575467614884725
  0.8553853129651353  0.0525416819876042  0.0561173288271183
  0.9559134311660669  0.1084639856886990  0.0552177494335593
  0.9573618790418719  0.2200115206588628  0.0548439886964837
  0.8583065129010931  0.2761265272962450  0.0555784748492770
  0.0573781381235781  0.3874095515315255  0.0537041684475782
  0.1560214905454010  0.4438732183532282  0.0537034723900672
  0.1556666328712223  0.5550724798051536  0.0537646179608733
  0.0559659929481203  0.6103510863676921  0.0537224693251349
  0.2554630446904492  0.3884749418371810  0.0545423385238340
  0.3536971535607129  0.4448176772854427  0.0556801435219482
  0.3549406528285894  0.5569440601090400  0.0558182285848437
  0.2549934844738788  0.6115925118346944  0.0547350535263057
  0.7618714141334055  0.4440536773905999  0.0564905948933481
  0.8600884544020666  0.3872334697819629  0.0552669684950678
  0.9585682472354126  0.4430134711861501  0.0541298287983542
  0.9567833351136993  0.5541465993091869  0.0541397751726244
  0.8557312528779456  0.6067600504061550  0.0553512828776448
  0.0551174747394016  0.7210960624088255  0.0541241012655288
  0.1541428380746150  0.7777825801923378  0.0545841750365998
  0.1554013539918775  0.8886488551644827  0.0550142767687391
  0.0551056331573456  0.9430644714952279  0.0549307475868660
  0.2535523208577045  0.7226130804920960  0.0551460862299798
  0.3523438104877660  0.7779352797442513  0.0565824223264046
  0.3551349107732881  0.8893081275617285  0.0568064035567496
  0.2556877617255483  0.9447493584614094  0.0558332797380316
  0.4513140849417285  0.7206191920807782  0.0578849964347546
  0.5545448995804848  0.8872644220771044  0.0584627501816881
  0.4556071138595161  0.9454541969163190  0.0577574835832746
  0.7553505288357268  0.8810046569332125  0.0570792171929927
  0.6564034525922536  0.9405422009372223  0.0579518874360547
  0.8553160939464589  0.7195077810387404  0.0556024501109446
  0.9549550578788510  0.7752562755710068  0.0548116463759341
  0.9554586360498863  0.8867392467438335  0.0551942123924618
  0.8545544969727163  0.9401306044209421  0.0561322290900367
  0.4538662662225607  0.3936217333045383  0.0571101831414587
  0.4564033907816104  0.6085857928287962  0.0575207867853760
  0.5489663177382748  0.7781828611822685  0.0589299638835571
  0.6657189831060291  0.3901938547422349  0.0576281204034550
  0.7585092025443514  0.5523238832202050  0.0565976650194118
  0.7567805014024406  0.7707508552644934  0.0568925262997511
  0.6397198617216030  0.6678085169710569  0.0581601953884291
  0.5645464745867479  0.4951217130913295  0.0581318229478666
 
  0.00000000E+00  0.00000000E+00  0.00000000E+00
  0.00000000E+00  0.00000000E+00  0.00000000E+00
  0.00000000E+00  0.00000000E+00  0.00000000E+00
  0.00000000E+00  0.00000000E+00  0.00000000E+00
  0.00000000E+00  0.00000000E+00  0.00000000E+00
  0.00000000E+00  0.00000000E+00  0.00000000E+00
  0.00000000E+00  0.00000000E+00  0.00000000E+00
  0.00000000E+00  0.00000000E+00  0.00000000E+00
  0.00000000E+00  0.00000000E+00  0.00000000E+00
  0.00000000E+00  0.00000000E+00  0.00000000E+00
  0.00000000E+00  0.00000000E+00  0.00000000E+00
  0.00000000E+00  0.00000000E+00  0.00000000E+00
  0.00000000E+00  0.00000000E+00  0.00000000E+00
  0.00000000E+00  0.00000000E+00  0.00000000E+00
  0.00000000E+00  0.00000000E+00  0.00000000E+00
  0.00000000E+00  0.00000000E+00  0.00000000E+00
  0.00000000E+00  0.00000000E+00  0.00000000E+00
  0.00000000E+00  0.00000000E+00  0.00000000E+00
  0.00000000E+00  0.00000000E+00  0.00000000E+00
  0.00000000E+00  0.00000000E+00  0.00000000E+00
  0.00000000E+00  0.00000000E+00  0.00000000E+00
  0.00000000E+00  0.00000000E+00  0.00000000E+00
  0.00000000E+00  0.00000000E+00  0.00000000E+00
  0.00000000E+00  0.00000000E+00  0.00000000E+00
  0.00000000E+00  0.00000000E+00  0.00000000E+00
  0.00000000E+00  0.00000000E+00  0.00000000E+00
  0.00000000E+00  0.00000000E+00  0.00000000E+00
  0.00000000E+00  0.00000000E+00  0.00000000E+00
  0.00000000E+00  0.00000000E+00  0.00000000E+00
  0.00000000E+00  0.00000000E+00  0.00000000E+00
  0.00000000E+00  0.00000000E+00  0.00000000E+00
  0.00000000E+00  0.00000000E+00  0.00000000E+00
  0.00000000E+00  0.00000000E+00  0.00000000E+00
  0.00000000E+00  0.00000000E+00  0.00000000E+00
  0.00000000E+00  0.00000000E+00  0.00000000E+00
  0.00000000E+00  0.00000000E+00  0.00000000E+00
  0.00000000E+00  0.00000000E+00  0.00000000E+00
  0.00000000E+00  0.00000000E+00  0.00000000E+00
  0.00000000E+00  0.00000000E+00  0.00000000E+00
  0.00000000E+00  0.00000000E+00  0.00000000E+00
  0.00000000E+00  0.00000000E+00  0.00000000E+00
  0.00000000E+00  0.00000000E+00  0.00000000E+00
  0.00000000E+00  0.00000000E+00  0.00000000E+00
  0.00000000E+00  0.00000000E+00  0.00000000E+00
  0.00000000E+00  0.00000000E+00  0.00000000E+00
  0.00000000E+00  0.00000000E+00  0.00000000E+00
  0.00000000E+00  0.00000000E+00  0.00000000E+00
  0.00000000E+00  0.00000000E+00  0.00000000E+00
  0.00000000E+00  0.00000000E+00  0.00000000E+00
  0.00000000E+00  0.00000000E+00  0.00000000E+00
  0.00000000E+00  0.00000000E+00  0.00000000E+00
  0.00000000E+00  0.00000000E+00  0.00000000E+00
  0.00000000E+00  0.00000000E+00  0.00000000E+00
  0.00000000E+00  0.00000000E+00  0.00000000E+00
  0.00000000E+00  0.00000000E+00  0.00000000E+00
  0.00000000E+00  0.00000000E+00  0.00000000E+00
  0.00000000E+00  0.00000000E+00  0.00000000E+00
  0.00000000E+00  0.00000000E+00  0.00000000E+00
