235                                     
   1.00000000000000     
    12.3312997818000003    0.0000000000000000    0.0000000000000000
     0.0001127485000000   12.8291997905000006    0.0000000000000000
     0.0005937186000000    0.0011528207000000   19.9943999824000009
   C    N    Fe   Ni   O 
    53     3     1     1     2
Direct
  0.0555765472521027  0.0548105391956350  0.0489559447753924
  0.1560906246579122  0.1105399991317637  0.0489161244680775
  0.1570711125587020  0.2216019221873794  0.0487191767818217
  0.0567837502515442  0.2758752337399263  0.0483854733171385
  0.2561297645073887  0.0557688724043744  0.0499791387524516
  0.3567435428774061  0.1110805666912335  0.0526496678363759
  0.3576178902305378  0.2228377884635718  0.0530460291735161
  0.2573718644408254  0.2778360518585751  0.0499952641606295
  0.4563192710180539  0.0548270099506631  0.0553856167776793
  0.5564521142084197  0.1106147753993130  0.0583088798035338
  0.5573227081281279  0.2226927485663314  0.0602796078860210
  0.4576270958069210  0.2798149784539277  0.0575672148342146
  0.6550093181471411  0.0511673647384859  0.0582750028322685
  0.7550696353406111  0.1085762159945341  0.0560116613745942
  0.7561353244947190  0.2210625512386374  0.0565034628577123
  0.6578807406325288  0.2802876170298195  0.0618734200061512
  0.8547551853788261  0.0528004171890227  0.0529870313063624
  0.9550878544047106  0.1092819749022307  0.0504224344589450
  0.9560151727832071  0.2206186398459689  0.0500929336103614
  0.8562564096118582  0.2764594469768869  0.0527076966768956
  0.0579979172799946  0.3867136407765854  0.0476501661325630
  0.1572621821700451  0.4432314940922291  0.0473573962004976
  0.1568908525369822  0.5545080507723212  0.0467849721855764
  0.0579557640295902  0.6098079794778596  0.0465032447094805
  0.2575541385821883  0.3893094990826209  0.0492769567668573
  0.3575027439421177  0.4461606993429558  0.0525198628240137
  0.3562394539297714  0.5594702884154362  0.0529967879167287
  0.2554438556833816  0.6117407796872674  0.0485572393384422
  0.7602026241836597  0.4475656360545929  0.0584930821103614
  0.8580533650317332  0.3882227699592382  0.0521716535856618
  0.9585343157599958  0.4419727286940325  0.0488194724724781
  0.9594120399238674  0.5525583357604773  0.0484611510767096
  0.8604882434384810  0.6064229231838254  0.0524979667268828
  0.0567945169487732  0.7210063568873567  0.0465061405114075
  0.1547911619939454  0.7778558780040919  0.0468017242571799
  0.1549812316560636  0.8890121974711422  0.0475633853291321
  0.0549277010467744  0.9437367057126207  0.0483269127533036
  0.2536448810396379  0.7224069246071921  0.0483477798514133
  0.3520017229486602  0.7783146469471581  0.0511563536190216
  0.3541285809980828  0.8891009906623516  0.0513191850252295
  0.2548770188569665  0.9447596235261333  0.0491847119460004
  0.4491755818276210  0.7213431385308655  0.0568210702155914
  0.5519847869930091  0.8827161752533284  0.0584013886371854
  0.4548121343633114  0.9428002536712110  0.0549224861691498
  0.7546600563642232  0.8818197766787537  0.0574573630607794
  0.6540314053687850  0.9383216170777019  0.0589532890520204
  0.8593735135344353  0.7189595138379152  0.0522209172667730
  0.9570991367355747  0.7758188454995039  0.0485197442526098
  0.9552881969006847  0.8870760804661761  0.0497233956173582
  0.8542357405511504  0.9406205846726309  0.0532196287503567
  0.4563889302236880  0.3912479395929053  0.0588085840292068
  0.6609345503120145  0.3909819915010438  0.0673466593230656
  0.7589172484676261  0.7700486312423405  0.0587301891259491
  0.7638804834058234  0.5562269400542939  0.0583994103481577
  0.5464584116903766  0.7744505919263309  0.0600729566459759
  0.4511560829951957  0.6139723292668674  0.0593875200830683
  0.6512891076271141  0.6703559293863313  0.0725421315962248
  0.5564318608358810  0.4847770448721378  0.0894741879512016
  0.6114932196557987  0.5477942566731491  0.1668948199275343
  0.6359191964354061  0.6535055517207186  0.1597163419187036
 
  0.00000000E+00  0.00000000E+00  0.00000000E+00
  0.00000000E+00  0.00000000E+00  0.00000000E+00
  0.00000000E+00  0.00000000E+00  0.00000000E+00
  0.00000000E+00  0.00000000E+00  0.00000000E+00
  0.00000000E+00  0.00000000E+00  0.00000000E+00
  0.00000000E+00  0.00000000E+00  0.00000000E+00
  0.00000000E+00  0.00000000E+00  0.00000000E+00
  0.00000000E+00  0.00000000E+00  0.00000000E+00
  0.00000000E+00  0.00000000E+00  0.00000000E+00
  0.00000000E+00  0.00000000E+00  0.00000000E+00
  0.00000000E+00  0.00000000E+00  0.00000000E+00
  0.00000000E+00  0.00000000E+00  0.00000000E+00
  0.00000000E+00  0.00000000E+00  0.00000000E+00
  0.00000000E+00  0.00000000E+00  0.00000000E+00
  0.00000000E+00  0.00000000E+00  0.00000000E+00
  0.00000000E+00  0.00000000E+00  0.00000000E+00
  0.00000000E+00  0.00000000E+00  0.00000000E+00
  0.00000000E+00  0.00000000E+00  0.00000000E+00
  0.00000000E+00  0.00000000E+00  0.00000000E+00
  0.00000000E+00  0.00000000E+00  0.00000000E+00
  0.00000000E+00  0.00000000E+00  0.00000000E+00
  0.00000000E+00  0.00000000E+00  0.00000000E+00
  0.00000000E+00  0.00000000E+00  0.00000000E+00
  0.00000000E+00  0.00000000E+00  0.00000000E+00
  0.00000000E+00  0.00000000E+00  0.00000000E+00
  0.00000000E+00  0.00000000E+00  0.00000000E+00
  0.00000000E+00  0.00000000E+00  0.00000000E+00
  0.00000000E+00  0.00000000E+00  0.00000000E+00
  0.00000000E+00  0.00000000E+00  0.00000000E+00
  0.00000000E+00  0.00000000E+00  0.00000000E+00
  0.00000000E+00  0.00000000E+00  0.00000000E+00
  0.00000000E+00  0.00000000E+00  0.00000000E+00
  0.00000000E+00  0.00000000E+00  0.00000000E+00
  0.00000000E+00  0.00000000E+00  0.00000000E+00
  0.00000000E+00  0.00000000E+00  0.00000000E+00
  0.00000000E+00  0.00000000E+00  0.00000000E+00
  0.00000000E+00  0.00000000E+00  0.00000000E+00
  0.00000000E+00  0.00000000E+00  0.00000000E+00
  0.00000000E+00  0.00000000E+00  0.00000000E+00
  0.00000000E+00  0.00000000E+00  0.00000000E+00
  0.00000000E+00  0.00000000E+00  0.00000000E+00
  0.00000000E+00  0.00000000E+00  0.00000000E+00
  0.00000000E+00  0.00000000E+00  0.00000000E+00
  0.00000000E+00  0.00000000E+00  0.00000000E+00
  0.00000000E+00  0.00000000E+00  0.00000000E+00
  0.00000000E+00  0.00000000E+00  0.00000000E+00
  0.00000000E+00  0.00000000E+00  0.00000000E+00
  0.00000000E+00  0.00000000E+00  0.00000000E+00
  0.00000000E+00  0.00000000E+00  0.00000000E+00
  0.00000000E+00  0.00000000E+00  0.00000000E+00
  0.00000000E+00  0.00000000E+00  0.00000000E+00
  0.00000000E+00  0.00000000E+00  0.00000000E+00
  0.00000000E+00  0.00000000E+00  0.00000000E+00
  0.00000000E+00  0.00000000E+00  0.00000000E+00
  0.00000000E+00  0.00000000E+00  0.00000000E+00
  0.00000000E+00  0.00000000E+00  0.00000000E+00
  0.00000000E+00  0.00000000E+00  0.00000000E+00
  0.00000000E+00  0.00000000E+00  0.00000000E+00
  0.00000000E+00  0.00000000E+00  0.00000000E+00
  0.00000000E+00  0.00000000E+00  0.00000000E+00
