CONTCAR\(10)                            
   1.00000000000000     
    12.3312997818000003    0.0000000000000000    0.0000000000000000
     0.0001127485000000   12.8291997905000006    0.0000000000000000
     0.0005937186000000    0.0011528207000000   19.9943999824000009
   C    N    Fe   Ni   O 
    52     4     1     1     2
Direct
  0.0555905361662556  0.0553465661810429  0.0511439385017708
  0.1562402935516773  0.1114857681094629  0.0509626987800972
  0.1572475524227319  0.2225055316567336  0.0502280432424889
  0.0569436244042967  0.2767398644327722  0.0498842803976713
  0.2565235578992666  0.0570902996261333  0.0520163782467579
  0.3571902205307188  0.1129234055914060  0.0540781031364543
  0.3580023121997656  0.2248418511039164  0.0536068485984414
  0.2574554815211040  0.2791525119105074  0.0507141938410638
  0.4570255839560363  0.0569913147958291  0.0568592027724100
  0.5573939330031470  0.1132940407598172  0.0592732874965607
  0.5587398720158490  0.2265409334217705  0.0601624001869016
  0.4582168025742634  0.2829359908784406  0.0569511245041198
  0.6549658676849979  0.0529674214226219  0.0595533063624548
  0.7549655888876902  0.1096388601805921  0.0575065583297444
  0.7567710633032815  0.2222923738413993  0.0578311799912981
  0.6598782532788122  0.2826851611455628  0.0616335562977751
  0.8547165197514747  0.0535830382413164  0.0547596485333782
  0.9552811952655414  0.1096873173224760  0.0524792607421148
  0.9566470824528396  0.2210251368872297  0.0519909608665692
  0.8573499490220634  0.2767455659561531  0.0543355987500267
  0.0575233962616979  0.3876404609072411  0.0485186236072548
  0.1565831869868403  0.4445403885067128  0.0479097160234835
  0.1561592875507348  0.5556505500294724  0.0474160418326546
  0.0571194754129288  0.6108850933294871  0.0471787340958566
  0.2565178683585743  0.3906050673934764  0.0494842894258288
  0.3557617293750220  0.4480968600331478  0.0518426292838805
  0.3551280853192999  0.5606248786510875  0.0528278598689108
  0.2548987521875405  0.6130599508911442  0.0493084142940746
  0.7607848263986524  0.4459625036228008  0.0577423898636376
  0.8588605096867739  0.3879466988004356  0.0530413778725896
  0.9584324150224275  0.4427138751176854  0.0493663098187075
  0.9583242923918567  0.5534955413790980  0.0486496350343255
  0.8589501887189681  0.6062022351379447  0.0515173859375864
  0.0562008247284753  0.7219185134270379  0.0475590804835514
  0.1546363243412755  0.7790015620679650  0.0485034339471175
  0.1550423019083954  0.8899344567269556  0.0497404603924108
  0.0547062426831900  0.9442455449372373  0.0504370185297658
  0.2534774595877745  0.7238183388965959  0.0498796955740420
  0.3522066406632081  0.7792955954637458  0.0530344264863132
  0.3543828275182008  0.8903912593678479  0.0535021433199716
  0.2551547388530855  0.9458635749146996  0.0514789595039405
  0.4495679838202468  0.7218768555056959  0.0578352478704102
  0.5519625763568611  0.8841974398991042  0.0599898924382790
  0.4551252884142055  0.9446236401276993  0.0568327797724847
  0.7540879578803588  0.8827450216994429  0.0586684283107977
  0.6537492432587544  0.9394625388709247  0.0603499354960824
  0.8581471555754568  0.7183825141005907  0.0521053652657191
  0.9563249337850507  0.7759497987192104  0.0493551050050383
  0.9548354247067995  0.8874738567626385  0.0512901128528462
  0.8539360421285322  0.9414045353089537  0.0546986929526310
  0.4543721118591710  0.3937274768339875  0.0568910932993880
  0.7580871713636295  0.7707729343975933  0.0594741573303135
  0.4514561052890572  0.6139734019739500  0.0589510360334415
  0.6647813890096858  0.3915405084622999  0.0649621917847801
  0.7612075241717366  0.5539259025131514  0.0557267928468223
  0.5465120256698807  0.7755087864291809  0.0613159253933558
  0.6508513306547701  0.6724191237064568  0.0768815086003119
  0.5580403500215886  0.4868252906729236  0.0840847165882372
  0.6384685660111561  0.6493850626620324  0.1651574771242444
  0.6051700761763525  0.5453593362871466  0.1663103542608191
 
  0.00000000E+00  0.00000000E+00  0.00000000E+00
  0.00000000E+00  0.00000000E+00  0.00000000E+00
  0.00000000E+00  0.00000000E+00  0.00000000E+00
  0.00000000E+00  0.00000000E+00  0.00000000E+00
  0.00000000E+00  0.00000000E+00  0.00000000E+00
  0.00000000E+00  0.00000000E+00  0.00000000E+00
  0.00000000E+00  0.00000000E+00  0.00000000E+00
  0.00000000E+00  0.00000000E+00  0.00000000E+00
  0.00000000E+00  0.00000000E+00  0.00000000E+00
  0.00000000E+00  0.00000000E+00  0.00000000E+00
  0.00000000E+00  0.00000000E+00  0.00000000E+00
  0.00000000E+00  0.00000000E+00  0.00000000E+00
  0.00000000E+00  0.00000000E+00  0.00000000E+00
  0.00000000E+00  0.00000000E+00  0.00000000E+00
  0.00000000E+00  0.00000000E+00  0.00000000E+00
  0.00000000E+00  0.00000000E+00  0.00000000E+00
  0.00000000E+00  0.00000000E+00  0.00000000E+00
  0.00000000E+00  0.00000000E+00  0.00000000E+00
  0.00000000E+00  0.00000000E+00  0.00000000E+00
  0.00000000E+00  0.00000000E+00  0.00000000E+00
  0.00000000E+00  0.00000000E+00  0.00000000E+00
  0.00000000E+00  0.00000000E+00  0.00000000E+00
  0.00000000E+00  0.00000000E+00  0.00000000E+00
  0.00000000E+00  0.00000000E+00  0.00000000E+00
  0.00000000E+00  0.00000000E+00  0.00000000E+00
  0.00000000E+00  0.00000000E+00  0.00000000E+00
  0.00000000E+00  0.00000000E+00  0.00000000E+00
  0.00000000E+00  0.00000000E+00  0.00000000E+00
  0.00000000E+00  0.00000000E+00  0.00000000E+00
  0.00000000E+00  0.00000000E+00  0.00000000E+00
  0.00000000E+00  0.00000000E+00  0.00000000E+00
  0.00000000E+00  0.00000000E+00  0.00000000E+00
  0.00000000E+00  0.00000000E+00  0.00000000E+00
  0.00000000E+00  0.00000000E+00  0.00000000E+00
  0.00000000E+00  0.00000000E+00  0.00000000E+00
  0.00000000E+00  0.00000000E+00  0.00000000E+00
  0.00000000E+00  0.00000000E+00  0.00000000E+00
  0.00000000E+00  0.00000000E+00  0.00000000E+00
  0.00000000E+00  0.00000000E+00  0.00000000E+00
  0.00000000E+00  0.00000000E+00  0.00000000E+00
  0.00000000E+00  0.00000000E+00  0.00000000E+00
  0.00000000E+00  0.00000000E+00  0.00000000E+00
  0.00000000E+00  0.00000000E+00  0.00000000E+00
  0.00000000E+00  0.00000000E+00  0.00000000E+00
  0.00000000E+00  0.00000000E+00  0.00000000E+00
  0.00000000E+00  0.00000000E+00  0.00000000E+00
  0.00000000E+00  0.00000000E+00  0.00000000E+00
  0.00000000E+00  0.00000000E+00  0.00000000E+00
  0.00000000E+00  0.00000000E+00  0.00000000E+00
  0.00000000E+00  0.00000000E+00  0.00000000E+00
  0.00000000E+00  0.00000000E+00  0.00000000E+00
  0.00000000E+00  0.00000000E+00  0.00000000E+00
  0.00000000E+00  0.00000000E+00  0.00000000E+00
  0.00000000E+00  0.00000000E+00  0.00000000E+00
  0.00000000E+00  0.00000000E+00  0.00000000E+00
  0.00000000E+00  0.00000000E+00  0.00000000E+00
  0.00000000E+00  0.00000000E+00  0.00000000E+00
  0.00000000E+00  0.00000000E+00  0.00000000E+00
  0.00000000E+00  0.00000000E+00  0.00000000E+00
  0.00000000E+00  0.00000000E+00  0.00000000E+00
