POSCAR                                  
   1.00000000000000     
    12.3312997818000003    0.0000000000000000    0.0000000000000000
     0.0001127485000000   12.8291997905000006    0.0000000000000000
     0.0005937186000000    0.0011528207000000   19.9943999824000009
   C    N    Fe   Ni   O 
    53     3     1     1     1
Direct
  0.0556508733338255  0.0548341471699722  0.0499879407380703
  0.1559952356233802  0.1097336652008113  0.0502597357392919
  0.1553646694886171  0.2204368919818546  0.0484267756764425
  0.0554213131519600  0.2763859457164938  0.0464341003045961
  0.2567008876405640  0.0548741294138983  0.0530261108365182
  0.3568152150417550  0.1108002612698997  0.0570859958850300
  0.3558916173515994  0.2225630025179553  0.0564684004836760
  0.2550219250210633  0.2757227980821134  0.0501907829892921
  0.4567290115365709  0.0552668650339191  0.0620020738771995
  0.5561864048703012  0.1131133296764236  0.0649093061486615
  0.5558103926108552  0.2263280439363704  0.0661511205589236
  0.4541327506508674  0.2818064475531739  0.0630071170361397
  0.6561674724111417  0.0538130689555488  0.0638507701010335
  0.7551545894904234  0.1115299647149719  0.0595021721823400
  0.7552135632678740  0.2241345817843110  0.0591408505655505
  0.6566160971013217  0.2846445453729884  0.0653673548774025
  0.8548195090020417  0.0546931330288964  0.0551890622097171
  0.9551331704377436  0.1102162805741020  0.0514784077613210
  0.9551048043481417  0.2217887656655108  0.0498408815390797
  0.8553743470290529  0.2787957607838782  0.0529567682195083
  0.0562921915079343  0.3875397141511959  0.0431301623829053
  0.1555045266311693  0.4431854966475356  0.0422238320729404
  0.1561074222890258  0.5543663622618807  0.0412835707761478
  0.0573358107429950  0.6109025527328188  0.0404887258701895
  0.2544198906181105  0.3863029169912497  0.0468651648156234
  0.3528405824302974  0.4404569138574969  0.0533280671148749
  0.3539813041800724  0.5526842308280844  0.0527616280632634
  0.2553993149679913  0.6094871716824873  0.0456418674917686
  0.7597357936569318  0.4506431236604521  0.0567748798196611
  0.8573808522520984  0.3904101671073145  0.0502116465771800
  0.9572208198648858  0.4440852409787858  0.0439553786068964
  0.9584242225778582  0.5552682846370339  0.0420687618884555
  0.8590565280837325  0.6100908701112278  0.0465383251885616
  0.0571013516788971  0.7218834167690787  0.0425298407386437
  0.1564079474187098  0.7772919272537872  0.0453033652462974
  0.1566693039565308  0.8883650284339110  0.0482928771621022
  0.0563124668943469  0.9439334884678534  0.0488146900637683
  0.2558855224067160  0.7208126862493310  0.0479273560370130
  0.3548933835876610  0.7754935552536741  0.0561613693600818
  0.3565537620078291  0.8872483817655703  0.0572185205816102
  0.2568136697403250  0.9434756550254477  0.0523999490120020
  0.4531054179437878  0.7171128439960581  0.0664772412036362
  0.5555588733450393  0.8844117902464868  0.0688657573163618
  0.4565124578729450  0.9430379813961532  0.0629735248992215
  0.7572044810531154  0.8832885727198050  0.0595812675792796
  0.6565962881733532  0.9405610169189594  0.0652738689032257
  0.8580557362334735  0.7231611959215376  0.0484923822781385
  0.9573176903371342  0.7776230465057797  0.0458381069079615
  0.9565504780444822  0.8886433490644452  0.0493673475674285
  0.8556322476104179  0.9424986860624386  0.0545548212156077
  0.4511660311936093  0.6050917751908819  0.0663002197565273
  0.6615287860137826  0.3959206287833195  0.0689752934046134
  0.5509281838706895  0.7743099210946184  0.0756456532174604
  0.4489458535386811  0.3897727716499314  0.0647101446708410
  0.7639100043130854  0.5587846069708919  0.0535365616480755
  0.7604862928029088  0.7743695935041702  0.0571785597773654
  0.6552826882864825  0.6683251512851900  0.0827892045498596
  0.5504053282393163  0.4916578711735878  0.0939319963989312
  0.6142626462244789  0.5851103762164330  0.1464923411056663
 
  0.00000000E+00  0.00000000E+00  0.00000000E+00
  0.00000000E+00  0.00000000E+00  0.00000000E+00
  0.00000000E+00  0.00000000E+00  0.00000000E+00
  0.00000000E+00  0.00000000E+00  0.00000000E+00
  0.00000000E+00  0.00000000E+00  0.00000000E+00
  0.00000000E+00  0.00000000E+00  0.00000000E+00
  0.00000000E+00  0.00000000E+00  0.00000000E+00
  0.00000000E+00  0.00000000E+00  0.00000000E+00
  0.00000000E+00  0.00000000E+00  0.00000000E+00
  0.00000000E+00  0.00000000E+00  0.00000000E+00
  0.00000000E+00  0.00000000E+00  0.00000000E+00
  0.00000000E+00  0.00000000E+00  0.00000000E+00
  0.00000000E+00  0.00000000E+00  0.00000000E+00
  0.00000000E+00  0.00000000E+00  0.00000000E+00
  0.00000000E+00  0.00000000E+00  0.00000000E+00
  0.00000000E+00  0.00000000E+00  0.00000000E+00
  0.00000000E+00  0.00000000E+00  0.00000000E+00
  0.00000000E+00  0.00000000E+00  0.00000000E+00
  0.00000000E+00  0.00000000E+00  0.00000000E+00
  0.00000000E+00  0.00000000E+00  0.00000000E+00
  0.00000000E+00  0.00000000E+00  0.00000000E+00
  0.00000000E+00  0.00000000E+00  0.00000000E+00
  0.00000000E+00  0.00000000E+00  0.00000000E+00
  0.00000000E+00  0.00000000E+00  0.00000000E+00
  0.00000000E+00  0.00000000E+00  0.00000000E+00
  0.00000000E+00  0.00000000E+00  0.00000000E+00
  0.00000000E+00  0.00000000E+00  0.00000000E+00
  0.00000000E+00  0.00000000E+00  0.00000000E+00
  0.00000000E+00  0.00000000E+00  0.00000000E+00
  0.00000000E+00  0.00000000E+00  0.00000000E+00
  0.00000000E+00  0.00000000E+00  0.00000000E+00
  0.00000000E+00  0.00000000E+00  0.00000000E+00
  0.00000000E+00  0.00000000E+00  0.00000000E+00
  0.00000000E+00  0.00000000E+00  0.00000000E+00
  0.00000000E+00  0.00000000E+00  0.00000000E+00
  0.00000000E+00  0.00000000E+00  0.00000000E+00
  0.00000000E+00  0.00000000E+00  0.00000000E+00
  0.00000000E+00  0.00000000E+00  0.00000000E+00
  0.00000000E+00  0.00000000E+00  0.00000000E+00
  0.00000000E+00  0.00000000E+00  0.00000000E+00
  0.00000000E+00  0.00000000E+00  0.00000000E+00
  0.00000000E+00  0.00000000E+00  0.00000000E+00
  0.00000000E+00  0.00000000E+00  0.00000000E+00
  0.00000000E+00  0.00000000E+00  0.00000000E+00
  0.00000000E+00  0.00000000E+00  0.00000000E+00
  0.00000000E+00  0.00000000E+00  0.00000000E+00
  0.00000000E+00  0.00000000E+00  0.00000000E+00
  0.00000000E+00  0.00000000E+00  0.00000000E+00
  0.00000000E+00  0.00000000E+00  0.00000000E+00
  0.00000000E+00  0.00000000E+00  0.00000000E+00
  0.00000000E+00  0.00000000E+00  0.00000000E+00
  0.00000000E+00  0.00000000E+00  0.00000000E+00
  0.00000000E+00  0.00000000E+00  0.00000000E+00
  0.00000000E+00  0.00000000E+00  0.00000000E+00
  0.00000000E+00  0.00000000E+00  0.00000000E+00
  0.00000000E+00  0.00000000E+00  0.00000000E+00
  0.00000000E+00  0.00000000E+00  0.00000000E+00
  0.00000000E+00  0.00000000E+00  0.00000000E+00
  0.00000000E+00  0.00000000E+00  0.00000000E+00
