0                                       
   1.00000000000000     
    12.3312997818000003    0.0000000000000000    0.0000000000000000
     0.0001127485000000   12.8291997905000006    0.0000000000000000
     0.0005937186000000    0.0011528207000000   19.9943999824000009
   C    Fe   Ni   O    H 
    56     1     1     1     1
Direct
  0.0563259763768102  0.0545910450685278  0.0495772705992460
  0.1565998098383655  0.1099792814431245  0.0496051450579034
  0.1567602729918900  0.2207735155312562  0.0488608338608549
  0.0566633425101106  0.2760641175210196  0.0478840575663816
  0.2568499418470995  0.0550367792053422  0.0511745329962231
  0.3568811774958781  0.1109658201630562  0.0538410646706781
  0.3572383856779264  0.2224167515726026  0.0539268717129226
  0.2566937430315692  0.2764234736725480  0.0502895745272564
  0.4564697856341701  0.0548808832336547  0.0571503052066008
  0.5566311810898731  0.1111122931838058  0.0597847456251122
  0.5569552266825590  0.2223140836891564  0.0615644843535517
  0.4571305954603074  0.2799409544083010  0.0588458153222987
  0.6565627181479969  0.0535948348562791  0.0596149174738150
  0.7564616639130992  0.1100393120182349  0.0567458482009795
  0.7566936065962521  0.2215363189332881  0.0569910139175474
  0.6572459118031335  0.2790319114929483  0.0625559884433032
  0.8559928603796996  0.0536360993107316  0.0535235971813014
  0.9560486511157471  0.1095273707448326  0.0508569962515852
  0.9563699290177268  0.2207814094085626  0.0500487285386752
  0.8568139503847249  0.2769141413736307  0.0525144407366301
  0.0569383683519822  0.3870816510351116  0.0463039341761963
  0.1563659102620771  0.4429835715232444  0.0465689215927771
  0.1567603234595265  0.5544015909677307  0.0461920021834778
  0.0574568568324145  0.6099548775323964  0.0452759381223183
  0.2560139816631966  0.3872514588448430  0.0492758305255555
  0.3550166748947169  0.4429787504307757  0.0533776416099650
  0.3555586279034748  0.5553852454392832  0.0532571698320063
  0.2560392252632385  0.6105791143501152  0.0486737983117565
  0.7579079110594021  0.4459396312708140  0.0563146916218975
  0.8574620368090873  0.3880918212348227  0.0505775615697383
  0.9572611954935970  0.4428004890675707  0.0464447961407527
  0.9582460025974089  0.5536734239844179  0.0455922962250561
  0.8588659588800389  0.6088724449722844  0.0478282009410023
  0.0571146528090444  0.7213634360222984  0.0460972650465064
  0.1562951467945982  0.7772825256371921  0.0472301139925259
  0.1563949266553027  0.8883996401293499  0.0485091402478586
  0.0562466474142365  0.9437797096681562  0.0490001771374254
  0.2558667050550351  0.7215597621714218  0.0490180179508050
  0.3550473645741041  0.7765971148635955  0.0534648130102833
  0.3561283374940742  0.8878125057723423  0.0538419866524908
  0.2565163210410905  0.9438247940627725  0.0507512808758827
  0.4542156761266162  0.7190709325261505  0.0611308983160520
  0.5556557431187791  0.8863907269181183  0.0629856946494527
  0.4561069155882332  0.9435943417037859  0.0579287483649408
  0.7558063918009615  0.8842240852982758  0.0581651565132600
  0.6563773082093370  0.9423161244062963  0.0611458148501314
  0.8585415552610897  0.7213130584817342  0.0507737877780210
  0.9574176458473055  0.7771709573413712  0.0482831372057563
  0.9563820520895603  0.8880465290601666  0.0500606947498781
  0.8556728150584950  0.9419726051414390  0.0535294880139433
  0.4551762725009689  0.3906848312823964  0.0604749295597066
  0.4550608539250828  0.6073189456956888  0.0625802098531690
  0.6597531316194120  0.3890657696689725  0.0682404379179086
  0.7590398144395637  0.5569250157131141  0.0537570603222981
  0.5524468932126321  0.7769702079687909  0.0690348013303279
  0.7578275526545345  0.7729713963917214  0.0588921608217372
  0.6522682892710989  0.6674886471122419  0.0846717452391615
  0.5571268599007706  0.4888104659105258  0.0877046581032477
  0.6225775019917440  0.5792818184018216  0.1597573448419090
  0.5632949830812215  0.6057495311659485  0.1873714175599312
 
  0.00000000E+00  0.00000000E+00  0.00000000E+00
  0.00000000E+00  0.00000000E+00  0.00000000E+00
  0.00000000E+00  0.00000000E+00  0.00000000E+00
  0.00000000E+00  0.00000000E+00  0.00000000E+00
  0.00000000E+00  0.00000000E+00  0.00000000E+00
  0.00000000E+00  0.00000000E+00  0.00000000E+00
  0.00000000E+00  0.00000000E+00  0.00000000E+00
  0.00000000E+00  0.00000000E+00  0.00000000E+00
  0.00000000E+00  0.00000000E+00  0.00000000E+00
  0.00000000E+00  0.00000000E+00  0.00000000E+00
  0.00000000E+00  0.00000000E+00  0.00000000E+00
  0.00000000E+00  0.00000000E+00  0.00000000E+00
  0.00000000E+00  0.00000000E+00  0.00000000E+00
  0.00000000E+00  0.00000000E+00  0.00000000E+00
  0.00000000E+00  0.00000000E+00  0.00000000E+00
  0.00000000E+00  0.00000000E+00  0.00000000E+00
  0.00000000E+00  0.00000000E+00  0.00000000E+00
  0.00000000E+00  0.00000000E+00  0.00000000E+00
  0.00000000E+00  0.00000000E+00  0.00000000E+00
  0.00000000E+00  0.00000000E+00  0.00000000E+00
  0.00000000E+00  0.00000000E+00  0.00000000E+00
  0.00000000E+00  0.00000000E+00  0.00000000E+00
  0.00000000E+00  0.00000000E+00  0.00000000E+00
  0.00000000E+00  0.00000000E+00  0.00000000E+00
  0.00000000E+00  0.00000000E+00  0.00000000E+00
  0.00000000E+00  0.00000000E+00  0.00000000E+00
  0.00000000E+00  0.00000000E+00  0.00000000E+00
  0.00000000E+00  0.00000000E+00  0.00000000E+00
  0.00000000E+00  0.00000000E+00  0.00000000E+00
  0.00000000E+00  0.00000000E+00  0.00000000E+00
  0.00000000E+00  0.00000000E+00  0.00000000E+00
  0.00000000E+00  0.00000000E+00  0.00000000E+00
  0.00000000E+00  0.00000000E+00  0.00000000E+00
  0.00000000E+00  0.00000000E+00  0.00000000E+00
  0.00000000E+00  0.00000000E+00  0.00000000E+00
  0.00000000E+00  0.00000000E+00  0.00000000E+00
  0.00000000E+00  0.00000000E+00  0.00000000E+00
  0.00000000E+00  0.00000000E+00  0.00000000E+00
  0.00000000E+00  0.00000000E+00  0.00000000E+00
  0.00000000E+00  0.00000000E+00  0.00000000E+00
  0.00000000E+00  0.00000000E+00  0.00000000E+00
  0.00000000E+00  0.00000000E+00  0.00000000E+00
  0.00000000E+00  0.00000000E+00  0.00000000E+00
  0.00000000E+00  0.00000000E+00  0.00000000E+00
  0.00000000E+00  0.00000000E+00  0.00000000E+00
  0.00000000E+00  0.00000000E+00  0.00000000E+00
  0.00000000E+00  0.00000000E+00  0.00000000E+00
  0.00000000E+00  0.00000000E+00  0.00000000E+00
  0.00000000E+00  0.00000000E+00  0.00000000E+00
  0.00000000E+00  0.00000000E+00  0.00000000E+00
  0.00000000E+00  0.00000000E+00  0.00000000E+00
  0.00000000E+00  0.00000000E+00  0.00000000E+00
  0.00000000E+00  0.00000000E+00  0.00000000E+00
  0.00000000E+00  0.00000000E+00  0.00000000E+00
  0.00000000E+00  0.00000000E+00  0.00000000E+00
  0.00000000E+00  0.00000000E+00  0.00000000E+00
  0.00000000E+00  0.00000000E+00  0.00000000E+00
  0.00000000E+00  0.00000000E+00  0.00000000E+00
  0.00000000E+00  0.00000000E+00  0.00000000E+00
  0.00000000E+00  0.00000000E+00  0.00000000E+00
