CONTCAR                                 
   1.00000000000000     
    12.3312997818000003    0.0000000000000000    0.0000000000000000
     0.0001127485000000   12.8291997905000006    0.0000000000000000
     0.0005937186000000    0.0011528207000000   19.9943999824000009
   C    N    Fe   Ni   H 
    53     3     1     1     2
Direct
  0.0557490598001795  0.0554975610787692  0.0524544101186455
  0.1561056953758934  0.1112011430268570  0.0516600743520043
  0.1565950325077645  0.2222095618196092  0.0512547936934580
  0.0561337044254459  0.2766408522332974  0.0521073269982903
  0.2561918668352162  0.0560540152162571  0.0518676429758890
  0.3568596781552557  0.1111366964061292  0.0541587670097410
  0.3574090675725983  0.2231679196264044  0.0538050955185336
  0.2569965078480786  0.2780282982050091  0.0508819928028682
  0.4562862123906899  0.0541938107858546  0.0571242668008109
  0.5565903593218440  0.1095890545133976  0.0610003386202706
  0.5568540540299578  0.2221035600080917  0.0620090460217752
  0.4574405158528753  0.2804268544855054  0.0571401237737196
  0.6554625844746371  0.0495659251472085  0.0624604691170829
  0.7549761226521147  0.1079572348508231  0.0614356687859845
  0.7559155399129378  0.2206171000176156  0.0626224385554294
  0.6570862630589273  0.2791948129492223  0.0658995776140264
  0.8548290264844931  0.0527632437588174  0.0580751521043837
  0.9551339143387543  0.1094387571061763  0.0552365733139854
  0.9558515874816358  0.2208409519505702  0.0552716201121038
  0.8561680634211255  0.2764872205143270  0.0589405587526332
  0.0566424799554304  0.3878356610138436  0.0507770810453009
  0.1562399785016545  0.4436471858993185  0.0480688738615182
  0.1559027124915032  0.5546547060226020  0.0466655348982736
  0.0568441628791968  0.6104100544616468  0.0477653987439372
  0.2564863325631154  0.3894019656208589  0.0487943286467645
  0.3563420053773960  0.4459364531650757  0.0494248846879739
  0.3550078021050822  0.5590363970113530  0.0484806668108590
  0.2544795508186109  0.6118425624661737  0.0465451688739839
  0.7595199861773000  0.4462181758720415  0.0660875163929513
  0.8578454369340646  0.3882806576403296  0.0587416905496613
  0.9574287093098199  0.4434112953228392  0.0534826804340560
  0.9576404345598034  0.5547674877385319  0.0520826380580310
  0.8593154656038965  0.6108701881784290  0.0575736942945918
  0.0562995434087896  0.7214796610471096  0.0476975791593987
  0.1545681429367463  0.7782640408100563  0.0469893808703143
  0.1552004841294070  0.8893127272816868  0.0488534966187080
  0.0555882231188453  0.9446644673467715  0.0509444735099638
  0.2531812754001680  0.7225255472531469  0.0467616906098533
  0.3518219287955299  0.7778673113605939  0.0497485101841634
  0.3541702510354401  0.8887034181437322  0.0519908414594825
  0.2551258176296722  0.9448832020443230  0.0504667567377470
  0.4492127499728511  0.7207882508740963  0.0543309810417635
  0.5517416163088095  0.8808145471079563  0.0613637602805875
  0.4549908758244027  0.9421666369728829  0.0565009823284956
  0.7567281017451224  0.8800181691486910  0.0611365276006410
  0.6547704959089332  0.9356917381567041  0.0629259230123306
  0.8594281477967379  0.7226862104082024  0.0559698709943478
  0.9574240754250769  0.7777844151466619  0.0510186624767991
  0.9562680318586171  0.8884468062586593  0.0527438859387084
  0.8549727243070567  0.9407737893705624  0.0573317897989435
  0.4562593001028834  0.3922552256538117  0.0549361375787393
  0.6602071284275676  0.3899702930297664  0.0699833245282135
  0.7592409485602760  0.5592742293526335  0.0675641311187605
  0.4508434633696506  0.6131347285529630  0.0517801301655104
  0.5452739460007355  0.7730278637014858  0.0633943965520096
  0.7615312021131032  0.7718388950732173  0.0615694681803128
  0.6491129270084331  0.6611059596997073  0.0788578461437602
  0.5602256436809332  0.4939027102137454  0.0682580932549365
  0.6586462404699230  0.6626364548074234  0.1528698687183898
  0.6079567154469860  0.5748852880704314  0.1296754047975753
 
  0.00000000E+00  0.00000000E+00  0.00000000E+00
  0.00000000E+00  0.00000000E+00  0.00000000E+00
  0.00000000E+00  0.00000000E+00  0.00000000E+00
  0.00000000E+00  0.00000000E+00  0.00000000E+00
  0.00000000E+00  0.00000000E+00  0.00000000E+00
  0.00000000E+00  0.00000000E+00  0.00000000E+00
  0.00000000E+00  0.00000000E+00  0.00000000E+00
  0.00000000E+00  0.00000000E+00  0.00000000E+00
  0.00000000E+00  0.00000000E+00  0.00000000E+00
  0.00000000E+00  0.00000000E+00  0.00000000E+00
  0.00000000E+00  0.00000000E+00  0.00000000E+00
  0.00000000E+00  0.00000000E+00  0.00000000E+00
  0.00000000E+00  0.00000000E+00  0.00000000E+00
  0.00000000E+00  0.00000000E+00  0.00000000E+00
  0.00000000E+00  0.00000000E+00  0.00000000E+00
  0.00000000E+00  0.00000000E+00  0.00000000E+00
  0.00000000E+00  0.00000000E+00  0.00000000E+00
  0.00000000E+00  0.00000000E+00  0.00000000E+00
  0.00000000E+00  0.00000000E+00  0.00000000E+00
  0.00000000E+00  0.00000000E+00  0.00000000E+00
  0.00000000E+00  0.00000000E+00  0.00000000E+00
  0.00000000E+00  0.00000000E+00  0.00000000E+00
  0.00000000E+00  0.00000000E+00  0.00000000E+00
  0.00000000E+00  0.00000000E+00  0.00000000E+00
  0.00000000E+00  0.00000000E+00  0.00000000E+00
  0.00000000E+00  0.00000000E+00  0.00000000E+00
  0.00000000E+00  0.00000000E+00  0.00000000E+00
  0.00000000E+00  0.00000000E+00  0.00000000E+00
  0.00000000E+00  0.00000000E+00  0.00000000E+00
  0.00000000E+00  0.00000000E+00  0.00000000E+00
  0.00000000E+00  0.00000000E+00  0.00000000E+00
  0.00000000E+00  0.00000000E+00  0.00000000E+00
  0.00000000E+00  0.00000000E+00  0.00000000E+00
  0.00000000E+00  0.00000000E+00  0.00000000E+00
  0.00000000E+00  0.00000000E+00  0.00000000E+00
  0.00000000E+00  0.00000000E+00  0.00000000E+00
  0.00000000E+00  0.00000000E+00  0.00000000E+00
  0.00000000E+00  0.00000000E+00  0.00000000E+00
  0.00000000E+00  0.00000000E+00  0.00000000E+00
  0.00000000E+00  0.00000000E+00  0.00000000E+00
  0.00000000E+00  0.00000000E+00  0.00000000E+00
  0.00000000E+00  0.00000000E+00  0.00000000E+00
  0.00000000E+00  0.00000000E+00  0.00000000E+00
  0.00000000E+00  0.00000000E+00  0.00000000E+00
  0.00000000E+00  0.00000000E+00  0.00000000E+00
  0.00000000E+00  0.00000000E+00  0.00000000E+00
  0.00000000E+00  0.00000000E+00  0.00000000E+00
  0.00000000E+00  0.00000000E+00  0.00000000E+00
  0.00000000E+00  0.00000000E+00  0.00000000E+00
  0.00000000E+00  0.00000000E+00  0.00000000E+00
  0.00000000E+00  0.00000000E+00  0.00000000E+00
  0.00000000E+00  0.00000000E+00  0.00000000E+00
  0.00000000E+00  0.00000000E+00  0.00000000E+00
  0.00000000E+00  0.00000000E+00  0.00000000E+00
  0.00000000E+00  0.00000000E+00  0.00000000E+00
  0.00000000E+00  0.00000000E+00  0.00000000E+00
  0.00000000E+00  0.00000000E+00  0.00000000E+00
  0.00000000E+00  0.00000000E+00  0.00000000E+00
  0.00000000E+00  0.00000000E+00  0.00000000E+00
  0.00000000E+00  0.00000000E+00  0.00000000E+00
