CONTCAR\(2)                             
   1.00000000000000     
    12.3312997818000003    0.0000000000000000    0.0000000000000000
     0.0001127485000000   12.8291997905000006    0.0000000000000000
     0.0005937186000000    0.0011528207000000   19.9943999824000009
   C    N    Fe   Ni   O 
    55     1     1     1     1
Direct
  0.0561408594714577  0.0555729447336307  0.0512743475892765
  0.1565412355910670  0.1106529946741968  0.0502375905669542
  0.1563210917356401  0.2215537579626299  0.0492183326510915
  0.0559246341576810  0.2767541227155300  0.0488789133552575
  0.2568676607103330  0.0551279418132600  0.0511106210835525
  0.3570042705725329  0.1106935851166247  0.0538398645410008
  0.3569284204852769  0.2226928862287648  0.0536581371389636
  0.2563975785430500  0.2773112727377331  0.0498014289735834
  0.4566334364811879  0.0540408208527524  0.0571845701475919
  0.5561610198976155  0.1110889830636896  0.0611016933131894
  0.5561594790218588  0.2227284802704681  0.0627084571574251
  0.4564691385122494  0.2804139915474954  0.0583669897374340
  0.6558363274841503  0.0530566441047143  0.0624662394833871
  0.7556938564033531  0.1103481414213743  0.0606440257984563
  0.7558139323675400  0.2222215206649730  0.0605022407179226
  0.6562809672042457  0.2800618166393725  0.0649826931605051
  0.8556584799035087  0.0544746159306469  0.0573726367308765
  0.9556701684117809  0.1104703198166976  0.0535046564140708
  0.9556263135788987  0.2216844628766921  0.0522606444406584
  0.8557652166734679  0.2778140581233515  0.0554424573183948
  0.0558503930614986  0.3877827702385704  0.0467910334233568
  0.1553101720254904  0.4435195906498554  0.0456466133184580
  0.1550965757306274  0.5547290629156634  0.0447038785086262
  0.0561789286331758  0.6106414555225486  0.0453614689309102
  0.2554233570160310  0.3883963405391314  0.0479570444680410
  0.3548643807741784  0.4444708129656043  0.0504671943531524
  0.3535334996312465  0.5572450873470328  0.0489222700606679
  0.2540940742845929  0.6113430169580040  0.0456044866543778
  0.7568052314007472  0.4472852171257283  0.0600686320372634
  0.8563423205617001  0.3892535662678909  0.0534958506807299
  0.9561419779469950  0.4436778742656116  0.0481038091161161
  0.9567464777720260  0.5546073926845410  0.0473732909878761
  0.8581073998387114  0.6108032534080154  0.0527035369704997
  0.0564677933793364  0.7220921193197921  0.0466274292950473
  0.1555994061619834  0.7780617158956913  0.0465264590796066
  0.1562314634032311  0.8890523349302167  0.0485790773635663
  0.0562155077363678  0.9447399110232713  0.0508085431696616
  0.2549497133956456  0.7220376375022952  0.0463405802332603
  0.3551275399081500  0.7757053710447922  0.0493827195254451
  0.3565875007135113  0.8871843702666169  0.0513564781007604
  0.2567530603260599  0.9437872708146938  0.0499248476721747
  0.4534597629604215  0.7158981648821777  0.0533477551302867
  0.5560125022455840  0.8825962121976235  0.0603609411852063
  0.4568522868969069  0.9418332254508307  0.0561898338120171
  0.7562717860015544  0.8848442603560601  0.0640587377234257
  0.6558559531135842  0.9412505715802455  0.0635270762022638
  0.8586587870239984  0.7227173269866520  0.0567908821671810
  0.9572829595109936  0.7781736795009833  0.0512372690660071
  0.9565068677607235  0.8890493956319042  0.0534781952173107
  0.8557579705777565  0.9429109107443290  0.0581960325350496
  0.4548027074948571  0.3916354798003635  0.0575479481119419
  0.6584324901737586  0.3904540333538364  0.0688685945868772
  0.7586539682000604  0.5590141747275137  0.0598805374178951
  0.5540169382026188  0.7709506139326311  0.0604174247200872
  0.7588373748128580  0.7739623000125336  0.0675691260286650
  0.4496329896018971  0.6080256631653708  0.0534394316519878
  0.6529563510262227  0.6678658211610435  0.0927206646394393
  0.5563658832637292  0.4924161623702089  0.0797312384278318
  0.6189116142242874  0.5768825161654993  0.1497165271073216
 
  0.00000000E+00  0.00000000E+00  0.00000000E+00
  0.00000000E+00  0.00000000E+00  0.00000000E+00
  0.00000000E+00  0.00000000E+00  0.00000000E+00
  0.00000000E+00  0.00000000E+00  0.00000000E+00
  0.00000000E+00  0.00000000E+00  0.00000000E+00
  0.00000000E+00  0.00000000E+00  0.00000000E+00
  0.00000000E+00  0.00000000E+00  0.00000000E+00
  0.00000000E+00  0.00000000E+00  0.00000000E+00
  0.00000000E+00  0.00000000E+00  0.00000000E+00
  0.00000000E+00  0.00000000E+00  0.00000000E+00
  0.00000000E+00  0.00000000E+00  0.00000000E+00
  0.00000000E+00  0.00000000E+00  0.00000000E+00
  0.00000000E+00  0.00000000E+00  0.00000000E+00
  0.00000000E+00  0.00000000E+00  0.00000000E+00
  0.00000000E+00  0.00000000E+00  0.00000000E+00
  0.00000000E+00  0.00000000E+00  0.00000000E+00
  0.00000000E+00  0.00000000E+00  0.00000000E+00
  0.00000000E+00  0.00000000E+00  0.00000000E+00
  0.00000000E+00  0.00000000E+00  0.00000000E+00
  0.00000000E+00  0.00000000E+00  0.00000000E+00
  0.00000000E+00  0.00000000E+00  0.00000000E+00
  0.00000000E+00  0.00000000E+00  0.00000000E+00
  0.00000000E+00  0.00000000E+00  0.00000000E+00
  0.00000000E+00  0.00000000E+00  0.00000000E+00
  0.00000000E+00  0.00000000E+00  0.00000000E+00
  0.00000000E+00  0.00000000E+00  0.00000000E+00
  0.00000000E+00  0.00000000E+00  0.00000000E+00
  0.00000000E+00  0.00000000E+00  0.00000000E+00
  0.00000000E+00  0.00000000E+00  0.00000000E+00
  0.00000000E+00  0.00000000E+00  0.00000000E+00
  0.00000000E+00  0.00000000E+00  0.00000000E+00
  0.00000000E+00  0.00000000E+00  0.00000000E+00
  0.00000000E+00  0.00000000E+00  0.00000000E+00
  0.00000000E+00  0.00000000E+00  0.00000000E+00
  0.00000000E+00  0.00000000E+00  0.00000000E+00
  0.00000000E+00  0.00000000E+00  0.00000000E+00
  0.00000000E+00  0.00000000E+00  0.00000000E+00
  0.00000000E+00  0.00000000E+00  0.00000000E+00
  0.00000000E+00  0.00000000E+00  0.00000000E+00
  0.00000000E+00  0.00000000E+00  0.00000000E+00
  0.00000000E+00  0.00000000E+00  0.00000000E+00
  0.00000000E+00  0.00000000E+00  0.00000000E+00
  0.00000000E+00  0.00000000E+00  0.00000000E+00
  0.00000000E+00  0.00000000E+00  0.00000000E+00
  0.00000000E+00  0.00000000E+00  0.00000000E+00
  0.00000000E+00  0.00000000E+00  0.00000000E+00
  0.00000000E+00  0.00000000E+00  0.00000000E+00
  0.00000000E+00  0.00000000E+00  0.00000000E+00
  0.00000000E+00  0.00000000E+00  0.00000000E+00
  0.00000000E+00  0.00000000E+00  0.00000000E+00
  0.00000000E+00  0.00000000E+00  0.00000000E+00
  0.00000000E+00  0.00000000E+00  0.00000000E+00
  0.00000000E+00  0.00000000E+00  0.00000000E+00
  0.00000000E+00  0.00000000E+00  0.00000000E+00
  0.00000000E+00  0.00000000E+00  0.00000000E+00
  0.00000000E+00  0.00000000E+00  0.00000000E+00
  0.00000000E+00  0.00000000E+00  0.00000000E+00
  0.00000000E+00  0.00000000E+00  0.00000000E+00
  0.00000000E+00  0.00000000E+00  0.00000000E+00
