POSCAR\(2)                              
   1.00000000000000     
    12.3312997818000003    0.0000000000000000    0.0000000000000000
     0.0001127485000000   12.8291997905000006    0.0000000000000000
     0.0005937186000000    0.0011528207000000   19.9943999824000009
   C    N    Fe   Ni
    54     2     1     1
Direct
  0.0561238338409907  0.0541803950788846  0.0557792500800233
  0.1562449406569686  0.1106374786667430  0.0558038560117247
  0.1574267123523974  0.2215906359728535  0.0557858596668764
  0.0575826350096366  0.2759242801480741  0.0557581740174751
  0.2564107042892171  0.0564193438684524  0.0558134067438014
  0.3569110552988374  0.1128230581689837  0.0557673779876854
  0.3581583763008079  0.2246285770177614  0.0557329287769134
  0.2574265593851394  0.2781884364479789  0.0557689166084406
  0.4562395772055903  0.0569451898374769  0.0557398436537000
  0.5569248153496014  0.1125803249013555  0.0557010815601117
  0.5579826336908827  0.2244291187934572  0.0556755811908157
  0.4586801671970831  0.2827805207391912  0.0556796709396793
  0.6554341777469758  0.0526682622459701  0.0556724535389875
  0.7559650919499539  0.1083847561576210  0.0556797165080318
  0.7581070626285027  0.2200430981914402  0.0556774761490914
  0.6600839335937716  0.2792401625279894  0.0556618512863000
  0.8552877917725399  0.0522465702966608  0.0556928986568846
  0.9559698873169988  0.1084062932956830  0.0557336263502568
  0.9577817553919478  0.2194138528610474  0.0557262204223637
  0.8584159243935867  0.2747195483056380  0.0556888286215597
  0.0581413358492330  0.3871852885510781  0.0557528167670579
  0.1567478623274664  0.4437192912237197  0.0557812098038186
  0.1565004692934515  0.5553290700532831  0.0557864256321577
  0.0564577038349457  0.6096142818985524  0.0557660808331636
  0.2567150916028477  0.3891679164231817  0.0557695704662738
  0.3557838618110318  0.4459009327977357  0.0557217822684779
  0.3575758219974007  0.5589333298831963  0.0557236703902214
  0.2561400749911710  0.6121157941426978  0.0557803227428756
  0.7607382047256153  0.4409785349680340  0.0556399184770062
  0.8599565274239105  0.3855684835617730  0.0556721266580771
  0.9584457129176331  0.4420702976930263  0.0557095818860001
  0.9569270614221485  0.5527120534461246  0.0557075310624761
  0.8555320672581008  0.6058368615941035  0.0556544031252384
  0.0558587311491502  0.7211705168506708  0.0557863583779835
  0.1543512935905473  0.7776095136881108  0.0558221798466443
  0.1548280657491852  0.8888373505690839  0.0558263539261712
  0.0549421481981078  0.9432288927854157  0.0557881941596847
  0.2540590590647209  0.7226863038359040  0.0558041134086922
  0.3523975198256016  0.7789577711014293  0.0557704137415113
  0.3540390693860910  0.8899968615679814  0.0557905646543328
  0.2546756389626106  0.9453314770871285  0.0558280051632352
  0.4518087199872713  0.7235854973828133  0.0556905004704600
  0.5519646001798684  0.8868249336577417  0.0556646250284267
  0.4540556881788438  0.9454690955912619  0.0557413547920816
  0.7536904666011267  0.8819806484725152  0.0556328407514538
  0.6544047333790745  0.9407212253406851  0.0556401107288957
  0.8568962470412262  0.7191643293066468  0.0556636798327004
  0.9558308260574517  0.7756885127130370  0.0557388170617692
  0.9549086004819906  0.8867175233630252  0.0557381890109808
  0.8540275140466405  0.9403215418684557  0.0556776364962328
  0.4554122414333372  0.3942361419193213  0.0556571338237376
  0.7546437761643271  0.5524480045683970  0.0556281940459186
  0.7564493886260879  0.7699221871771681  0.0556209532866388
  0.4589620256104222  0.6114328230227953  0.0556753631992862
  0.6648605283525223  0.3850674277328086  0.0556353867775178
  0.5468296448591566  0.7811067622872750  0.0556326967507832
  0.6396611940406824  0.6680857780119085  0.0556305615606815
  0.5689927822075639  0.4926267993386492  0.0556313172205631
 
  0.00000000E+00  0.00000000E+00  0.00000000E+00
  0.00000000E+00  0.00000000E+00  0.00000000E+00
  0.00000000E+00  0.00000000E+00  0.00000000E+00
  0.00000000E+00  0.00000000E+00  0.00000000E+00
  0.00000000E+00  0.00000000E+00  0.00000000E+00
  0.00000000E+00  0.00000000E+00  0.00000000E+00
  0.00000000E+00  0.00000000E+00  0.00000000E+00
  0.00000000E+00  0.00000000E+00  0.00000000E+00
  0.00000000E+00  0.00000000E+00  0.00000000E+00
  0.00000000E+00  0.00000000E+00  0.00000000E+00
  0.00000000E+00  0.00000000E+00  0.00000000E+00
  0.00000000E+00  0.00000000E+00  0.00000000E+00
  0.00000000E+00  0.00000000E+00  0.00000000E+00
  0.00000000E+00  0.00000000E+00  0.00000000E+00
  0.00000000E+00  0.00000000E+00  0.00000000E+00
  0.00000000E+00  0.00000000E+00  0.00000000E+00
  0.00000000E+00  0.00000000E+00  0.00000000E+00
  0.00000000E+00  0.00000000E+00  0.00000000E+00
  0.00000000E+00  0.00000000E+00  0.00000000E+00
  0.00000000E+00  0.00000000E+00  0.00000000E+00
  0.00000000E+00  0.00000000E+00  0.00000000E+00
  0.00000000E+00  0.00000000E+00  0.00000000E+00
  0.00000000E+00  0.00000000E+00  0.00000000E+00
  0.00000000E+00  0.00000000E+00  0.00000000E+00
  0.00000000E+00  0.00000000E+00  0.00000000E+00
  0.00000000E+00  0.00000000E+00  0.00000000E+00
  0.00000000E+00  0.00000000E+00  0.00000000E+00
  0.00000000E+00  0.00000000E+00  0.00000000E+00
  0.00000000E+00  0.00000000E+00  0.00000000E+00
  0.00000000E+00  0.00000000E+00  0.00000000E+00
  0.00000000E+00  0.00000000E+00  0.00000000E+00
  0.00000000E+00  0.00000000E+00  0.00000000E+00
  0.00000000E+00  0.00000000E+00  0.00000000E+00
  0.00000000E+00  0.00000000E+00  0.00000000E+00
  0.00000000E+00  0.00000000E+00  0.00000000E+00
  0.00000000E+00  0.00000000E+00  0.00000000E+00
  0.00000000E+00  0.00000000E+00  0.00000000E+00
  0.00000000E+00  0.00000000E+00  0.00000000E+00
  0.00000000E+00  0.00000000E+00  0.00000000E+00
  0.00000000E+00  0.00000000E+00  0.00000000E+00
  0.00000000E+00  0.00000000E+00  0.00000000E+00
  0.00000000E+00  0.00000000E+00  0.00000000E+00
  0.00000000E+00  0.00000000E+00  0.00000000E+00
  0.00000000E+00  0.00000000E+00  0.00000000E+00
  0.00000000E+00  0.00000000E+00  0.00000000E+00
  0.00000000E+00  0.00000000E+00  0.00000000E+00
  0.00000000E+00  0.00000000E+00  0.00000000E+00
  0.00000000E+00  0.00000000E+00  0.00000000E+00
  0.00000000E+00  0.00000000E+00  0.00000000E+00
  0.00000000E+00  0.00000000E+00  0.00000000E+00
  0.00000000E+00  0.00000000E+00  0.00000000E+00
  0.00000000E+00  0.00000000E+00  0.00000000E+00
  0.00000000E+00  0.00000000E+00  0.00000000E+00
  0.00000000E+00  0.00000000E+00  0.00000000E+00
  0.00000000E+00  0.00000000E+00  0.00000000E+00
  0.00000000E+00  0.00000000E+00  0.00000000E+00
  0.00000000E+00  0.00000000E+00  0.00000000E+00
  0.00000000E+00  0.00000000E+00  0.00000000E+00
