CONTCAR\(4)                             
   1.00000000000000     
    12.3312997818000003    0.0000000000000000    0.0000000000000000
     0.0001127485000000   12.8291997905000006    0.0000000000000000
     0.0005937186000000    0.0011528207000000   19.9943999824000009
   C    N    Fe   Ni   O    H 
    54     2     1     1     1     1
Direct
  0.0551345952578533  0.0550506374849891  0.0484925858383383
  0.1554088254447594  0.1103067679241178  0.0487350578567980
  0.1555116944083634  0.2210972950144905  0.0471926112917979
  0.0559244571124681  0.2764763301254197  0.0455670683338897
  0.2559206366979749  0.0560446134845004  0.0512938151504206
  0.3561287920981269  0.1123553796171443  0.0548747376366601
  0.3560460998359742  0.2241927269146731  0.0542735847997737
  0.2551418054509044  0.2770254650505975  0.0489602707628116
  0.4556038625880470  0.0571096614937009  0.0593807539448082
  0.5551011825156947  0.1149059189407623  0.0621507597853459
  0.5555997866088261  0.2273379587656937  0.0635195445412608
  0.4545883329920879  0.2833851984140597  0.0596508696120693
  0.6549133017506535  0.0558381768683621  0.0612061216091152
  0.7550814147261257  0.1118384659634728  0.0569221167444189
  0.7558398366784523  0.2238978031731521  0.0568620318207614
  0.6577470661348473  0.2838882295270671  0.0639941527264786
  0.8543675674537875  0.0549480965070083  0.0530455512679161
  0.9549120856993897  0.1103510953750439  0.0496610819201585
  0.9555744112455354  0.2215112168850080  0.0483730420304929
  0.8561684965675818  0.2779544777342947  0.0514053634793933
  0.0571450485349681  0.3876468551490438  0.0433131269460637
  0.1556784130812368  0.4440008459317525  0.0433312227576105
  0.1557532090637420  0.5554558778661216  0.0429386905194459
  0.0567891961693754  0.6110652081143051  0.0424497628690347
  0.2548052831162544  0.3876476260146328  0.0469912816106936
  0.3533962491103527  0.4424965614634213  0.0525076876357056
  0.3541880061880519  0.5554233691142332  0.0538139901804438
  0.2549837261906798  0.6110300094600437  0.0468747168012257
  0.7613246446282806  0.4480107398367853  0.0566897119836614
  0.8585643006794454  0.3891948668659521  0.0495376393923076
  0.9580231755135524  0.4434880658984975  0.0442684064084656
  0.9584143413285815  0.5541263101944059  0.0435805836243031
  0.8584056844809825  0.6077473790031526  0.0471926889293596
  0.0557837456592199  0.7224404403981957  0.0439230826327817
  0.1548967260047715  0.7779853810179016  0.0460594712468133
  0.1551638322756160  0.8892828573907769  0.0478277877134078
  0.0548627215751012  0.9440327113693601  0.0479331888027041
  0.2545764629626903  0.7221625433857679  0.0486195752278659
  0.3535091696572590  0.7774545791686562  0.0552900247495565
  0.3550961407370250  0.8891184459456984  0.0555260903107978
  0.2553951395680373  0.9448997290072770  0.0510255886522676
  0.4516484055066831  0.7198207308587612  0.0650888766735106
  0.5540919453474246  0.8871563083811334  0.0659455798897110
  0.4549461308272810  0.9449694560453935  0.0606204030374663
  0.7541191609828387  0.8855046368454570  0.0578792013630146
  0.6547800222551075  0.9439751687125357  0.0626096673170242
  0.8558821648163358  0.7211464227011221  0.0486316220819079
  0.9554871516832756  0.7772144037985927  0.0462536157652474
  0.9545622125220967  0.8882555373300371  0.0487007963495824
  0.8539290530190856  0.9428543102598831  0.0529566879072192
  0.6627310721010046  0.3938224909307659  0.0695856635688472
  0.5504032696269752  0.7772674784161675  0.0718151041357488
  0.7558180053034772  0.7734733380953988  0.0568331349939940
  0.4522180975695079  0.6072790791662279  0.0669177735815432
  0.4502574329922899  0.3920695611379174  0.0599748838180540
  0.7639458328947943  0.5558503723624784  0.0528345590205250
  0.6510085992065986  0.6678764031265523  0.0800290218458506
  0.5541691186971376  0.4910566779146418  0.0863453590756402
  0.6287883903866284  0.5743524685136492  0.1543615005988187
  0.5705044944687550  0.5999490765437420  0.1830811148290569
 
  0.00000000E+00  0.00000000E+00  0.00000000E+00
  0.00000000E+00  0.00000000E+00  0.00000000E+00
  0.00000000E+00  0.00000000E+00  0.00000000E+00
  0.00000000E+00  0.00000000E+00  0.00000000E+00
  0.00000000E+00  0.00000000E+00  0.00000000E+00
  0.00000000E+00  0.00000000E+00  0.00000000E+00
  0.00000000E+00  0.00000000E+00  0.00000000E+00
  0.00000000E+00  0.00000000E+00  0.00000000E+00
  0.00000000E+00  0.00000000E+00  0.00000000E+00
  0.00000000E+00  0.00000000E+00  0.00000000E+00
  0.00000000E+00  0.00000000E+00  0.00000000E+00
  0.00000000E+00  0.00000000E+00  0.00000000E+00
  0.00000000E+00  0.00000000E+00  0.00000000E+00
  0.00000000E+00  0.00000000E+00  0.00000000E+00
  0.00000000E+00  0.00000000E+00  0.00000000E+00
  0.00000000E+00  0.00000000E+00  0.00000000E+00
  0.00000000E+00  0.00000000E+00  0.00000000E+00
  0.00000000E+00  0.00000000E+00  0.00000000E+00
  0.00000000E+00  0.00000000E+00  0.00000000E+00
  0.00000000E+00  0.00000000E+00  0.00000000E+00
  0.00000000E+00  0.00000000E+00  0.00000000E+00
  0.00000000E+00  0.00000000E+00  0.00000000E+00
  0.00000000E+00  0.00000000E+00  0.00000000E+00
  0.00000000E+00  0.00000000E+00  0.00000000E+00
  0.00000000E+00  0.00000000E+00  0.00000000E+00
  0.00000000E+00  0.00000000E+00  0.00000000E+00
  0.00000000E+00  0.00000000E+00  0.00000000E+00
  0.00000000E+00  0.00000000E+00  0.00000000E+00
  0.00000000E+00  0.00000000E+00  0.00000000E+00
  0.00000000E+00  0.00000000E+00  0.00000000E+00
  0.00000000E+00  0.00000000E+00  0.00000000E+00
  0.00000000E+00  0.00000000E+00  0.00000000E+00
  0.00000000E+00  0.00000000E+00  0.00000000E+00
  0.00000000E+00  0.00000000E+00  0.00000000E+00
  0.00000000E+00  0.00000000E+00  0.00000000E+00
  0.00000000E+00  0.00000000E+00  0.00000000E+00
  0.00000000E+00  0.00000000E+00  0.00000000E+00
  0.00000000E+00  0.00000000E+00  0.00000000E+00
  0.00000000E+00  0.00000000E+00  0.00000000E+00
  0.00000000E+00  0.00000000E+00  0.00000000E+00
  0.00000000E+00  0.00000000E+00  0.00000000E+00
  0.00000000E+00  0.00000000E+00  0.00000000E+00
  0.00000000E+00  0.00000000E+00  0.00000000E+00
  0.00000000E+00  0.00000000E+00  0.00000000E+00
  0.00000000E+00  0.00000000E+00  0.00000000E+00
  0.00000000E+00  0.00000000E+00  0.00000000E+00
  0.00000000E+00  0.00000000E+00  0.00000000E+00
  0.00000000E+00  0.00000000E+00  0.00000000E+00
  0.00000000E+00  0.00000000E+00  0.00000000E+00
  0.00000000E+00  0.00000000E+00  0.00000000E+00
  0.00000000E+00  0.00000000E+00  0.00000000E+00
  0.00000000E+00  0.00000000E+00  0.00000000E+00
  0.00000000E+00  0.00000000E+00  0.00000000E+00
  0.00000000E+00  0.00000000E+00  0.00000000E+00
  0.00000000E+00  0.00000000E+00  0.00000000E+00
  0.00000000E+00  0.00000000E+00  0.00000000E+00
  0.00000000E+00  0.00000000E+00  0.00000000E+00
  0.00000000E+00  0.00000000E+00  0.00000000E+00
  0.00000000E+00  0.00000000E+00  0.00000000E+00
  0.00000000E+00  0.00000000E+00  0.00000000E+00
