CONTCAR\(2)                             
   1.00000000000000     
    12.3312997818000003    0.0000000000000000    0.0000000000000000
     0.0001127485000000   12.8291997905000006    0.0000000000000000
     0.0005937186000000    0.0011528207000000   19.9943999824000009
   C    N    Fe   Ni   H 
    53     3     1     1     2
Direct
  0.0559625677324416  0.0536139289274505  0.0519677042344912
  0.1564013727816252  0.1094804398330756  0.0521264340895662
  0.1568188339263383  0.2202878491736708  0.0510203672538062
  0.0567806568260495  0.2753067698034701  0.0499556700655919
  0.2570262062647842  0.0552880989146830  0.0538654939774945
  0.3573693009494478  0.1117084267326046  0.0560769331176629
  0.3578323519542296  0.2235015450725655  0.0556129516580708
  0.2566328393681935  0.2764657973802395  0.0519610014373951
  0.4573487032535686  0.0558982621833552  0.0588122226942628
  0.5581473660985087  0.1126312717870367  0.0602975981303898
  0.5589421035351280  0.2257389450414768  0.0606910219150400
  0.4579423214670719  0.2825867223981586  0.0586309089133395
  0.6570162990673701  0.0525084285585150  0.0597050858904301
  0.7562062084268226  0.1092321024621707  0.0569520376357529
  0.7574448522036676  0.2215488770810799  0.0567710955415878
  0.6604309407789729  0.2823021737376950  0.0604916344217159
  0.8553422362680827  0.0522887134346358  0.0545023912012559
  0.9558598620353590  0.1080107262906225  0.0525536023398218
  0.9570069965684613  0.2194867903332672  0.0515831404351643
  0.8579200548022916  0.2756072244476845  0.0530787424191816
  0.0568863112813647  0.3866098128596062  0.0486603271486035
  0.1553914329492094  0.4430275069821288  0.0485346216581852
  0.1548402625374220  0.5543554893993338  0.0485326643378926
  0.0557001624516227  0.6098546532474971  0.0482730126598796
  0.2546704706998821  0.3873408831813738  0.0502997969293249
  0.3524769160927815  0.4436936877733855  0.0532120201206378
  0.3526902432412301  0.5556243599547764  0.0539968966963230
  0.2538566296073901  0.6109508625142795  0.0508825918158923
  0.7616355882754813  0.4439781356056375  0.0554973754390774
  0.8595429136329363  0.3867601874675590  0.0514193425282000
  0.9580784144983137  0.4423667407448783  0.0489233400397984
  0.9568469074974548  0.5535249419294354  0.0487594179435534
  0.8561661278630561  0.6063105679495575  0.0509505329161667
  0.0552133132479513  0.7207925680210093  0.0492519089878618
  0.1543733405126722  0.7773016711512597  0.0505637974428520
  0.1556138742850928  0.8881395487029217  0.0517552693161187
  0.0554410520825399  0.9426766118514122  0.0516364306774487
  0.2536511012050672  0.7219150042048191  0.0520225853155683
  0.3529861100842624  0.7766221095928253  0.0562538651302721
  0.3554975491835551  0.8882611862511104  0.0567132744038829
  0.2561601922746337  0.9438557166190190  0.0539069250228694
  0.4510459361758044  0.7184153358550660  0.0624291878371685
  0.5548241704711734  0.8854152900139624  0.0634671265099584
  0.4559861424319724  0.9440155777261169  0.0597158344737153
  0.7559294830417692  0.8806805472760069  0.0572804316695566
  0.6562599956221628  0.9394527601022727  0.0608179371284567
  0.8554741026807087  0.7195729822481909  0.0518813427494068
  0.9552693526525694  0.7751692721682629  0.0506177094788661
  0.9556162027926047  0.8865190265655850  0.0519531672800607
  0.8548677705669860  0.9400071162806616  0.0543787449858124
  0.4530421729054113  0.3934361765024583  0.0581888363674753
  0.4533119711739720  0.6064014863943867  0.0615620103862759
  0.5497656800558951  0.7755434224906330  0.0680711118790554
  0.6655695549544711  0.3908564977359530  0.0626557028520985
  0.7600941391675120  0.5520334640595420  0.0541414710420988
  0.7575354329499046  0.7710138488176710  0.0560687819589086
  0.6438122489880618  0.6672570918954032  0.0699637711376525
  0.5611105507846949  0.4958865737270559  0.0699376178076189
  0.6384182566030400  0.6614627879928275  0.1493027472884696
  0.6117560771689804  0.5953454725506656  0.1357944262648881
 
  0.00000000E+00  0.00000000E+00  0.00000000E+00
  0.00000000E+00  0.00000000E+00  0.00000000E+00
  0.00000000E+00  0.00000000E+00  0.00000000E+00
  0.00000000E+00  0.00000000E+00  0.00000000E+00
  0.00000000E+00  0.00000000E+00  0.00000000E+00
  0.00000000E+00  0.00000000E+00  0.00000000E+00
  0.00000000E+00  0.00000000E+00  0.00000000E+00
  0.00000000E+00  0.00000000E+00  0.00000000E+00
  0.00000000E+00  0.00000000E+00  0.00000000E+00
  0.00000000E+00  0.00000000E+00  0.00000000E+00
  0.00000000E+00  0.00000000E+00  0.00000000E+00
  0.00000000E+00  0.00000000E+00  0.00000000E+00
  0.00000000E+00  0.00000000E+00  0.00000000E+00
  0.00000000E+00  0.00000000E+00  0.00000000E+00
  0.00000000E+00  0.00000000E+00  0.00000000E+00
  0.00000000E+00  0.00000000E+00  0.00000000E+00
  0.00000000E+00  0.00000000E+00  0.00000000E+00
  0.00000000E+00  0.00000000E+00  0.00000000E+00
  0.00000000E+00  0.00000000E+00  0.00000000E+00
  0.00000000E+00  0.00000000E+00  0.00000000E+00
  0.00000000E+00  0.00000000E+00  0.00000000E+00
  0.00000000E+00  0.00000000E+00  0.00000000E+00
  0.00000000E+00  0.00000000E+00  0.00000000E+00
  0.00000000E+00  0.00000000E+00  0.00000000E+00
  0.00000000E+00  0.00000000E+00  0.00000000E+00
  0.00000000E+00  0.00000000E+00  0.00000000E+00
  0.00000000E+00  0.00000000E+00  0.00000000E+00
  0.00000000E+00  0.00000000E+00  0.00000000E+00
  0.00000000E+00  0.00000000E+00  0.00000000E+00
  0.00000000E+00  0.00000000E+00  0.00000000E+00
  0.00000000E+00  0.00000000E+00  0.00000000E+00
  0.00000000E+00  0.00000000E+00  0.00000000E+00
  0.00000000E+00  0.00000000E+00  0.00000000E+00
  0.00000000E+00  0.00000000E+00  0.00000000E+00
  0.00000000E+00  0.00000000E+00  0.00000000E+00
  0.00000000E+00  0.00000000E+00  0.00000000E+00
  0.00000000E+00  0.00000000E+00  0.00000000E+00
  0.00000000E+00  0.00000000E+00  0.00000000E+00
  0.00000000E+00  0.00000000E+00  0.00000000E+00
  0.00000000E+00  0.00000000E+00  0.00000000E+00
  0.00000000E+00  0.00000000E+00  0.00000000E+00
  0.00000000E+00  0.00000000E+00  0.00000000E+00
  0.00000000E+00  0.00000000E+00  0.00000000E+00
  0.00000000E+00  0.00000000E+00  0.00000000E+00
  0.00000000E+00  0.00000000E+00  0.00000000E+00
  0.00000000E+00  0.00000000E+00  0.00000000E+00
  0.00000000E+00  0.00000000E+00  0.00000000E+00
  0.00000000E+00  0.00000000E+00  0.00000000E+00
  0.00000000E+00  0.00000000E+00  0.00000000E+00
  0.00000000E+00  0.00000000E+00  0.00000000E+00
  0.00000000E+00  0.00000000E+00  0.00000000E+00
  0.00000000E+00  0.00000000E+00  0.00000000E+00
  0.00000000E+00  0.00000000E+00  0.00000000E+00
  0.00000000E+00  0.00000000E+00  0.00000000E+00
  0.00000000E+00  0.00000000E+00  0.00000000E+00
  0.00000000E+00  0.00000000E+00  0.00000000E+00
  0.00000000E+00  0.00000000E+00  0.00000000E+00
  0.00000000E+00  0.00000000E+00  0.00000000E+00
  0.00000000E+00  0.00000000E+00  0.00000000E+00
  0.00000000E+00  0.00000000E+00  0.00000000E+00
