CONTCAR\(5)                             
   1.00000000000000     
    12.3312997818000003    0.0000000000000000    0.0000000000000000
     0.0001127485000000   12.8291997905000006    0.0000000000000000
     0.0005937186000000    0.0011528207000000   19.9943999824000009
   C    N    Fe   Ni   O 
    54     2     1     1     2
Direct
  0.0557897038514661  0.0555200796346368  0.0486889704857466
  0.1561607936632745  0.1112515158476613  0.0483959382533185
  0.1570245595322733  0.2223042129171972  0.0481857245090758
  0.0566622170814755  0.2765951040653831  0.0478999343059595
  0.2560798816304189  0.0561888971291315  0.0491804715170680
  0.3566186757349628  0.1113971799612469  0.0516970009815914
  0.3575110919782368  0.2231427482368253  0.0523395181962221
  0.2574279360725629  0.2783508580566306  0.0494262488867058
  0.4559705257456467  0.0548813305144315  0.0543068072990202
  0.5561011093099337  0.1102373829810601  0.0575120251220399
  0.5567637812080924  0.2218871088833827  0.0597024645150045
  0.4574625918040372  0.2798335475904146  0.0570236886422154
  0.6550204579435575  0.0512634919759032  0.0578977064344191
  0.7551381531665116  0.1085257048184433  0.0558660385591882
  0.7561604399645681  0.2207028682668415  0.0563878145692377
  0.6570947786971350  0.2785095443612726  0.0615876799181310
  0.8549975646105421  0.0530013148626433  0.0529704015562377
  0.9551750841716826  0.1097152490949219  0.0502905055614320
  0.9559496157225350  0.2210817899484799  0.0498870480017815
  0.8561172054740759  0.2767530690348419  0.0526311583347646
  0.0575647234925662  0.3874929561029491  0.0470427408341845
  0.1572689924988628  0.4436868486663098  0.0469313364985385
  0.1574558601612863  0.5547896413819574  0.0464261062491154
  0.0582910509454163  0.6100079483347310  0.0461089513388806
  0.2577935796226443  0.3897583879843932  0.0489173036988149
  0.3580122259986263  0.4465183204946752  0.0522563806779031
  0.3572877127149854  0.5597953449245934  0.0525646332080558
  0.2563072788905043  0.6119142940717449  0.0482891367205882
  0.7580645607991374  0.4467529846708949  0.0588748148004455
  0.8571856399594853  0.3884577491078801  0.0520636128484409
  0.9577528418175155  0.4427366337617077  0.0482234274661841
  0.9592727705466715  0.5533800460266661  0.0479300066874870
  0.8606307903345123  0.6086372872228990  0.0522080619497875
  0.0572884192442946  0.7214141960345857  0.0463471812557592
  0.1553560242918604  0.7781055735748210  0.0463656242931604
  0.1552380712271868  0.8893299199491522  0.0471228196015980
  0.0553675247058266  0.9445294540707276  0.0481370850045667
  0.2542412037759344  0.7225705567879823  0.0477693155455139
  0.3525209888871512  0.7783989255612442  0.0502106499122581
  0.3542287112195854  0.8892571742705511  0.0503759635138778
  0.2550319883392752  0.9450924163761458  0.0484055718272170
  0.4501356954463988  0.7218124224401727  0.0560603450295486
  0.5519402377443868  0.8832688002646493  0.0581475170874384
  0.4546728057847299  0.9431039470387026  0.0539260692814282
  0.7547634298460708  0.8821474275915767  0.0581231859038452
  0.6540151204483911  0.9385623000580253  0.0590760643070005
  0.8605833665200331  0.7205763413984771  0.0528855273370620
  0.9580228789543516  0.7771519486886512  0.0487382112560066
  0.9557967256408321  0.8881001701348976  0.0498738422993381
  0.8545007012574241  0.9411332360739958  0.0534302475901229
  0.4568358599001490  0.3911369913656853  0.0583869713726250
  0.6598451294586236  0.3884422489344642  0.0672900677226333
  0.7601741890192928  0.5586620008162132  0.0598006490412130
  0.7598433410859581  0.7708130096008382  0.0602000645349375
  0.4527660117866786  0.6144108030827102  0.0584204754327453
  0.5466429262579151  0.7753799088319442  0.0605855993468516
  0.6518207536557657  0.6700988670714796  0.0793417998011296
  0.5580283442412822  0.4846892811113782  0.0882026822363978
  0.6058468184711320  0.5391702659817059  0.1714486818326929
  0.6368785356442543  0.6428006019564463  0.1655641220054417
 
  0.00000000E+00  0.00000000E+00  0.00000000E+00
  0.00000000E+00  0.00000000E+00  0.00000000E+00
  0.00000000E+00  0.00000000E+00  0.00000000E+00
  0.00000000E+00  0.00000000E+00  0.00000000E+00
  0.00000000E+00  0.00000000E+00  0.00000000E+00
  0.00000000E+00  0.00000000E+00  0.00000000E+00
  0.00000000E+00  0.00000000E+00  0.00000000E+00
  0.00000000E+00  0.00000000E+00  0.00000000E+00
  0.00000000E+00  0.00000000E+00  0.00000000E+00
  0.00000000E+00  0.00000000E+00  0.00000000E+00
  0.00000000E+00  0.00000000E+00  0.00000000E+00
  0.00000000E+00  0.00000000E+00  0.00000000E+00
  0.00000000E+00  0.00000000E+00  0.00000000E+00
  0.00000000E+00  0.00000000E+00  0.00000000E+00
  0.00000000E+00  0.00000000E+00  0.00000000E+00
  0.00000000E+00  0.00000000E+00  0.00000000E+00
  0.00000000E+00  0.00000000E+00  0.00000000E+00
  0.00000000E+00  0.00000000E+00  0.00000000E+00
  0.00000000E+00  0.00000000E+00  0.00000000E+00
  0.00000000E+00  0.00000000E+00  0.00000000E+00
  0.00000000E+00  0.00000000E+00  0.00000000E+00
  0.00000000E+00  0.00000000E+00  0.00000000E+00
  0.00000000E+00  0.00000000E+00  0.00000000E+00
  0.00000000E+00  0.00000000E+00  0.00000000E+00
  0.00000000E+00  0.00000000E+00  0.00000000E+00
  0.00000000E+00  0.00000000E+00  0.00000000E+00
  0.00000000E+00  0.00000000E+00  0.00000000E+00
  0.00000000E+00  0.00000000E+00  0.00000000E+00
  0.00000000E+00  0.00000000E+00  0.00000000E+00
  0.00000000E+00  0.00000000E+00  0.00000000E+00
  0.00000000E+00  0.00000000E+00  0.00000000E+00
  0.00000000E+00  0.00000000E+00  0.00000000E+00
  0.00000000E+00  0.00000000E+00  0.00000000E+00
  0.00000000E+00  0.00000000E+00  0.00000000E+00
  0.00000000E+00  0.00000000E+00  0.00000000E+00
  0.00000000E+00  0.00000000E+00  0.00000000E+00
  0.00000000E+00  0.00000000E+00  0.00000000E+00
  0.00000000E+00  0.00000000E+00  0.00000000E+00
  0.00000000E+00  0.00000000E+00  0.00000000E+00
  0.00000000E+00  0.00000000E+00  0.00000000E+00
  0.00000000E+00  0.00000000E+00  0.00000000E+00
  0.00000000E+00  0.00000000E+00  0.00000000E+00
  0.00000000E+00  0.00000000E+00  0.00000000E+00
  0.00000000E+00  0.00000000E+00  0.00000000E+00
  0.00000000E+00  0.00000000E+00  0.00000000E+00
  0.00000000E+00  0.00000000E+00  0.00000000E+00
  0.00000000E+00  0.00000000E+00  0.00000000E+00
  0.00000000E+00  0.00000000E+00  0.00000000E+00
  0.00000000E+00  0.00000000E+00  0.00000000E+00
  0.00000000E+00  0.00000000E+00  0.00000000E+00
  0.00000000E+00  0.00000000E+00  0.00000000E+00
  0.00000000E+00  0.00000000E+00  0.00000000E+00
  0.00000000E+00  0.00000000E+00  0.00000000E+00
  0.00000000E+00  0.00000000E+00  0.00000000E+00
  0.00000000E+00  0.00000000E+00  0.00000000E+00
  0.00000000E+00  0.00000000E+00  0.00000000E+00
  0.00000000E+00  0.00000000E+00  0.00000000E+00
  0.00000000E+00  0.00000000E+00  0.00000000E+00
  0.00000000E+00  0.00000000E+00  0.00000000E+00
  0.00000000E+00  0.00000000E+00  0.00000000E+00
