CONTCAR\(3)                             
   1.00000000000000     
    12.3312997818000003    0.0000000000000000    0.0000000000000000
     0.0001127485000000   12.8291997905000006    0.0000000000000000
     0.0005937186000000    0.0011528207000000   19.9943999824000009
   C    N    Fe   Ni   O 
    53     3     1     1     1
Direct
  0.0554832772099797  0.0540791250021443  0.0520904925911545
  0.1560448275714574  0.1098851207863515  0.0523642985666719
  0.1567020968394499  0.2206377124553947  0.0510008119063002
  0.0565671660444507  0.2754233151971379  0.0495437975502636
  0.2567167909244927  0.0556823771220618  0.0543630819801716
  0.3571462004713178  0.1119478034431311  0.0575206074769302
  0.3576789916795909  0.2239036789358430  0.0568160845145560
  0.2565885093008692  0.2769484339190811  0.0520252066293881
  0.4570120796353840  0.0562697873100236  0.0613181637158358
  0.5572668552891994  0.1136126690356320  0.0641569362805299
  0.5583052373442861  0.2268586186875784  0.0651325889599840
  0.4573595636286585  0.2832616887344429  0.0614642731753024
  0.6552966971017274  0.0530516459148167  0.0635356012078086
  0.7550691238370605  0.1095876423963969  0.0599650916055817
  0.7566253731699476  0.2223861605609153  0.0596026194755421
  0.6601568112374002  0.2836786748117076  0.0649638496567575
  0.8546550533638790  0.0530902149771842  0.0562541470817485
  0.9553026745445425  0.1088047699147975  0.0534269432827505
  0.9565555263770943  0.2200481613821398  0.0522251357690341
  0.8571567491397778  0.2762091965064129  0.0543889126043205
  0.0569680616141742  0.3864702034568023  0.0468760912231559
  0.1554495250956806  0.4431492437176833  0.0464972083734909
  0.1553923292632271  0.5546351527882036  0.0456923871179005
  0.0566497195713476  0.6099119288793045  0.0449071580083085
  0.2548988958716193  0.3879173985347821  0.0496270579282201
  0.3526203203175636  0.4446809660493390  0.0534275659925592
  0.3530568202533230  0.5570211904124723  0.0534362207382017
  0.2543415018203153  0.6116284965731286  0.0485505163789300
  0.7605309578641486  0.4452055230615282  0.0559404828616970
  0.8586606757269036  0.3872043613448180  0.0511925187603491
  0.9579829588395944  0.4418816512179327  0.0466587499249469
  0.9581635303387341  0.5525672650930024  0.0454160698436241
  0.8584113108624062  0.6054142910590742  0.0470903245808815
  0.0562093222382923  0.7212945533891866  0.0461105380188146
  0.1550635966575374  0.7777866585361989  0.0481945275476429
  0.1552309552956179  0.8887273694830172  0.0504014703348097
  0.0548379476143162  0.9430430246525214  0.0509025194949522
  0.2544920782680675  0.7224071684006832  0.0499653623534343
  0.3536373133057940  0.7775329005696472  0.0554676082217306
  0.3549565418021494  0.8889399200998042  0.0566914904126114
  0.2555019143376167  0.9445601129927891  0.0534950629518556
  0.4519798295574888  0.7203622556531669  0.0625194558752463
  0.5530244114353995  0.8836346090889093  0.0657641830181369
  0.4552215295102793  0.9438703051560285  0.0614553858843459
  0.7542822624414193  0.8824268944578386  0.0594696352345627
  0.6545490704426340  0.9397466207655281  0.0641547137441990
  0.8571748321414218  0.7182878296859988  0.0492218187909464
  0.9562035061389536  0.7754152138548825  0.0480434628711953
  0.9548140242206505  0.8867361541545854  0.0510851799983968
  0.8540685304171185  0.9410106178793625  0.0553662718086241
  0.4528779705455306  0.3945318910650162  0.0610910546725839
  0.4530274626831270  0.6082590066191970  0.0629534199414234
  0.7574341380599393  0.7704898028892422  0.0567549204919985
  0.6651631662593955  0.3926530382449473  0.0676195642358159
  0.7620292583718304  0.5531093186846163  0.0503564326039281
  0.5485512301629757  0.7761738807408141  0.0687047496717009
  0.6505785176804958  0.6668164814062308  0.0747415022636370
  0.5561045790120980  0.4958320667587433  0.0847038881295173
  0.6237097352502456  0.5899779134897688  0.1434247896650115
 
  0.00000000E+00  0.00000000E+00  0.00000000E+00
  0.00000000E+00  0.00000000E+00  0.00000000E+00
  0.00000000E+00  0.00000000E+00  0.00000000E+00
  0.00000000E+00  0.00000000E+00  0.00000000E+00
  0.00000000E+00  0.00000000E+00  0.00000000E+00
  0.00000000E+00  0.00000000E+00  0.00000000E+00
  0.00000000E+00  0.00000000E+00  0.00000000E+00
  0.00000000E+00  0.00000000E+00  0.00000000E+00
  0.00000000E+00  0.00000000E+00  0.00000000E+00
  0.00000000E+00  0.00000000E+00  0.00000000E+00
  0.00000000E+00  0.00000000E+00  0.00000000E+00
  0.00000000E+00  0.00000000E+00  0.00000000E+00
  0.00000000E+00  0.00000000E+00  0.00000000E+00
  0.00000000E+00  0.00000000E+00  0.00000000E+00
  0.00000000E+00  0.00000000E+00  0.00000000E+00
  0.00000000E+00  0.00000000E+00  0.00000000E+00
  0.00000000E+00  0.00000000E+00  0.00000000E+00
  0.00000000E+00  0.00000000E+00  0.00000000E+00
  0.00000000E+00  0.00000000E+00  0.00000000E+00
  0.00000000E+00  0.00000000E+00  0.00000000E+00
  0.00000000E+00  0.00000000E+00  0.00000000E+00
  0.00000000E+00  0.00000000E+00  0.00000000E+00
  0.00000000E+00  0.00000000E+00  0.00000000E+00
  0.00000000E+00  0.00000000E+00  0.00000000E+00
  0.00000000E+00  0.00000000E+00  0.00000000E+00
  0.00000000E+00  0.00000000E+00  0.00000000E+00
  0.00000000E+00  0.00000000E+00  0.00000000E+00
  0.00000000E+00  0.00000000E+00  0.00000000E+00
  0.00000000E+00  0.00000000E+00  0.00000000E+00
  0.00000000E+00  0.00000000E+00  0.00000000E+00
  0.00000000E+00  0.00000000E+00  0.00000000E+00
  0.00000000E+00  0.00000000E+00  0.00000000E+00
  0.00000000E+00  0.00000000E+00  0.00000000E+00
  0.00000000E+00  0.00000000E+00  0.00000000E+00
  0.00000000E+00  0.00000000E+00  0.00000000E+00
  0.00000000E+00  0.00000000E+00  0.00000000E+00
  0.00000000E+00  0.00000000E+00  0.00000000E+00
  0.00000000E+00  0.00000000E+00  0.00000000E+00
  0.00000000E+00  0.00000000E+00  0.00000000E+00
  0.00000000E+00  0.00000000E+00  0.00000000E+00
  0.00000000E+00  0.00000000E+00  0.00000000E+00
  0.00000000E+00  0.00000000E+00  0.00000000E+00
  0.00000000E+00  0.00000000E+00  0.00000000E+00
  0.00000000E+00  0.00000000E+00  0.00000000E+00
  0.00000000E+00  0.00000000E+00  0.00000000E+00
  0.00000000E+00  0.00000000E+00  0.00000000E+00
  0.00000000E+00  0.00000000E+00  0.00000000E+00
  0.00000000E+00  0.00000000E+00  0.00000000E+00
  0.00000000E+00  0.00000000E+00  0.00000000E+00
  0.00000000E+00  0.00000000E+00  0.00000000E+00
  0.00000000E+00  0.00000000E+00  0.00000000E+00
  0.00000000E+00  0.00000000E+00  0.00000000E+00
  0.00000000E+00  0.00000000E+00  0.00000000E+00
  0.00000000E+00  0.00000000E+00  0.00000000E+00
  0.00000000E+00  0.00000000E+00  0.00000000E+00
  0.00000000E+00  0.00000000E+00  0.00000000E+00
  0.00000000E+00  0.00000000E+00  0.00000000E+00
  0.00000000E+00  0.00000000E+00  0.00000000E+00
  0.00000000E+00  0.00000000E+00  0.00000000E+00
