CONTCAR\(2)\(3)                         
   1.00000000000000     
    12.3312997818000003    0.0000000000000000    0.0000000000000000
     0.0001127485000000   12.8291997905000006    0.0000000000000000
     0.0005937186000000    0.0011528207000000   19.9943999824000009
   C    N    Fe   Ni   O    H 
    54     2     1     1     1     1
Direct
  0.0564256892937952  0.0549486178797573  0.0489025339078729
  0.1566504970365219  0.1103002595231751  0.0485843894791567
  0.1567007301950391  0.2211867664639095  0.0470935409766706
  0.0565056037013631  0.2763675846195325  0.0463580527983481
  0.2572494714755700  0.0555802749104578  0.0506638750792781
  0.3575732968248709  0.1119314698640762  0.0538022076702553
  0.3578141810508618  0.2239045709859143  0.0528978754603215
  0.2564857958220615  0.2769143469674945  0.0479842052343871
  0.4571137724678802  0.0557940580150933  0.0584371646810250
  0.5574983821775290  0.1127749214018177  0.0618699303926377
  0.5576319060222951  0.2252922695954131  0.0626524802581603
  0.4575842568834274  0.2827522064815428  0.0578813442916713
  0.6569151654308036  0.0530539959999429  0.0619843980543509
  0.7562528109609303  0.1100243785591170  0.0582316357428668
  0.7574698091406867  0.2220366392566418  0.0583041061442700
  0.6596672706974117  0.2819107991110838  0.0638477142157739
  0.8557600031172959  0.0541667142044152  0.0542416208620751
  0.9561471013514637  0.1095887000340007  0.0506691662810440
  0.9569467033660024  0.2206114172327640  0.0495902496744217
  0.8574524029799169  0.2764043596112581  0.0530740924319940
  0.0558879753649250  0.3877124914015628  0.0444269799304752
  0.1545301445876529  0.4434163490879053  0.0434447251308499
  0.1541861732912799  0.5550265317624445  0.0430582500982067
  0.0550321139671823  0.6104947781506656  0.0434067615102626
  0.2541871573995741  0.3875935151308683  0.0459214970686045
  0.3518365914583146  0.4438153511987873  0.0496260485398421
  0.3516342483776035  0.5556847692570581  0.0505675332660040
  0.2531334781452983  0.6114075941354399  0.0457076854995571
  0.7590103771786773  0.4434309483571704  0.0585609401723508
  0.8578917029372318  0.3875475877943300  0.0516105247364814
  0.9563290266770398  0.4437633632546514  0.0461757544820071
  0.9558303686500538  0.5547882953967791  0.0454321158528781
  0.8549044705670017  0.6091642655769995  0.0499213418078851
  0.0557524018666702  0.7218815374373959  0.0446246487901759
  0.1548750282419932  0.7778089125312765  0.0456919205728564
  0.1561024394285440  0.8889643198125355  0.0475979664256640
  0.0562127280118404  0.9441720827883993  0.0482550828994162
  0.2542338050218701  0.7221190437635234  0.0472120641696395
  0.3540400204312066  0.7760832265933191  0.0532427247706157
  0.3561925530422012  0.8878410968326552  0.0543011113174032
  0.2565915715811141  0.9441962383309228  0.0503942053737872
  0.4522245665208945  0.7172719116794463  0.0622016642981592
  0.5548902643319282  0.8846071767570216  0.0662361604280075
  0.4561471941121944  0.9436475419839336  0.0595490170797158
  0.7571228519005192  0.8839447815840401  0.0592506018825664
  0.6566606189403733  0.9405439036002711  0.0638218747287130
  0.8569930157854942  0.7231742486390673  0.0509894717132855
  0.9563777788698322  0.7777051657696576  0.0477062164761312
  0.9563710863462511  0.8886534898137380  0.0496562275794042
  0.8558012481437600  0.9423512954428369  0.0540632859356171
  0.4529305061551829  0.3946292291145148  0.0568210897477146
  0.7563220541979481  0.5551330830568101  0.0574695818016213
  0.5493277453928398  0.7752267508037449  0.0727702067955643
  0.4515608387966194  0.6048351522945933  0.0610456294891451
  0.6635896143826464  0.3883336582107153  0.0674499618045185
  0.7606585508635328  0.7750829920451704  0.0587409420344384
  0.6563985518117021  0.6719022769370439  0.0884275075951044
  0.5587156841508288  0.4949023340598070  0.0764150571666735
  0.6097700674056359  0.5859261138684608  0.1582296832880977
  0.5437984126688041  0.6136020730270083  0.1786353671039519
 
  0.00000000E+00  0.00000000E+00  0.00000000E+00
  0.00000000E+00  0.00000000E+00  0.00000000E+00
  0.00000000E+00  0.00000000E+00  0.00000000E+00
  0.00000000E+00  0.00000000E+00  0.00000000E+00
  0.00000000E+00  0.00000000E+00  0.00000000E+00
  0.00000000E+00  0.00000000E+00  0.00000000E+00
  0.00000000E+00  0.00000000E+00  0.00000000E+00
  0.00000000E+00  0.00000000E+00  0.00000000E+00
  0.00000000E+00  0.00000000E+00  0.00000000E+00
  0.00000000E+00  0.00000000E+00  0.00000000E+00
  0.00000000E+00  0.00000000E+00  0.00000000E+00
  0.00000000E+00  0.00000000E+00  0.00000000E+00
  0.00000000E+00  0.00000000E+00  0.00000000E+00
  0.00000000E+00  0.00000000E+00  0.00000000E+00
  0.00000000E+00  0.00000000E+00  0.00000000E+00
  0.00000000E+00  0.00000000E+00  0.00000000E+00
  0.00000000E+00  0.00000000E+00  0.00000000E+00
  0.00000000E+00  0.00000000E+00  0.00000000E+00
  0.00000000E+00  0.00000000E+00  0.00000000E+00
  0.00000000E+00  0.00000000E+00  0.00000000E+00
  0.00000000E+00  0.00000000E+00  0.00000000E+00
  0.00000000E+00  0.00000000E+00  0.00000000E+00
  0.00000000E+00  0.00000000E+00  0.00000000E+00
  0.00000000E+00  0.00000000E+00  0.00000000E+00
  0.00000000E+00  0.00000000E+00  0.00000000E+00
  0.00000000E+00  0.00000000E+00  0.00000000E+00
  0.00000000E+00  0.00000000E+00  0.00000000E+00
  0.00000000E+00  0.00000000E+00  0.00000000E+00
  0.00000000E+00  0.00000000E+00  0.00000000E+00
  0.00000000E+00  0.00000000E+00  0.00000000E+00
  0.00000000E+00  0.00000000E+00  0.00000000E+00
  0.00000000E+00  0.00000000E+00  0.00000000E+00
  0.00000000E+00  0.00000000E+00  0.00000000E+00
  0.00000000E+00  0.00000000E+00  0.00000000E+00
  0.00000000E+00  0.00000000E+00  0.00000000E+00
  0.00000000E+00  0.00000000E+00  0.00000000E+00
  0.00000000E+00  0.00000000E+00  0.00000000E+00
  0.00000000E+00  0.00000000E+00  0.00000000E+00
  0.00000000E+00  0.00000000E+00  0.00000000E+00
  0.00000000E+00  0.00000000E+00  0.00000000E+00
  0.00000000E+00  0.00000000E+00  0.00000000E+00
  0.00000000E+00  0.00000000E+00  0.00000000E+00
  0.00000000E+00  0.00000000E+00  0.00000000E+00
  0.00000000E+00  0.00000000E+00  0.00000000E+00
  0.00000000E+00  0.00000000E+00  0.00000000E+00
  0.00000000E+00  0.00000000E+00  0.00000000E+00
  0.00000000E+00  0.00000000E+00  0.00000000E+00
  0.00000000E+00  0.00000000E+00  0.00000000E+00
  0.00000000E+00  0.00000000E+00  0.00000000E+00
  0.00000000E+00  0.00000000E+00  0.00000000E+00
  0.00000000E+00  0.00000000E+00  0.00000000E+00
  0.00000000E+00  0.00000000E+00  0.00000000E+00
  0.00000000E+00  0.00000000E+00  0.00000000E+00
  0.00000000E+00  0.00000000E+00  0.00000000E+00
  0.00000000E+00  0.00000000E+00  0.00000000E+00
  0.00000000E+00  0.00000000E+00  0.00000000E+00
  0.00000000E+00  0.00000000E+00  0.00000000E+00
  0.00000000E+00  0.00000000E+00  0.00000000E+00
  0.00000000E+00  0.00000000E+00  0.00000000E+00
  0.00000000E+00  0.00000000E+00  0.00000000E+00
