CONTCAR\(4)                             
   1.00000000000000     
    12.3312997818000003    0.0000000000000000    0.0000000000000000
     0.0001127485000000   12.8291997905000006    0.0000000000000000
     0.0005937186000000    0.0011528207000000   19.9943999824000009
   C    N    Fe   Ni   H 
    54     2     1     1     1
Direct
  0.0558804965059748  0.0549850893073219  0.0507362352766418
  0.1563131664782972  0.1101594668745874  0.0507826324608958
  0.1567922065868980  0.2211123499271334  0.0495402514298667
  0.0567870077439754  0.2757977101806621  0.0484625760334687
  0.2566626251806566  0.0553561274008767  0.0527858191361285
  0.3570247223182371  0.1111976549576252  0.0556966796832283
  0.3575032481356618  0.2232067156148045  0.0549663303247524
  0.2567933781228549  0.2772924309715545  0.0506586115805796
  0.4565218693450976  0.0552097907512660  0.0595391868657678
  0.5564776753067716  0.1123703326746490  0.0624756275472114
  0.5570744707115655  0.2244026758683276  0.0634832192566731
  0.4570255306718292  0.2812229681933845  0.0590744198547620
  0.6557432147162301  0.0531933873624668  0.0622927208333051
  0.7555664689344992  0.1104334079053259  0.0588991240501094
  0.7562098694938568  0.2229369643540176  0.0592196917616392
  0.6579391253337468  0.2828242509650392  0.0651227765240550
  0.8550289433111385  0.0541763726199108  0.0550999828436305
  0.9555343399568320  0.1098151782766342  0.0520664031259858
  0.9562774259518813  0.2208470639061950  0.0509846556783614
  0.8566547078401717  0.2769554730765447  0.0538528282074824
  0.0576546656914965  0.3868343361139925  0.0466722271136513
  0.1561880781729496  0.4431852854495608  0.0463604063783944
  0.1556413125082407  0.5547562544772294  0.0457100716134059
  0.0571660880685168  0.6103765107332805  0.0453717709528065
  0.2559708711853976  0.3883672221140987  0.0490273900161293
  0.3549289326661215  0.4447604849386874  0.0524541339626672
  0.3529852606231099  0.5579418109154395  0.0536215103707624
  0.2537013734136515  0.6119300824203335  0.0486698999673150
  0.7616243993295482  0.4470449613990060  0.0594095686829060
  0.8587417729231823  0.3883037675024849  0.0521815848867334
  0.9585177361280115  0.4424984343562731  0.0476550742246981
  0.9591446028135975  0.5531402468623835  0.0469695593436033
  0.8600111535313864  0.6070908984953571  0.0512760466827368
  0.0562119590506751  0.7219312592463306  0.0466304085563981
  0.1545724513071781  0.7782635328127612  0.0479047114244640
  0.1553938462750040  0.8892658302648242  0.0496392531453743
  0.0554160438024467  0.9440212153831361  0.0500196087050984
  0.2536334795829349  0.7224956809438007  0.0497276545540062
  0.3530711796139439  0.7766675717860286  0.0547939925641473
  0.3554557441522130  0.8881867723106824  0.0557417028073218
  0.2559132413394812  0.9442899144654806  0.0523468210436222
  0.4499300183568445  0.7176984394870298  0.0624253568158338
  0.5540856276193672  0.8832844961447694  0.0656581780566140
  0.4557857738801407  0.9428126362693878  0.0603875599639863
  0.7550848626665186  0.8841130154640160  0.0588462621504539
  0.6551173247452947  0.9411563238843864  0.0633412263775027
  0.8575444126974271  0.7203415779826403  0.0518504543483524
  0.9564782358179839  0.7768414522047301  0.0490511030129454
  0.9554204019890740  0.8878785384665365  0.0508176594514578
  0.8545652457560433  0.9420868231956379  0.0546804737695923
  0.4550278219492291  0.3930246943918927  0.0580382067970170
  0.6611595596749296  0.3940504206514925  0.0698590722443344
  0.5499652257777052  0.7723276848880638  0.0710778999324213
  0.7574045572275829  0.7721724151378161  0.0579512046839028
  0.7654121048448410  0.5554014300326777  0.0585126967068057
  0.4474864043172322  0.6091576397568931  0.0621722154479123
  0.6543864219246179  0.6655389602099815  0.0809028880568159
  0.5564041416292046  0.4950053693155617  0.0797546464387429
  0.6126972533007384  0.5702705983369794  0.1354697322745139
 
  0.00000000E+00  0.00000000E+00  0.00000000E+00
  0.00000000E+00  0.00000000E+00  0.00000000E+00
  0.00000000E+00  0.00000000E+00  0.00000000E+00
  0.00000000E+00  0.00000000E+00  0.00000000E+00
  0.00000000E+00  0.00000000E+00  0.00000000E+00
  0.00000000E+00  0.00000000E+00  0.00000000E+00
  0.00000000E+00  0.00000000E+00  0.00000000E+00
  0.00000000E+00  0.00000000E+00  0.00000000E+00
  0.00000000E+00  0.00000000E+00  0.00000000E+00
  0.00000000E+00  0.00000000E+00  0.00000000E+00
  0.00000000E+00  0.00000000E+00  0.00000000E+00
  0.00000000E+00  0.00000000E+00  0.00000000E+00
  0.00000000E+00  0.00000000E+00  0.00000000E+00
  0.00000000E+00  0.00000000E+00  0.00000000E+00
  0.00000000E+00  0.00000000E+00  0.00000000E+00
  0.00000000E+00  0.00000000E+00  0.00000000E+00
  0.00000000E+00  0.00000000E+00  0.00000000E+00
  0.00000000E+00  0.00000000E+00  0.00000000E+00
  0.00000000E+00  0.00000000E+00  0.00000000E+00
  0.00000000E+00  0.00000000E+00  0.00000000E+00
  0.00000000E+00  0.00000000E+00  0.00000000E+00
  0.00000000E+00  0.00000000E+00  0.00000000E+00
  0.00000000E+00  0.00000000E+00  0.00000000E+00
  0.00000000E+00  0.00000000E+00  0.00000000E+00
  0.00000000E+00  0.00000000E+00  0.00000000E+00
  0.00000000E+00  0.00000000E+00  0.00000000E+00
  0.00000000E+00  0.00000000E+00  0.00000000E+00
  0.00000000E+00  0.00000000E+00  0.00000000E+00
  0.00000000E+00  0.00000000E+00  0.00000000E+00
  0.00000000E+00  0.00000000E+00  0.00000000E+00
  0.00000000E+00  0.00000000E+00  0.00000000E+00
  0.00000000E+00  0.00000000E+00  0.00000000E+00
  0.00000000E+00  0.00000000E+00  0.00000000E+00
  0.00000000E+00  0.00000000E+00  0.00000000E+00
  0.00000000E+00  0.00000000E+00  0.00000000E+00
  0.00000000E+00  0.00000000E+00  0.00000000E+00
  0.00000000E+00  0.00000000E+00  0.00000000E+00
  0.00000000E+00  0.00000000E+00  0.00000000E+00
  0.00000000E+00  0.00000000E+00  0.00000000E+00
  0.00000000E+00  0.00000000E+00  0.00000000E+00
  0.00000000E+00  0.00000000E+00  0.00000000E+00
  0.00000000E+00  0.00000000E+00  0.00000000E+00
  0.00000000E+00  0.00000000E+00  0.00000000E+00
  0.00000000E+00  0.00000000E+00  0.00000000E+00
  0.00000000E+00  0.00000000E+00  0.00000000E+00
  0.00000000E+00  0.00000000E+00  0.00000000E+00
  0.00000000E+00  0.00000000E+00  0.00000000E+00
  0.00000000E+00  0.00000000E+00  0.00000000E+00
  0.00000000E+00  0.00000000E+00  0.00000000E+00
  0.00000000E+00  0.00000000E+00  0.00000000E+00
  0.00000000E+00  0.00000000E+00  0.00000000E+00
  0.00000000E+00  0.00000000E+00  0.00000000E+00
  0.00000000E+00  0.00000000E+00  0.00000000E+00
  0.00000000E+00  0.00000000E+00  0.00000000E+00
  0.00000000E+00  0.00000000E+00  0.00000000E+00
  0.00000000E+00  0.00000000E+00  0.00000000E+00
  0.00000000E+00  0.00000000E+00  0.00000000E+00
  0.00000000E+00  0.00000000E+00  0.00000000E+00
  0.00000000E+00  0.00000000E+00  0.00000000E+00
