CONTCAR\(2)\(2)                         
   1.00000000000000     
    12.3312997818000003    0.0000000000000000    0.0000000000000000
     0.0001127485000000   12.8291997905000006    0.0000000000000000
     0.0005937186000000    0.0011528207000000   19.9943999824000009
   C    N    Fe   Ni   O    H 
    53     3     1     1     2     2
Direct
  0.0535286861643257  0.0508745775252530  0.0491323999652746
  0.1538047468042852  0.1062354153686415  0.0473621015565494
  0.1535063556769219  0.2173204361558621  0.0461078506282721
  0.0535713058184383  0.2727754944614272  0.0471946262560543
  0.2543736947278837  0.0513348651569446  0.0476658887736642
  0.3545724673201682  0.1077134806446785  0.0499622227950906
  0.3539363748673623  0.2198871915501568  0.0488553495757970
  0.2530331357137245  0.2733458389763809  0.0451768374536086
  0.4543890436693966  0.0519558893928577  0.0541816473133340
  0.5531789450683472  0.1105613011145418  0.0588444232271779
  0.5533578162054152  0.2239369755117066  0.0590119489297996
  0.4524073064214985  0.2800244712222990  0.0525597849421523
  0.6523065667997787  0.0510547097531170  0.0618976556292476
  0.7527120116252134  0.1071207511928052  0.0599148401229367
  0.7539169192960822  0.2189517002262817  0.0601771253558523
  0.6554664778741184  0.2791728573347542  0.0632822478350814
  0.8527696860723162  0.0511695988127455  0.0562231485399970
  0.9532675766662954  0.1061723917132808  0.0520840762651724
  0.9539165731631787  0.2171060159466869  0.0514369944216287
  0.8544001451934623  0.2729409565768926  0.0558507629553416
  0.0535300158650651  0.3840065621114616  0.0454198007476905
  0.1522174786867022  0.4399788727474424  0.0419741117739494
  0.1517210851753791  0.5510911425215398  0.0413513643977779
  0.0521078497032616  0.6066580155219233  0.0438838858732138
  0.2519465589285703  0.3844000854813895  0.0423937927818394
  0.3512542178492445  0.4391568760456015  0.0434386821230115
  0.3518482867386235  0.5523576247147123  0.0426142607416882
  0.2513960455033086  0.6067645459316336  0.0411463915727959
  0.7573144420431033  0.4398825877250931  0.0637607149782282
  0.8557888117361004  0.3837986442246223  0.0557439976020095
  0.9540071277564466  0.4397781229845427  0.0491815510207481
  0.9523807356426722  0.5506524526230949  0.0482782630358931
  0.8516965596129479  0.6050332623316834  0.0553130286740952
  0.0528328616516381  0.7180418067080205  0.0444854297875015
  0.1524530656235025  0.7735509485161696  0.0435287545604831
  0.1534662231132239  0.8847627433050472  0.0456533524775411
  0.0532363451337058  0.9399390402818487  0.0483899270612956
  0.2522971924928797  0.7176815745427845  0.0426876380587627
  0.3529003255021292  0.7712979880873689  0.0465669383187680
  0.3542177858712813  0.8833899467124956  0.0488067741719503
  0.2540800391440168  0.9397017606637068  0.0468207261233642
  0.4515543061874328  0.7115025431775417  0.0515983084045352
  0.5521079835281896  0.8795338629492682  0.0618206477865338
  0.4540897242581480  0.9390098730670082  0.0542240883049251
  0.7532053420779800  0.8828529568448886  0.0644377344037937
  0.6520718429026119  0.9388098284950941  0.0646860697243350
  0.8538878224411053  0.7179799641999877  0.0561500035687749
  0.9528256815386403  0.7734708004046426  0.0492219945932698
  0.9529614192817996  0.8846854834522422  0.0513615384850262
  0.8526979255614986  0.9396655227581540  0.0568919831933842
  0.7528111611729642  0.5508994155955131  0.0651485347461110
  0.5499513290718525  0.7674708393272920  0.0651473667795116
  0.7564633881497074  0.7721549675264744  0.0692136025785598
  0.4478875082273369  0.3880162871806906  0.0494150074164346
  0.4486079156810979  0.6027110379595590  0.0468669000073504
  0.6609094182093870  0.3853922031065657  0.0679402327940683
  0.6545249253380356  0.6780635658261375  0.1106949358883761
  0.5566774660017464  0.4906593953881876  0.0674313647253911
  0.5619520732185312  0.5756696665302032  0.1547310341249252
  0.7243338592824743  0.6979667339293926  0.1924377398510963
  0.7842997688040386  0.7472986643909367  0.1913552824585658
  0.6058003701434223  0.5480368454707296  0.1913643167403969
 
  0.00000000E+00  0.00000000E+00  0.00000000E+00
  0.00000000E+00  0.00000000E+00  0.00000000E+00
  0.00000000E+00  0.00000000E+00  0.00000000E+00
  0.00000000E+00  0.00000000E+00  0.00000000E+00
  0.00000000E+00  0.00000000E+00  0.00000000E+00
  0.00000000E+00  0.00000000E+00  0.00000000E+00
  0.00000000E+00  0.00000000E+00  0.00000000E+00
  0.00000000E+00  0.00000000E+00  0.00000000E+00
  0.00000000E+00  0.00000000E+00  0.00000000E+00
  0.00000000E+00  0.00000000E+00  0.00000000E+00
  0.00000000E+00  0.00000000E+00  0.00000000E+00
  0.00000000E+00  0.00000000E+00  0.00000000E+00
  0.00000000E+00  0.00000000E+00  0.00000000E+00
  0.00000000E+00  0.00000000E+00  0.00000000E+00
  0.00000000E+00  0.00000000E+00  0.00000000E+00
  0.00000000E+00  0.00000000E+00  0.00000000E+00
  0.00000000E+00  0.00000000E+00  0.00000000E+00
  0.00000000E+00  0.00000000E+00  0.00000000E+00
  0.00000000E+00  0.00000000E+00  0.00000000E+00
  0.00000000E+00  0.00000000E+00  0.00000000E+00
  0.00000000E+00  0.00000000E+00  0.00000000E+00
  0.00000000E+00  0.00000000E+00  0.00000000E+00
  0.00000000E+00  0.00000000E+00  0.00000000E+00
  0.00000000E+00  0.00000000E+00  0.00000000E+00
  0.00000000E+00  0.00000000E+00  0.00000000E+00
  0.00000000E+00  0.00000000E+00  0.00000000E+00
  0.00000000E+00  0.00000000E+00  0.00000000E+00
  0.00000000E+00  0.00000000E+00  0.00000000E+00
  0.00000000E+00  0.00000000E+00  0.00000000E+00
  0.00000000E+00  0.00000000E+00  0.00000000E+00
  0.00000000E+00  0.00000000E+00  0.00000000E+00
  0.00000000E+00  0.00000000E+00  0.00000000E+00
  0.00000000E+00  0.00000000E+00  0.00000000E+00
  0.00000000E+00  0.00000000E+00  0.00000000E+00
  0.00000000E+00  0.00000000E+00  0.00000000E+00
  0.00000000E+00  0.00000000E+00  0.00000000E+00
  0.00000000E+00  0.00000000E+00  0.00000000E+00
  0.00000000E+00  0.00000000E+00  0.00000000E+00
  0.00000000E+00  0.00000000E+00  0.00000000E+00
  0.00000000E+00  0.00000000E+00  0.00000000E+00
  0.00000000E+00  0.00000000E+00  0.00000000E+00
  0.00000000E+00  0.00000000E+00  0.00000000E+00
  0.00000000E+00  0.00000000E+00  0.00000000E+00
  0.00000000E+00  0.00000000E+00  0.00000000E+00
  0.00000000E+00  0.00000000E+00  0.00000000E+00
  0.00000000E+00  0.00000000E+00  0.00000000E+00
  0.00000000E+00  0.00000000E+00  0.00000000E+00
  0.00000000E+00  0.00000000E+00  0.00000000E+00
  0.00000000E+00  0.00000000E+00  0.00000000E+00
  0.00000000E+00  0.00000000E+00  0.00000000E+00
  0.00000000E+00  0.00000000E+00  0.00000000E+00
  0.00000000E+00  0.00000000E+00  0.00000000E+00
  0.00000000E+00  0.00000000E+00  0.00000000E+00
  0.00000000E+00  0.00000000E+00  0.00000000E+00
  0.00000000E+00  0.00000000E+00  0.00000000E+00
  0.00000000E+00  0.00000000E+00  0.00000000E+00
  0.00000000E+00  0.00000000E+00  0.00000000E+00
  0.00000000E+00  0.00000000E+00  0.00000000E+00
  0.00000000E+00  0.00000000E+00  0.00000000E+00
  0.00000000E+00  0.00000000E+00  0.00000000E+00
  0.00000000E+00  0.00000000E+00  0.00000000E+00
  0.00000000E+00  0.00000000E+00  0.00000000E+00
