an6                                     
   1.00000000000000     
    12.3312997818000003    0.0000000000000000    0.0000000000000000
     0.0001127485000000   12.8291997905000006    0.0000000000000000
     0.0005937186000000    0.0011528207000000   19.9943999824000009
   C    N    Fe   Ni
    53     3     1     1
Direct
  0.0556224041933814  0.0547463234470633  0.0557822464650427
  0.1557720271679603  0.1108818398428757  0.0557995312735174
  0.1569594134583360  0.2217556447382085  0.0557832886725887
  0.0568465469445608  0.2763399189761815  0.0557650421075450
  0.2559390641068934  0.0562516787780170  0.0558026965777939
  0.3566774616060030  0.1115191581062258  0.0557725761340173
  0.3578902153054224  0.2232767178871329  0.0557473724233803
  0.2574369968015653  0.2777086461132703  0.0557661458427181
  0.4561784628729448  0.0550466402493304  0.0557419881940649
  0.5571242117383283  0.1102274704245470  0.0557001394851855
  0.5579078213957039  0.2219030746803441  0.0556915007996651
  0.4584969013714753  0.2803285733399081  0.0556985515544786
  0.6562251888825587  0.0506269345862965  0.0556582624681307
  0.7557547486874711  0.1081451712085077  0.0556745502944779
  0.7570162768179536  0.2204206645713072  0.0556901861625365
  0.6585701972457016  0.2790144031776575  0.0556725445924711
  0.8550558459455526  0.0520368909420719  0.0556933990534296
  0.9553531101284918  0.1089329776569892  0.0557395740753222
  0.9566018770809815  0.2205856713333912  0.0557434784423255
  0.8568692469806143  0.2764587633328608  0.0557161061299748
  0.0581222553494122  0.3876561400681892  0.0557551331504964
  0.1573864968015412  0.4437841858004699  0.0557704653781352
  0.1572450105984699  0.5549814137851614  0.0557800706594756
  0.0570543448743722  0.6099825341860388  0.0557687839398686
  0.2577321182588154  0.3889500120064552  0.0557606153053180
  0.3573578278752719  0.4450152527536023  0.0557227372717407
  0.3587013977772365  0.5585079915783817  0.0557092679781852
  0.2567999344423826  0.6116287294543773  0.0557679824396419
  0.7603081059711694  0.4465972167415785  0.0556459714513598
  0.8588909683210829  0.3882467468234636  0.0556987847069891
  0.9586510598856591  0.4429768332983153  0.0557250924316281
  0.9578520752211357  0.5538977179191817  0.0557193611432819
  0.8568225117517694  0.6077276186354964  0.0556635705050228
  0.0558305329826263  0.7210145389776690  0.0557780957598231
  0.1541950481554289  0.7776692939175459  0.0558039031759104
  0.1547285848012184  0.8887963942192786  0.0558123613907816
  0.0548542182924926  0.9435710945471595  0.0557874776107238
  0.2536927573849612  0.7224889638598457  0.0557836187498872
  0.3512567605879656  0.7794925465154559  0.0557486929453030
  0.3534934361149440  0.8900384925006534  0.0557701131264666
  0.2543647877869503  0.9453269320747852  0.0558108564360746
  0.4497141113868771  0.7243970113021474  0.0556714258563622
  0.5525427768885385  0.8842571646225503  0.0556558134323160
  0.4543266616838371  0.9438680906415651  0.0557306787874394
  0.7553768585112424  0.8797803369776303  0.0556447053261871
  0.6554208148020878  0.9375228401495639  0.0556371261898331
  0.8568568111415305  0.7202627414224737  0.0556729257586834
  0.9559703729564193  0.7757310767690776  0.0557359802401654
  0.9555433436139547  0.8869349728535382  0.0557410197037242
  0.8543825853118037  0.9397101170187144  0.0556846859105542
  0.4571023315597388  0.3916549565996032  0.0556805342059896
  0.4585688179678867  0.6143694456510662  0.0556502171587197
  0.6612305424945286  0.3892503031879791  0.0556402395351264
  0.7593859369216459  0.5564362110461678  0.0556193874593438
  0.5465331736982100  0.7783676027403664  0.0556283393499447
  0.7583759532769604  0.7699444332800285  0.0556308595299612
  0.6410667089251031  0.6675264834636172  0.0556133998662213
  0.5652939898928460  0.4939683472186011  0.0556305373846148
 
  0.00000000E+00  0.00000000E+00  0.00000000E+00
  0.00000000E+00  0.00000000E+00  0.00000000E+00
  0.00000000E+00  0.00000000E+00  0.00000000E+00
  0.00000000E+00  0.00000000E+00  0.00000000E+00
  0.00000000E+00  0.00000000E+00  0.00000000E+00
  0.00000000E+00  0.00000000E+00  0.00000000E+00
  0.00000000E+00  0.00000000E+00  0.00000000E+00
  0.00000000E+00  0.00000000E+00  0.00000000E+00
  0.00000000E+00  0.00000000E+00  0.00000000E+00
  0.00000000E+00  0.00000000E+00  0.00000000E+00
  0.00000000E+00  0.00000000E+00  0.00000000E+00
  0.00000000E+00  0.00000000E+00  0.00000000E+00
  0.00000000E+00  0.00000000E+00  0.00000000E+00
  0.00000000E+00  0.00000000E+00  0.00000000E+00
  0.00000000E+00  0.00000000E+00  0.00000000E+00
  0.00000000E+00  0.00000000E+00  0.00000000E+00
  0.00000000E+00  0.00000000E+00  0.00000000E+00
  0.00000000E+00  0.00000000E+00  0.00000000E+00
  0.00000000E+00  0.00000000E+00  0.00000000E+00
  0.00000000E+00  0.00000000E+00  0.00000000E+00
  0.00000000E+00  0.00000000E+00  0.00000000E+00
  0.00000000E+00  0.00000000E+00  0.00000000E+00
  0.00000000E+00  0.00000000E+00  0.00000000E+00
  0.00000000E+00  0.00000000E+00  0.00000000E+00
  0.00000000E+00  0.00000000E+00  0.00000000E+00
  0.00000000E+00  0.00000000E+00  0.00000000E+00
  0.00000000E+00  0.00000000E+00  0.00000000E+00
  0.00000000E+00  0.00000000E+00  0.00000000E+00
  0.00000000E+00  0.00000000E+00  0.00000000E+00
  0.00000000E+00  0.00000000E+00  0.00000000E+00
  0.00000000E+00  0.00000000E+00  0.00000000E+00
  0.00000000E+00  0.00000000E+00  0.00000000E+00
  0.00000000E+00  0.00000000E+00  0.00000000E+00
  0.00000000E+00  0.00000000E+00  0.00000000E+00
  0.00000000E+00  0.00000000E+00  0.00000000E+00
  0.00000000E+00  0.00000000E+00  0.00000000E+00
  0.00000000E+00  0.00000000E+00  0.00000000E+00
  0.00000000E+00  0.00000000E+00  0.00000000E+00
  0.00000000E+00  0.00000000E+00  0.00000000E+00
  0.00000000E+00  0.00000000E+00  0.00000000E+00
  0.00000000E+00  0.00000000E+00  0.00000000E+00
  0.00000000E+00  0.00000000E+00  0.00000000E+00
  0.00000000E+00  0.00000000E+00  0.00000000E+00
  0.00000000E+00  0.00000000E+00  0.00000000E+00
  0.00000000E+00  0.00000000E+00  0.00000000E+00
  0.00000000E+00  0.00000000E+00  0.00000000E+00
  0.00000000E+00  0.00000000E+00  0.00000000E+00
  0.00000000E+00  0.00000000E+00  0.00000000E+00
  0.00000000E+00  0.00000000E+00  0.00000000E+00
  0.00000000E+00  0.00000000E+00  0.00000000E+00
  0.00000000E+00  0.00000000E+00  0.00000000E+00
  0.00000000E+00  0.00000000E+00  0.00000000E+00
  0.00000000E+00  0.00000000E+00  0.00000000E+00
  0.00000000E+00  0.00000000E+00  0.00000000E+00
  0.00000000E+00  0.00000000E+00  0.00000000E+00
  0.00000000E+00  0.00000000E+00  0.00000000E+00
  0.00000000E+00  0.00000000E+00  0.00000000E+00
  0.00000000E+00  0.00000000E+00  0.00000000E+00
