an6                                     
   1.00000000000000     
    12.3312997818000003    0.0000000000000000    0.0000000000000000
     0.0001127485000000   12.8291997905000006    0.0000000000000000
     0.0005937186000000    0.0011528207000000   19.9943999824000009
   C    N    Fe   Ni
    50     6     1     1
Direct
  0.0558581136181476  0.0545571529855274  0.0557597837014303
  0.1563391455365246  0.1101828391769196  0.0557579047551975
  0.1562608037465938  0.2210174106262133  0.0557373118020821
  0.0561538946713548  0.2761656671194072  0.0557359041890047
  0.2568765853805790  0.0556514698090949  0.0557781150851354
  0.3573504902944063  0.1113565387283518  0.0557552899818581
  0.3567186520876897  0.2232779769523724  0.0557316168517164
  0.2559059162211236  0.2769568519262696  0.0557347293565207
  0.4577635155781304  0.0554158267334451  0.0557382797819241
  0.5572964664753897  0.1134341779539720  0.0557077748749896
  0.5576248135795687  0.2287829136064779  0.0557002521149109
  0.4550948969198031  0.2838876243808172  0.0557000757688334
  0.6550399726109166  0.0519078022137110  0.0556873789397312
  0.7544211847538639  0.1100348741552586  0.0557018284551336
  0.7554528277614074  0.2231811523496519  0.0557046100560756
  0.6585777901239048  0.2856900584138388  0.0556904562012044
  0.8546747492287748  0.0536144210681525  0.0557179135756741
  0.9552866905474373  0.1091384364481284  0.0557271550302949
  0.9560471820016156  0.2206477589029329  0.0557172093410936
  0.8568346027963585  0.2768914707484930  0.0557111899928241
  0.0569989758120495  0.3871284753562272  0.0557606210009112
  0.1558776941521421  0.4434814098843546  0.0557649777303552
  0.1559205466793317  0.5541641798040755  0.0557522949141370
  0.0574110661795959  0.6105530513542043  0.0557371767057548
  0.2548218908422968  0.3883149441481313  0.0557449761298800
  0.3539769229445958  0.4433318370032354  0.0557213109458643
  0.3541657049302247  0.5561375752571701  0.0557218441441161
  0.2548535645454453  0.6101726159942893  0.0557410246068692
  0.7622291103257715  0.4463124241799341  0.0556784332806076
  0.8597465243939080  0.3881764215970287  0.0557128799788723
  0.9587399784490950  0.4431206485439457  0.0557435165904929
  0.9586005285854039  0.5544448970253472  0.0557288476959306
  0.8596234981273031  0.6084285511047596  0.0556826065202634
  0.0568621662142808  0.7211839313462056  0.0557358169083988
  0.1555952985090119  0.7775671599810814  0.0557579872215416
  0.1561983789348980  0.8885542109889873  0.0557840601496436
  0.0559882159844334  0.9437161195980162  0.0557779164263438
  0.2539583814722871  0.7215302213619855  0.0557430407224702
  0.3527029586308383  0.7766774092720921  0.0557267401116340
  0.3554762482754440  0.8881087673717241  0.0557536278673274
  0.2562167668189255  0.9441213434434580  0.0557875533372030
  0.4501332301587567  0.7185584173851084  0.0556884455893360
  0.5533146253703053  0.8808014910365783  0.0556785688904448
  0.4565678737388371  0.9425100118366236  0.0557262991037540
  0.7569864700659478  0.8806776849696432  0.0556769496078260
  0.6546936174056220  0.9365456606442063  0.0556695083445420
  0.8589719440862963  0.7210146218029336  0.0556842475194737
  0.9576711760658995  0.7763595815124142  0.0557237481179545
  0.9563434993469528  0.8878058598486516  0.0557503339035888
  0.8553099912902267  0.9413711113164476  0.0557219446525952
  0.4503329760715510  0.3910281018051719  0.0556878764428132
  0.4515903889170240  0.6100556492994561  0.0556863115695383
  0.6649120665532510  0.3957854850298161  0.0556678215591629
  0.7622733241805779  0.5544955006236761  0.0556580106972238
  0.5468976853647561  0.7709258784823482  0.0556616555719097
  0.7617361622566260  0.7727904776804272  0.0556499830850851
  0.6500234151230191  0.6592175067304916  0.0556401226942094
  0.5580288822634930  0.5015782890806987  0.0556661518062569
 
  0.00000000E+00  0.00000000E+00  0.00000000E+00
  0.00000000E+00  0.00000000E+00  0.00000000E+00
  0.00000000E+00  0.00000000E+00  0.00000000E+00
  0.00000000E+00  0.00000000E+00  0.00000000E+00
  0.00000000E+00  0.00000000E+00  0.00000000E+00
  0.00000000E+00  0.00000000E+00  0.00000000E+00
  0.00000000E+00  0.00000000E+00  0.00000000E+00
  0.00000000E+00  0.00000000E+00  0.00000000E+00
  0.00000000E+00  0.00000000E+00  0.00000000E+00
  0.00000000E+00  0.00000000E+00  0.00000000E+00
  0.00000000E+00  0.00000000E+00  0.00000000E+00
  0.00000000E+00  0.00000000E+00  0.00000000E+00
  0.00000000E+00  0.00000000E+00  0.00000000E+00
  0.00000000E+00  0.00000000E+00  0.00000000E+00
  0.00000000E+00  0.00000000E+00  0.00000000E+00
  0.00000000E+00  0.00000000E+00  0.00000000E+00
  0.00000000E+00  0.00000000E+00  0.00000000E+00
  0.00000000E+00  0.00000000E+00  0.00000000E+00
  0.00000000E+00  0.00000000E+00  0.00000000E+00
  0.00000000E+00  0.00000000E+00  0.00000000E+00
  0.00000000E+00  0.00000000E+00  0.00000000E+00
  0.00000000E+00  0.00000000E+00  0.00000000E+00
  0.00000000E+00  0.00000000E+00  0.00000000E+00
  0.00000000E+00  0.00000000E+00  0.00000000E+00
  0.00000000E+00  0.00000000E+00  0.00000000E+00
  0.00000000E+00  0.00000000E+00  0.00000000E+00
  0.00000000E+00  0.00000000E+00  0.00000000E+00
  0.00000000E+00  0.00000000E+00  0.00000000E+00
  0.00000000E+00  0.00000000E+00  0.00000000E+00
  0.00000000E+00  0.00000000E+00  0.00000000E+00
  0.00000000E+00  0.00000000E+00  0.00000000E+00
  0.00000000E+00  0.00000000E+00  0.00000000E+00
  0.00000000E+00  0.00000000E+00  0.00000000E+00
  0.00000000E+00  0.00000000E+00  0.00000000E+00
  0.00000000E+00  0.00000000E+00  0.00000000E+00
  0.00000000E+00  0.00000000E+00  0.00000000E+00
  0.00000000E+00  0.00000000E+00  0.00000000E+00
  0.00000000E+00  0.00000000E+00  0.00000000E+00
  0.00000000E+00  0.00000000E+00  0.00000000E+00
  0.00000000E+00  0.00000000E+00  0.00000000E+00
  0.00000000E+00  0.00000000E+00  0.00000000E+00
  0.00000000E+00  0.00000000E+00  0.00000000E+00
  0.00000000E+00  0.00000000E+00  0.00000000E+00
  0.00000000E+00  0.00000000E+00  0.00000000E+00
  0.00000000E+00  0.00000000E+00  0.00000000E+00
  0.00000000E+00  0.00000000E+00  0.00000000E+00
  0.00000000E+00  0.00000000E+00  0.00000000E+00
  0.00000000E+00  0.00000000E+00  0.00000000E+00
  0.00000000E+00  0.00000000E+00  0.00000000E+00
  0.00000000E+00  0.00000000E+00  0.00000000E+00
  0.00000000E+00  0.00000000E+00  0.00000000E+00
  0.00000000E+00  0.00000000E+00  0.00000000E+00
  0.00000000E+00  0.00000000E+00  0.00000000E+00
  0.00000000E+00  0.00000000E+00  0.00000000E+00
  0.00000000E+00  0.00000000E+00  0.00000000E+00
  0.00000000E+00  0.00000000E+00  0.00000000E+00
  0.00000000E+00  0.00000000E+00  0.00000000E+00
  0.00000000E+00  0.00000000E+00  0.00000000E+00
