CONTCAR\(6)                             
   1.00000000000000     
    12.3312997818000003    0.0000000000000000    0.0000000000000000
     0.0001127485000000   12.8291997905000006    0.0000000000000000
     0.0005937186000000    0.0011528207000000   19.9943999824000009
   C    N    Fe   Ni   O    H 
    51     5     1     1     2     2
Direct
  0.0549916591766419  0.0550806593884976  0.0473191609349150
  0.1554117266529909  0.1107380414462089  0.0472842614721901
  0.1552916854710577  0.2214861313761437  0.0463733454226949
  0.0552360240210706  0.2768672539020715  0.0467963404438985
  0.2562686666234619  0.0562261895258801  0.0491294311422548
  0.3566619278949456  0.1122187512800734  0.0512317216469208
  0.3563135558100720  0.2242948655859167  0.0499316937364126
  0.2551658801185900  0.2773940237626017  0.0466599407223395
  0.4567291242672830  0.0565927862846929  0.0548165241767224
  0.5564560723470576  0.1143362365532030  0.0569986714257490
  0.5569745815254676  0.2287033849800329  0.0573791176163504
  0.4549045196519448  0.2844203480994328  0.0525636402093807
  0.6548564209102424  0.0532917850680561  0.0570728520973501
  0.7542296447062191  0.1102986280107931  0.0544809299238486
  0.7556267325378445  0.2231468856046704  0.0558008035702975
  0.6589753023675737  0.2844994621266506  0.0603441268550911
  0.8540188639636238  0.0539068811600771  0.0509406556646618
  0.9545280935069915  0.1098947709151840  0.0489196399027598
  0.9552431646400210  0.2215154322272942  0.0491808908806848
  0.8558204585679435  0.2780531814819291  0.0525693038719605
  0.0557307139406431  0.3881497307128207  0.0460418186599635
  0.1547511146713617  0.4442512626182389  0.0451431734081903
  0.1553549112261012  0.5551120277740832  0.0450287919164698
  0.0561415288230593  0.6109967953329801  0.0447892936596311
  0.2540852578773553  0.3882217982993348  0.0459301423425812
  0.3527212651473842  0.4432530814886727  0.0488248089908431
  0.3547836815201508  0.5557760801439545  0.0540519900622282
  0.2549731902051261  0.6108142901829204  0.0484519360611952
  0.7591107445422732  0.4474574770733028  0.0597929629203549
  0.8572595764277197  0.3896117193493180  0.0523666939427382
  0.9567941306013911  0.4441097660077771  0.0479613629415347
  0.9568787829628704  0.5550702493866260  0.0470298848256068
  0.8568439024632073  0.6088489844871390  0.0507125928786973
  0.0561418577610573  0.7218608110316201  0.0451901190560519
  0.1552743643634473  0.7779542232187588  0.0467879334369324
  0.1554492159733228  0.8889619218892283  0.0473086368788188
  0.0550547213612026  0.9439470079296501  0.0466790144144861
  0.2545391220414536  0.7218215939572531  0.0497159161392434
  0.3535630626307859  0.7772229244926721  0.0547814985192750
  0.3549185593061419  0.8889976512784520  0.0535767271855855
  0.2555709903620945  0.9448049154141615  0.0496846838842518
  0.4513342124579459  0.7202357094357357  0.0638471621514985
  0.5528890917233785  0.8835063487327527  0.0611439905340711
  0.4552851781259896  0.9440669090241519  0.0565764590761959
  0.7555112626881868  0.8822969660991383  0.0528055311039840
  0.6546253803633488  0.9386962992468250  0.0578724556508749
  0.8574131568342594  0.7212203587847839  0.0478304975629190
  0.9563361367055965  0.7768142402285719  0.0458810220797680
  0.9553982701955879  0.8880774869203283  0.0467923976824550
  0.8542671185292562  0.9417996352449406  0.0496986660702283
  0.4541931263150769  0.6079180707525195  0.0672932041937111
  0.4498709004948683  0.3922527261045432  0.0504022659189580
  0.6646345726196093  0.3924657471028953  0.0662471283508898
  0.7593936410606393  0.5573196766836599  0.0593277788853868
  0.5478713539146794  0.7761193146706574  0.0670316874888413
  0.7595259407273292  0.7732690463655368  0.0501796986828541
  0.6545636828262381  0.6764796329375488  0.0774563971413204
  0.5519341601659923  0.4903751348760225  0.0859607066912672
  0.6034456670676663  0.5105649765618363  0.1693315259815535
  0.6726907530948059  0.7036955402935600  0.1672307445798829
  0.7433705343755158  0.6768865051624261  0.1812688113738113
  0.5993711197448337  0.5830597619231724  0.1852088229583456
 
  0.00000000E+00  0.00000000E+00  0.00000000E+00
  0.00000000E+00  0.00000000E+00  0.00000000E+00
  0.00000000E+00  0.00000000E+00  0.00000000E+00
  0.00000000E+00  0.00000000E+00  0.00000000E+00
  0.00000000E+00  0.00000000E+00  0.00000000E+00
  0.00000000E+00  0.00000000E+00  0.00000000E+00
  0.00000000E+00  0.00000000E+00  0.00000000E+00
  0.00000000E+00  0.00000000E+00  0.00000000E+00
  0.00000000E+00  0.00000000E+00  0.00000000E+00
  0.00000000E+00  0.00000000E+00  0.00000000E+00
  0.00000000E+00  0.00000000E+00  0.00000000E+00
  0.00000000E+00  0.00000000E+00  0.00000000E+00
  0.00000000E+00  0.00000000E+00  0.00000000E+00
  0.00000000E+00  0.00000000E+00  0.00000000E+00
  0.00000000E+00  0.00000000E+00  0.00000000E+00
  0.00000000E+00  0.00000000E+00  0.00000000E+00
  0.00000000E+00  0.00000000E+00  0.00000000E+00
  0.00000000E+00  0.00000000E+00  0.00000000E+00
  0.00000000E+00  0.00000000E+00  0.00000000E+00
  0.00000000E+00  0.00000000E+00  0.00000000E+00
  0.00000000E+00  0.00000000E+00  0.00000000E+00
  0.00000000E+00  0.00000000E+00  0.00000000E+00
  0.00000000E+00  0.00000000E+00  0.00000000E+00
  0.00000000E+00  0.00000000E+00  0.00000000E+00
  0.00000000E+00  0.00000000E+00  0.00000000E+00
  0.00000000E+00  0.00000000E+00  0.00000000E+00
  0.00000000E+00  0.00000000E+00  0.00000000E+00
  0.00000000E+00  0.00000000E+00  0.00000000E+00
  0.00000000E+00  0.00000000E+00  0.00000000E+00
  0.00000000E+00  0.00000000E+00  0.00000000E+00
  0.00000000E+00  0.00000000E+00  0.00000000E+00
  0.00000000E+00  0.00000000E+00  0.00000000E+00
  0.00000000E+00  0.00000000E+00  0.00000000E+00
  0.00000000E+00  0.00000000E+00  0.00000000E+00
  0.00000000E+00  0.00000000E+00  0.00000000E+00
  0.00000000E+00  0.00000000E+00  0.00000000E+00
  0.00000000E+00  0.00000000E+00  0.00000000E+00
  0.00000000E+00  0.00000000E+00  0.00000000E+00
  0.00000000E+00  0.00000000E+00  0.00000000E+00
  0.00000000E+00  0.00000000E+00  0.00000000E+00
  0.00000000E+00  0.00000000E+00  0.00000000E+00
  0.00000000E+00  0.00000000E+00  0.00000000E+00
  0.00000000E+00  0.00000000E+00  0.00000000E+00
  0.00000000E+00  0.00000000E+00  0.00000000E+00
  0.00000000E+00  0.00000000E+00  0.00000000E+00
  0.00000000E+00  0.00000000E+00  0.00000000E+00
  0.00000000E+00  0.00000000E+00  0.00000000E+00
  0.00000000E+00  0.00000000E+00  0.00000000E+00
  0.00000000E+00  0.00000000E+00  0.00000000E+00
  0.00000000E+00  0.00000000E+00  0.00000000E+00
  0.00000000E+00  0.00000000E+00  0.00000000E+00
  0.00000000E+00  0.00000000E+00  0.00000000E+00
  0.00000000E+00  0.00000000E+00  0.00000000E+00
  0.00000000E+00  0.00000000E+00  0.00000000E+00
  0.00000000E+00  0.00000000E+00  0.00000000E+00
  0.00000000E+00  0.00000000E+00  0.00000000E+00
  0.00000000E+00  0.00000000E+00  0.00000000E+00
  0.00000000E+00  0.00000000E+00  0.00000000E+00
  0.00000000E+00  0.00000000E+00  0.00000000E+00
  0.00000000E+00  0.00000000E+00  0.00000000E+00
  0.00000000E+00  0.00000000E+00  0.00000000E+00
  0.00000000E+00  0.00000000E+00  0.00000000E+00
