1236                                    
   1.00000000000000     
    12.3312997818000003    0.0000000000000000    0.0000000000000000
     0.0001127485000000   12.8291997905000006    0.0000000000000000
     0.0005937186000000    0.0011528207000000   19.9943999824000009
   C    N    Fe   Ni   O    H 
    52     4     1     1     1     1
Direct
  0.0564348398252781  0.0544457855194918  0.0516797099240942
  0.1568956334321681  0.1100830838797931  0.0522794729500874
  0.1568821064298199  0.2209974762320376  0.0510247412643636
  0.0566998928736439  0.2759145055582030  0.0496128891791680
  0.2572878893935148  0.0555378845589743  0.0545594678370537
  0.3575588972515575  0.1116029689768254  0.0574367292288435
  0.3571304210832615  0.2235393391810206  0.0565220870769872
  0.2564545772833151  0.2770768816455560  0.0522338743262234
  0.4574413999194858  0.0556091038846799  0.0609538932779070
  0.5565462340223656  0.1135081244538011  0.0628463362703398
  0.5570238101905122  0.2276382043271073  0.0633517499870973
  0.4557030163227581  0.2837693809091395  0.0603243809096066
  0.6546465985771946  0.0528843067368612  0.0620512505069155
  0.7548324088845145  0.1097003845073049  0.0586351572562813
  0.7562836435573470  0.2221214690326219  0.0587619065818441
  0.6586097844057577  0.2833590016677547  0.0633544080251654
  0.8551287192115642  0.0536352259128298  0.0549926878356737
  0.9557298753920129  0.1091417383372061  0.0527271215980634
  0.9565804704491644  0.2203234279593759  0.0519230917773699
  0.8570856043121103  0.2762403199169262  0.0542857041848336
  0.0572559414617213  0.3867459180259614  0.0474349544519011
  0.1562826141445019  0.4432467431461115  0.0469993901046630
  0.1566735929998880  0.5541294049681799  0.0464534661126340
  0.0578966691828210  0.6099175266060840  0.0456731399538896
  0.2556956647518393  0.3883168981637761  0.0500654627291993
  0.3546206364443986  0.4437786592212417  0.0540033391106797
  0.3551546938791450  0.5564030934605133  0.0545448490188770
  0.2557984271353374  0.6101827132186975  0.0497400182733247
  0.7601868077964241  0.4445501689797647  0.0579136153283364
  0.8587354670371778  0.3873179045417507  0.0524997094941172
  0.9581388621817902  0.4424661524054016  0.0479910824323573
  0.9590344564271623  0.5533346526286113  0.0467472558051755
  0.8597597876674572  0.6080194076189112  0.0498237424783308
  0.0578330303072433  0.7212586951243811  0.0468049631233456
  0.1566626065079732  0.7773012374038182  0.0488186139199993
  0.1566770609422714  0.8885589474403104  0.0508033663628020
  0.0564362237172448  0.9437387608054870  0.0506851539030191
  0.2555996600657642  0.7213526149121340  0.0508183977112519
  0.3546581700872877  0.7761399310211953  0.0559816104468837
  0.3560314814798845  0.8878197769215970  0.0573801018271599
  0.2566972751803213  0.9439568328147998  0.0540882356661762
  0.4527314901516379  0.7181648574501103  0.0619654224079089
  0.5533162810887161  0.8821829040598823  0.0652759570316071
  0.4563077621879778  0.9427255325444965  0.0615757165568267
  0.7553436864624377  0.8830957539945079  0.0580331457182804
  0.6539771388664770  0.9390620392296453  0.0629094680662210
  0.8602504740745597  0.7205873790828013  0.0500782722029730
  0.9584786152359590  0.7769116898824328  0.0484166653752953
  0.9563126128303877  0.8879265806903138  0.0506104614083419
  0.8551140013918872  0.9417952114311994  0.0540438479309603
  0.7597474734996299  0.5558915060637434  0.0566427825804781
  0.7605168869175829  0.7725105429745915  0.0566828122353362
  0.4510444321768950  0.3913975919394388  0.0603313864599597
  0.4524936719847669  0.6093107361541311  0.0611023023850554
  0.6638840773585591  0.3909262082888462  0.0655784451129976
  0.5484994598040972  0.7723480203992381  0.0691281467229331
  0.6610031153468034  0.6678250790287774  0.0872131649547716
  0.5576530666267606  0.4949623291464106  0.0762648798946485
  0.6117713372643064  0.5813516031916837  0.1576137180794104
  0.5480095445155778  0.6089696148215272  0.1805462736239270
 
  0.00000000E+00  0.00000000E+00  0.00000000E+00
  0.00000000E+00  0.00000000E+00  0.00000000E+00
  0.00000000E+00  0.00000000E+00  0.00000000E+00
  0.00000000E+00  0.00000000E+00  0.00000000E+00
  0.00000000E+00  0.00000000E+00  0.00000000E+00
  0.00000000E+00  0.00000000E+00  0.00000000E+00
  0.00000000E+00  0.00000000E+00  0.00000000E+00
  0.00000000E+00  0.00000000E+00  0.00000000E+00
  0.00000000E+00  0.00000000E+00  0.00000000E+00
  0.00000000E+00  0.00000000E+00  0.00000000E+00
  0.00000000E+00  0.00000000E+00  0.00000000E+00
  0.00000000E+00  0.00000000E+00  0.00000000E+00
  0.00000000E+00  0.00000000E+00  0.00000000E+00
  0.00000000E+00  0.00000000E+00  0.00000000E+00
  0.00000000E+00  0.00000000E+00  0.00000000E+00
  0.00000000E+00  0.00000000E+00  0.00000000E+00
  0.00000000E+00  0.00000000E+00  0.00000000E+00
  0.00000000E+00  0.00000000E+00  0.00000000E+00
  0.00000000E+00  0.00000000E+00  0.00000000E+00
  0.00000000E+00  0.00000000E+00  0.00000000E+00
  0.00000000E+00  0.00000000E+00  0.00000000E+00
  0.00000000E+00  0.00000000E+00  0.00000000E+00
  0.00000000E+00  0.00000000E+00  0.00000000E+00
  0.00000000E+00  0.00000000E+00  0.00000000E+00
  0.00000000E+00  0.00000000E+00  0.00000000E+00
  0.00000000E+00  0.00000000E+00  0.00000000E+00
  0.00000000E+00  0.00000000E+00  0.00000000E+00
  0.00000000E+00  0.00000000E+00  0.00000000E+00
  0.00000000E+00  0.00000000E+00  0.00000000E+00
  0.00000000E+00  0.00000000E+00  0.00000000E+00
  0.00000000E+00  0.00000000E+00  0.00000000E+00
  0.00000000E+00  0.00000000E+00  0.00000000E+00
  0.00000000E+00  0.00000000E+00  0.00000000E+00
  0.00000000E+00  0.00000000E+00  0.00000000E+00
  0.00000000E+00  0.00000000E+00  0.00000000E+00
  0.00000000E+00  0.00000000E+00  0.00000000E+00
  0.00000000E+00  0.00000000E+00  0.00000000E+00
  0.00000000E+00  0.00000000E+00  0.00000000E+00
  0.00000000E+00  0.00000000E+00  0.00000000E+00
  0.00000000E+00  0.00000000E+00  0.00000000E+00
  0.00000000E+00  0.00000000E+00  0.00000000E+00
  0.00000000E+00  0.00000000E+00  0.00000000E+00
  0.00000000E+00  0.00000000E+00  0.00000000E+00
  0.00000000E+00  0.00000000E+00  0.00000000E+00
  0.00000000E+00  0.00000000E+00  0.00000000E+00
  0.00000000E+00  0.00000000E+00  0.00000000E+00
  0.00000000E+00  0.00000000E+00  0.00000000E+00
  0.00000000E+00  0.00000000E+00  0.00000000E+00
  0.00000000E+00  0.00000000E+00  0.00000000E+00
  0.00000000E+00  0.00000000E+00  0.00000000E+00
  0.00000000E+00  0.00000000E+00  0.00000000E+00
  0.00000000E+00  0.00000000E+00  0.00000000E+00
  0.00000000E+00  0.00000000E+00  0.00000000E+00
  0.00000000E+00  0.00000000E+00  0.00000000E+00
  0.00000000E+00  0.00000000E+00  0.00000000E+00
  0.00000000E+00  0.00000000E+00  0.00000000E+00
  0.00000000E+00  0.00000000E+00  0.00000000E+00
  0.00000000E+00  0.00000000E+00  0.00000000E+00
  0.00000000E+00  0.00000000E+00  0.00000000E+00
  0.00000000E+00  0.00000000E+00  0.00000000E+00
