POSCAR                                  
   1.00000000000000     
    12.3312997818000003    0.0000000000000000    0.0000000000000000
     0.0001127485000000   12.8291997905000006    0.0000000000000000
     0.0005937186000000    0.0011528207000000   19.9943999824000009
   C    N    Fe   Ni   H 
    55     1     1     1     2
Direct
  0.0557192568331694  0.0521431247225957  0.0529430476028198
  0.1559322619074309  0.1080591564998836  0.0528110728504364
  0.1565594219515403  0.2189919597692731  0.0520724022367302
  0.0565602182559896  0.2740261962251114  0.0509205489479759
  0.2563711882282733  0.0537037845355718  0.0537572139823720
  0.3564351775919646  0.1105360320300011  0.0552463031883502
  0.3572026611148764  0.2222815443881655  0.0552026418910536
  0.2560977460984086  0.2753714695064227  0.0529918899567883
  0.4561292797897151  0.0548070544115825  0.0570453555386064
  0.5565126688842895  0.1116464935346375  0.0587576790566233
  0.5572090958142738  0.2236735370252848  0.0592236198296039
  0.4572890398118170  0.2811902882742866  0.0574836898025633
  0.6556407448601741  0.0528142615642890  0.0589973166146341
  0.7558429652275928  0.1082498105488680  0.0567729926630482
  0.7574439820657716  0.2195272358758382  0.0558317118619703
  0.6592439088557418  0.2790733846540450  0.0591147638449034
  0.8551560817999940  0.0513794070045998  0.0551931093236024
  0.9555974183723088  0.1068873176837773  0.0532210491648126
  0.9569866177998485  0.2178915798236986  0.0518448269250262
  0.8577538330228947  0.2736935962583080  0.0525252280454570
  0.0564888117335875  0.3852383823668079  0.0500194117864329
  0.1548791951997560  0.4416712957250137  0.0506467195276956
  0.1545178399056018  0.5531493381298280  0.0505257041157321
  0.0545820428862154  0.6082349884141156  0.0504150832051095
  0.2544177052017098  0.3862031627855813  0.0522515002018051
  0.3523771736304295  0.4426818461928227  0.0539307943566701
  0.3532307895444173  0.5546031445080247  0.0538809883343546
  0.2534805683531873  0.6097279307555445  0.0517383749954762
  0.7598301759428773  0.4399064890475800  0.0543387574104237
  0.8588595329250078  0.3843429156664488  0.0509413658552334
  0.9571088871506228  0.4407926808087558  0.0496524159623497
  0.9556349536233697  0.5515186052767798  0.0502844319082179
  0.8544309304794233  0.6054090868631308  0.0515474309912668
  0.0546116355242430  0.7195249055841075  0.0510345594728564
  0.1539095593720660  0.7755697051435734  0.0515045048478511
  0.1549185972284680  0.8866198646439222  0.0523804957633269
  0.0547114558177514  0.9413183901704721  0.0529105165841064
  0.2536536895485634  0.7202790200106657  0.0519216044702937
  0.3535335318566858  0.7749712360150812  0.0538185674963677
  0.3551060230459973  0.8865961710255005  0.0545998454249722
  0.2553727991780094  0.9423390780781717  0.0533944594565341
  0.4530162947993044  0.7170594429560168  0.0571481888098328
  0.5543956054272785  0.8859841966990161  0.0601326188268018
  0.4550633372978211  0.9431761885511840  0.0569704741957271
  0.7537918931166395  0.8820976733657753  0.0590043985714107
  0.6550209597945655  0.9413774539604355  0.0601834214317932
  0.8549512292381996  0.7184198869037537  0.0540743310731472
  0.9543235692243549  0.7744207507270205  0.0524721955133833
  0.9545203225594002  0.8854628467793628  0.0537057378278376
  0.8539559609952644  0.9395844660325339  0.0558940333084571
  0.4534616055213387  0.3926181746271830  0.0567980540607318
  0.7550749365322366  0.5508872367000313  0.0538762359632388
  0.5514855814174118  0.7763406336404519  0.0627823263021557
  0.7538533019296918  0.7700675031111804  0.0593638467096335
  0.4542828284504138  0.6049465872781555  0.0575022430817268
  0.6639239248508426  0.3851284080343426  0.0608480813799878
  0.6421243075575563  0.6659565446935130  0.0751973982767794
  0.5643048860355860  0.4929268302480294  0.0652389935339431
  0.6371189173633601  0.6939290682683372  0.1470915052239708
  0.6179511034546893  0.5725205958754653  0.1256119104149809
 
  0.00000000E+00  0.00000000E+00  0.00000000E+00
  0.00000000E+00  0.00000000E+00  0.00000000E+00
  0.00000000E+00  0.00000000E+00  0.00000000E+00
  0.00000000E+00  0.00000000E+00  0.00000000E+00
  0.00000000E+00  0.00000000E+00  0.00000000E+00
  0.00000000E+00  0.00000000E+00  0.00000000E+00
  0.00000000E+00  0.00000000E+00  0.00000000E+00
  0.00000000E+00  0.00000000E+00  0.00000000E+00
  0.00000000E+00  0.00000000E+00  0.00000000E+00
  0.00000000E+00  0.00000000E+00  0.00000000E+00
  0.00000000E+00  0.00000000E+00  0.00000000E+00
  0.00000000E+00  0.00000000E+00  0.00000000E+00
  0.00000000E+00  0.00000000E+00  0.00000000E+00
  0.00000000E+00  0.00000000E+00  0.00000000E+00
  0.00000000E+00  0.00000000E+00  0.00000000E+00
  0.00000000E+00  0.00000000E+00  0.00000000E+00
  0.00000000E+00  0.00000000E+00  0.00000000E+00
  0.00000000E+00  0.00000000E+00  0.00000000E+00
  0.00000000E+00  0.00000000E+00  0.00000000E+00
  0.00000000E+00  0.00000000E+00  0.00000000E+00
  0.00000000E+00  0.00000000E+00  0.00000000E+00
  0.00000000E+00  0.00000000E+00  0.00000000E+00
  0.00000000E+00  0.00000000E+00  0.00000000E+00
  0.00000000E+00  0.00000000E+00  0.00000000E+00
  0.00000000E+00  0.00000000E+00  0.00000000E+00
  0.00000000E+00  0.00000000E+00  0.00000000E+00
  0.00000000E+00  0.00000000E+00  0.00000000E+00
  0.00000000E+00  0.00000000E+00  0.00000000E+00
  0.00000000E+00  0.00000000E+00  0.00000000E+00
  0.00000000E+00  0.00000000E+00  0.00000000E+00
  0.00000000E+00  0.00000000E+00  0.00000000E+00
  0.00000000E+00  0.00000000E+00  0.00000000E+00
  0.00000000E+00  0.00000000E+00  0.00000000E+00
  0.00000000E+00  0.00000000E+00  0.00000000E+00
  0.00000000E+00  0.00000000E+00  0.00000000E+00
  0.00000000E+00  0.00000000E+00  0.00000000E+00
  0.00000000E+00  0.00000000E+00  0.00000000E+00
  0.00000000E+00  0.00000000E+00  0.00000000E+00
  0.00000000E+00  0.00000000E+00  0.00000000E+00
  0.00000000E+00  0.00000000E+00  0.00000000E+00
  0.00000000E+00  0.00000000E+00  0.00000000E+00
  0.00000000E+00  0.00000000E+00  0.00000000E+00
  0.00000000E+00  0.00000000E+00  0.00000000E+00
  0.00000000E+00  0.00000000E+00  0.00000000E+00
  0.00000000E+00  0.00000000E+00  0.00000000E+00
  0.00000000E+00  0.00000000E+00  0.00000000E+00
  0.00000000E+00  0.00000000E+00  0.00000000E+00
  0.00000000E+00  0.00000000E+00  0.00000000E+00
  0.00000000E+00  0.00000000E+00  0.00000000E+00
  0.00000000E+00  0.00000000E+00  0.00000000E+00
  0.00000000E+00  0.00000000E+00  0.00000000E+00
  0.00000000E+00  0.00000000E+00  0.00000000E+00
  0.00000000E+00  0.00000000E+00  0.00000000E+00
  0.00000000E+00  0.00000000E+00  0.00000000E+00
  0.00000000E+00  0.00000000E+00  0.00000000E+00
  0.00000000E+00  0.00000000E+00  0.00000000E+00
  0.00000000E+00  0.00000000E+00  0.00000000E+00
  0.00000000E+00  0.00000000E+00  0.00000000E+00
  0.00000000E+00  0.00000000E+00  0.00000000E+00
  0.00000000E+00  0.00000000E+00  0.00000000E+00
