CONTCAR                                 
   1.00000000000000     
    12.3312997818000003    0.0000000000000000    0.0000000000000000
     0.0001127485000000   12.8291997905000006    0.0000000000000000
     0.0005937186000000    0.0011528207000000   19.9943999824000009
   C    N    Fe   Ni   O    H 
    53     3     1     1     2     2
Direct
  0.0555242558689776  0.0489837278183480  0.0446331501114400
  0.1559858775552588  0.1041351407033256  0.0436607768192207
  0.1555988669400429  0.2150149183383900  0.0414602387847373
  0.0558953698671127  0.2709168911486574  0.0414957996308181
  0.2568869734692417  0.0498134230190047  0.0461607696143708
  0.3568871294468530  0.1067439143526890  0.0496300958075524
  0.3564033395603555  0.2188308443784562  0.0474510596809095
  0.2549649952511435  0.2710410027476028  0.0416016069140129
  0.4567228891659322  0.0519135372080361  0.0557401606832796
  0.5558901726808992  0.1108839311982227  0.0598063201939678
  0.5564434322207671  0.2246058483702288  0.0597689753812692
  0.4545703339187883  0.2795023987121635  0.0524855276013842
  0.6550684237155068  0.0512468920345289  0.0616295125075054
  0.7553321586958632  0.1066939809674256  0.0573371208898132
  0.7564697333130008  0.2187888428288702  0.0574085727572024
  0.6594494136749209  0.2801507522715075  0.0630691693272857
  0.8551134798961160  0.0503119150019036  0.0524093776005271
  0.9556170905291995  0.1048230066291415  0.0473268618429740
  0.9561948821866897  0.2158358302588171  0.0463350377197819
  0.8570583941622851  0.2720697024516849  0.0516965562694204
  0.0558487235417993  0.3820776137225454  0.0390131498910930
  0.1541396919154349  0.4384003615153691  0.0365254397898504
  0.1537803417532214  0.5497155867176688  0.0358678064291586
  0.0546338050218772  0.6054484563581640  0.0374175518251348
  0.2531444793439651  0.3815889220950056  0.0388510108052000
  0.3510147731314601  0.4365454923835947  0.0434227769294543
  0.3512369003104018  0.5485666782878234  0.0465770026830515
  0.2532698884110912  0.6052322984409216  0.0395919421247257
  0.7615486977999076  0.4404024156524236  0.0611254140498898
  0.8586506731000082  0.3828676833519039  0.0511477519937907
  0.9568919202323902  0.4380320144457472  0.0430473410220721
  0.9558710528167936  0.5487134555374585  0.0422215512547886
  0.8552208557632365  0.6008995908402845  0.0513330260275132
  0.0550811276218749  0.7166261018198219  0.0388241242504401
  0.1552231791523022  0.7720788396330206  0.0401765162849812
  0.1558939832637360  0.8831136288111930  0.0427315303396844
  0.0552486342580244  0.9378829259284692  0.0439759307721110
  0.2552278687644806  0.7161337544947425  0.0424865536092813
  0.3557924360203594  0.7697504206139480  0.0508206263968567
  0.3566214486298652  0.8821756067009829  0.0513671948010998
  0.2566512390598769  0.9382028037326856  0.0461745235772458
  0.4541383500705850  0.7103069655170321  0.0623451461436311
  0.5544402658213143  0.8809761125543107  0.0663990661343149
  0.4560706318563562  0.9390507346567080  0.0576751947807701
  0.7561125181505041  0.8826261681531385  0.0622026551537237
  0.6550651900700522  0.9389231895421963  0.0653564671721463
  0.8552001087598170  0.7145622616638364  0.0518337360652249
  0.9545621300413248  0.7709534215963788  0.0438910691468590
  0.9548440150691984  0.8825421703834322  0.0465134492342497
  0.8552157189194751  0.9386939933401132  0.0530190594291502
  0.4494025921042931  0.5975348545250179  0.0626639051245371
  0.5511445365838189  0.7700040006662172  0.0735986521053732
  0.7600654235976527  0.7716139637019069  0.0666867820109597
  0.4487660180012372  0.3876065855967296  0.0499288375638844
  0.6652745788618866  0.3871799741675058  0.0694247663204822
  0.7613544112916077  0.5475207373482730  0.0614197910701408
  0.6614478783841029  0.6947171715884890  0.1181290376090793
  0.5494054552354348  0.4879375813020440  0.0804353641239495
  0.6083285394536148  0.5628180215842340  0.1528737628370282
  0.6939103178520561  0.7476567738701178  0.2007935169948317
  0.7242703271565561  0.8177571487359246  0.2020570781599582
  0.5501521466880449  0.5782171679836271  0.1844872268247796
 
  0.00000000E+00  0.00000000E+00  0.00000000E+00
  0.00000000E+00  0.00000000E+00  0.00000000E+00
  0.00000000E+00  0.00000000E+00  0.00000000E+00
  0.00000000E+00  0.00000000E+00  0.00000000E+00
  0.00000000E+00  0.00000000E+00  0.00000000E+00
  0.00000000E+00  0.00000000E+00  0.00000000E+00
  0.00000000E+00  0.00000000E+00  0.00000000E+00
  0.00000000E+00  0.00000000E+00  0.00000000E+00
  0.00000000E+00  0.00000000E+00  0.00000000E+00
  0.00000000E+00  0.00000000E+00  0.00000000E+00
  0.00000000E+00  0.00000000E+00  0.00000000E+00
  0.00000000E+00  0.00000000E+00  0.00000000E+00
  0.00000000E+00  0.00000000E+00  0.00000000E+00
  0.00000000E+00  0.00000000E+00  0.00000000E+00
  0.00000000E+00  0.00000000E+00  0.00000000E+00
  0.00000000E+00  0.00000000E+00  0.00000000E+00
  0.00000000E+00  0.00000000E+00  0.00000000E+00
  0.00000000E+00  0.00000000E+00  0.00000000E+00
  0.00000000E+00  0.00000000E+00  0.00000000E+00
  0.00000000E+00  0.00000000E+00  0.00000000E+00
  0.00000000E+00  0.00000000E+00  0.00000000E+00
  0.00000000E+00  0.00000000E+00  0.00000000E+00
  0.00000000E+00  0.00000000E+00  0.00000000E+00
  0.00000000E+00  0.00000000E+00  0.00000000E+00
  0.00000000E+00  0.00000000E+00  0.00000000E+00
  0.00000000E+00  0.00000000E+00  0.00000000E+00
  0.00000000E+00  0.00000000E+00  0.00000000E+00
  0.00000000E+00  0.00000000E+00  0.00000000E+00
  0.00000000E+00  0.00000000E+00  0.00000000E+00
  0.00000000E+00  0.00000000E+00  0.00000000E+00
  0.00000000E+00  0.00000000E+00  0.00000000E+00
  0.00000000E+00  0.00000000E+00  0.00000000E+00
  0.00000000E+00  0.00000000E+00  0.00000000E+00
  0.00000000E+00  0.00000000E+00  0.00000000E+00
  0.00000000E+00  0.00000000E+00  0.00000000E+00
  0.00000000E+00  0.00000000E+00  0.00000000E+00
  0.00000000E+00  0.00000000E+00  0.00000000E+00
  0.00000000E+00  0.00000000E+00  0.00000000E+00
  0.00000000E+00  0.00000000E+00  0.00000000E+00
  0.00000000E+00  0.00000000E+00  0.00000000E+00
  0.00000000E+00  0.00000000E+00  0.00000000E+00
  0.00000000E+00  0.00000000E+00  0.00000000E+00
  0.00000000E+00  0.00000000E+00  0.00000000E+00
  0.00000000E+00  0.00000000E+00  0.00000000E+00
  0.00000000E+00  0.00000000E+00  0.00000000E+00
  0.00000000E+00  0.00000000E+00  0.00000000E+00
  0.00000000E+00  0.00000000E+00  0.00000000E+00
  0.00000000E+00  0.00000000E+00  0.00000000E+00
  0.00000000E+00  0.00000000E+00  0.00000000E+00
  0.00000000E+00  0.00000000E+00  0.00000000E+00
  0.00000000E+00  0.00000000E+00  0.00000000E+00
  0.00000000E+00  0.00000000E+00  0.00000000E+00
  0.00000000E+00  0.00000000E+00  0.00000000E+00
  0.00000000E+00  0.00000000E+00  0.00000000E+00
  0.00000000E+00  0.00000000E+00  0.00000000E+00
  0.00000000E+00  0.00000000E+00  0.00000000E+00
  0.00000000E+00  0.00000000E+00  0.00000000E+00
  0.00000000E+00  0.00000000E+00  0.00000000E+00
  0.00000000E+00  0.00000000E+00  0.00000000E+00
  0.00000000E+00  0.00000000E+00  0.00000000E+00
  0.00000000E+00  0.00000000E+00  0.00000000E+00
  0.00000000E+00  0.00000000E+00  0.00000000E+00
