CONTCAR                                 
   1.00000000000000     
    12.3312997818000003    0.0000000000000000    0.0000000000000000
     0.0001127485000000   12.8291997905000006    0.0000000000000000
     0.0005937186000000    0.0011528207000000   19.9943999824000009
   C    N    Fe   Ni   O    H 
    53     3     1     1     1     1
Direct
  0.0552552322908111  0.0554878119806103  0.0493644893742153
  0.1556885263347636  0.1106357092601249  0.0498340760123266
  0.1557096549480826  0.2215115485376222  0.0485289055086364
  0.0557296963609486  0.2768487183625812  0.0470221639775896
  0.2561617394957036  0.0559122947510009  0.0523385320252070
  0.3563555566863010  0.1120092790288889  0.0555460765893211
  0.3560492496613413  0.2240269015854117  0.0548476186521893
  0.2552917405664394  0.2774897656406490  0.0502023091836911
  0.4559613395705406  0.0560565940610544  0.0595370724336049
  0.5550674456128486  0.1144209092704111  0.0618978203274019
  0.5554778938710178  0.2271325765995804  0.0629832103559548
  0.4546766071763722  0.2833685977717472  0.0593228265386128
  0.6545699364474419  0.0553063504920201  0.0610143195475144
  0.7545026143433349  0.1119359007503606  0.0570300481598191
  0.7551797579675716  0.2241730599936833  0.0572048243038598
  0.6567750652228250  0.2842601440247803  0.0635820950219138
  0.8544015006301633  0.0554779797258717  0.0531097490653296
  0.9548965370889325  0.1108235458475152  0.0504164468044298
  0.9554010154444519  0.2220326066158536  0.0494499713726182
  0.8556417177920338  0.2784069688985234  0.0520971352114436
  0.0567976750033695  0.3877614088050582  0.0448463347381050
  0.1554923486952635  0.4442227963238569  0.0450179839680290
  0.1553699962120867  0.5551239357420968  0.0443212276601654
  0.0566089748810689  0.6112682595882355  0.0434460405744851
  0.2550497467596747  0.3886221765813265  0.0486263917087334
  0.3538149453568512  0.4436099334896942  0.0533549171171776
  0.3531957268351962  0.5566115664772288  0.0550636444940012
  0.2540247313020443  0.6111182729315866  0.0483833374652536
  0.7604266771394048  0.4491452495839566  0.0561163275069097
  0.8578507316702203  0.3895814193150622  0.0499609509516957
  0.9576515640702022  0.4436919861532995  0.0451961320706900
  0.9583431442689677  0.5544386263987953  0.0442783459596157
  0.8585836431330501  0.6085168585214659  0.0469159409515428
  0.0560097642725922  0.7224851454372825  0.0447680449667657
  0.1549754782452931  0.7783416200034892  0.0470646293892838
  0.1554914881147917  0.8894226837222000  0.0488191911644743
  0.0551646153277153  0.9445394628343463  0.0486471556395114
  0.2542286270352596  0.7221999259259428  0.0498239379375723
  0.3538437964889463  0.7763678431630416  0.0555867515856485
  0.3556011107142811  0.8882192259942969  0.0559918846163149
  0.2558825105717659  0.9444501378678476  0.0520505371911982
  0.4512914253715071  0.7167723501426501  0.0636502277302900
  0.5542080734812495  0.8843791682748527  0.0651948943414218
  0.4556169181211079  0.9436567660739712  0.0605573738469388
  0.7546303939926106  0.8861620302249464  0.0572081782659563
  0.6543357621844322  0.9427884407539375  0.0622532203914903
  0.8567863260475258  0.7214431905895874  0.0483362098248080
  0.9559811925799161  0.7775882215992698  0.0465985625399449
  0.9549971011782057  0.8888301915889472  0.0488864142958095
  0.8542376700609879  0.9437059248052468  0.0525280398579196
  0.6617286993351637  0.3948695770793344  0.0681872785743466
  0.5517318286577514  0.7727262118277781  0.0699775219604891
  0.7569932010272755  0.7749010888645167  0.0562570451544167
  0.4510246766659221  0.3916299932515160  0.0592678263552469
  0.4479442669215492  0.6081281469784778  0.0659031723798457
  0.7632622536324967  0.5569070467331185  0.0517393321004894
  0.6591955257009474  0.6710049969608336  0.0841054554829090
  0.5530232246098000  0.4903815699116324  0.0838809191420604
  0.6244689410532204  0.5733732334138415  0.1531971022254992
  0.5664922847683680  0.5999060938671080  0.1817618374072695
 
  0.00000000E+00  0.00000000E+00  0.00000000E+00
  0.00000000E+00  0.00000000E+00  0.00000000E+00
  0.00000000E+00  0.00000000E+00  0.00000000E+00
  0.00000000E+00  0.00000000E+00  0.00000000E+00
  0.00000000E+00  0.00000000E+00  0.00000000E+00
  0.00000000E+00  0.00000000E+00  0.00000000E+00
  0.00000000E+00  0.00000000E+00  0.00000000E+00
  0.00000000E+00  0.00000000E+00  0.00000000E+00
  0.00000000E+00  0.00000000E+00  0.00000000E+00
  0.00000000E+00  0.00000000E+00  0.00000000E+00
  0.00000000E+00  0.00000000E+00  0.00000000E+00
  0.00000000E+00  0.00000000E+00  0.00000000E+00
  0.00000000E+00  0.00000000E+00  0.00000000E+00
  0.00000000E+00  0.00000000E+00  0.00000000E+00
  0.00000000E+00  0.00000000E+00  0.00000000E+00
  0.00000000E+00  0.00000000E+00  0.00000000E+00
  0.00000000E+00  0.00000000E+00  0.00000000E+00
  0.00000000E+00  0.00000000E+00  0.00000000E+00
  0.00000000E+00  0.00000000E+00  0.00000000E+00
  0.00000000E+00  0.00000000E+00  0.00000000E+00
  0.00000000E+00  0.00000000E+00  0.00000000E+00
  0.00000000E+00  0.00000000E+00  0.00000000E+00
  0.00000000E+00  0.00000000E+00  0.00000000E+00
  0.00000000E+00  0.00000000E+00  0.00000000E+00
  0.00000000E+00  0.00000000E+00  0.00000000E+00
  0.00000000E+00  0.00000000E+00  0.00000000E+00
  0.00000000E+00  0.00000000E+00  0.00000000E+00
  0.00000000E+00  0.00000000E+00  0.00000000E+00
  0.00000000E+00  0.00000000E+00  0.00000000E+00
  0.00000000E+00  0.00000000E+00  0.00000000E+00
  0.00000000E+00  0.00000000E+00  0.00000000E+00
  0.00000000E+00  0.00000000E+00  0.00000000E+00
  0.00000000E+00  0.00000000E+00  0.00000000E+00
  0.00000000E+00  0.00000000E+00  0.00000000E+00
  0.00000000E+00  0.00000000E+00  0.00000000E+00
  0.00000000E+00  0.00000000E+00  0.00000000E+00
  0.00000000E+00  0.00000000E+00  0.00000000E+00
  0.00000000E+00  0.00000000E+00  0.00000000E+00
  0.00000000E+00  0.00000000E+00  0.00000000E+00
  0.00000000E+00  0.00000000E+00  0.00000000E+00
  0.00000000E+00  0.00000000E+00  0.00000000E+00
  0.00000000E+00  0.00000000E+00  0.00000000E+00
  0.00000000E+00  0.00000000E+00  0.00000000E+00
  0.00000000E+00  0.00000000E+00  0.00000000E+00
  0.00000000E+00  0.00000000E+00  0.00000000E+00
  0.00000000E+00  0.00000000E+00  0.00000000E+00
  0.00000000E+00  0.00000000E+00  0.00000000E+00
  0.00000000E+00  0.00000000E+00  0.00000000E+00
  0.00000000E+00  0.00000000E+00  0.00000000E+00
  0.00000000E+00  0.00000000E+00  0.00000000E+00
  0.00000000E+00  0.00000000E+00  0.00000000E+00
  0.00000000E+00  0.00000000E+00  0.00000000E+00
  0.00000000E+00  0.00000000E+00  0.00000000E+00
  0.00000000E+00  0.00000000E+00  0.00000000E+00
  0.00000000E+00  0.00000000E+00  0.00000000E+00
  0.00000000E+00  0.00000000E+00  0.00000000E+00
  0.00000000E+00  0.00000000E+00  0.00000000E+00
  0.00000000E+00  0.00000000E+00  0.00000000E+00
  0.00000000E+00  0.00000000E+00  0.00000000E+00
  0.00000000E+00  0.00000000E+00  0.00000000E+00
