CONTCAR                                 
   1.00000000000000     
    12.3312997818000003    0.0000000000000000    0.0000000000000000
     0.0001127485000000   12.8291997905000006    0.0000000000000000
     0.0005937186000000    0.0011528207000000   19.9943999824000009
   C    N    Fe   Ni   O 
    53     3     1     1     1
Direct
  0.0561321038513152  0.0554113783823535  0.0504544387539352
  0.1566092403261442  0.1103578966553884  0.0501344889624305
  0.1566119849577743  0.2212797916915064  0.0488326059346967
  0.0562813290532724  0.2763166297195123  0.0480166853103247
  0.2570741320346788  0.0550451333982324  0.0519541564750760
  0.3575117743117657  0.1105034182068338  0.0555814157704124
  0.3575455562065643  0.2225092275116826  0.0549704408785357
  0.2568446478318693  0.2769706491571444  0.0497630183061683
  0.4572031843374112  0.0540802823544865  0.0599888667669981
  0.5573272468085284  0.1108542519501771  0.0639128471732199
  0.5574742768768902  0.2233253303705843  0.0651780972796129
  0.4570919670271459  0.2802453842879108  0.0603571056272886
  0.6568172221265599  0.0515905528180818  0.0643785926578558
  0.7557357868125586  0.1098830974977409  0.0610226464676197
  0.7559376591089821  0.2228180300718816  0.0613568726844686
  0.6576342124151687  0.2820957454611602  0.0671173711714443
  0.8554331181139135  0.0541527110095225  0.0566630891279493
  0.9557085335272240  0.1101634713624381  0.0527545542436135
  0.9558633273164837  0.2215493136273240  0.0517220784362944
  0.8560621307329140  0.2778676928659624  0.0556235708679780
  0.0566051219639688  0.3874664246347883  0.0453060560717833
  0.1557429381364351  0.4431713141017186  0.0436653343295873
  0.1551448990674554  0.5544245220982934  0.0421880167470799
  0.0566391124324639  0.6106430553227293  0.0419866402938177
  0.2557823370645920  0.3880555801377886  0.0470582345716439
  0.3548306419341207  0.4441572379994086  0.0509881997845101
  0.3526305096058842  0.5571195462990560  0.0507792627868016
  0.2535236785528347  0.6113292398469047  0.0450243476200541
  0.7597925570565913  0.4491101905577231  0.0615472936905019
  0.8574516756458321  0.3895930208338453  0.0538265309528984
  0.9572829475674646  0.4435602238617740  0.0470368255097232
  0.9578312618324736  0.5546767936198115  0.0450023263792756
  0.8588505132371498  0.6093840036176363  0.0508166626740577
  0.0564749655638069  0.7218436634956953  0.0432035514025239
  0.1550634121380294  0.7781610365866884  0.0446020021794562
  0.1562092177582387  0.8890571139204569  0.0474813713869996
  0.0562855557008398  0.9444055880749176  0.0490129678483647
  0.2540110706714425  0.7220237288529444  0.0464187565864031
  0.3535250006520303  0.7758093156409408  0.0529522146602822
  0.3562329586207497  0.8873543195639810  0.0545169877557582
  0.2567245111239717  0.9438250259923694  0.0508328513677615
  0.4500944498490032  0.7160152911927959  0.0612623883251642
  0.5548998805273423  0.8814421452100684  0.0666955677779098
  0.4566421948906185  0.9417232099622519  0.0602210977595052
  0.7578332257317677  0.8827712204836566  0.0620029505372892
  0.6566183138572350  0.9383709081737946  0.0659014804222312
  0.8584716489618256  0.7225599687376432  0.0520317601054622
  0.9571963555191750  0.7775124784374243  0.0472785685613804
  0.9567293453079033  0.8885346186914966  0.0505113354223865
  0.8559749037595489  0.9421169172421270  0.0562285508981132
  0.4545199471117897  0.3916054588222498  0.0596139359311118
  0.6599810446977000  0.3940480099435475  0.0717636395837871
  0.5494219004486307  0.7705637063208065  0.0720259420449403
  0.4469309636683250  0.6081946749921859  0.0596844383895283
  0.7638955043739332  0.5580076438460443  0.0601620030735415
  0.7618924976278117  0.7738392065121575  0.0618761477711450
  0.6578484815722984  0.6696753580483090  0.0902163026137445
  0.5533614275424449  0.4916111444369915  0.0863085790993524
  0.6057035874491192  0.5859071364870300  0.1483059301881721
 
  0.00000000E+00  0.00000000E+00  0.00000000E+00
  0.00000000E+00  0.00000000E+00  0.00000000E+00
  0.00000000E+00  0.00000000E+00  0.00000000E+00
  0.00000000E+00  0.00000000E+00  0.00000000E+00
  0.00000000E+00  0.00000000E+00  0.00000000E+00
  0.00000000E+00  0.00000000E+00  0.00000000E+00
  0.00000000E+00  0.00000000E+00  0.00000000E+00
  0.00000000E+00  0.00000000E+00  0.00000000E+00
  0.00000000E+00  0.00000000E+00  0.00000000E+00
  0.00000000E+00  0.00000000E+00  0.00000000E+00
  0.00000000E+00  0.00000000E+00  0.00000000E+00
  0.00000000E+00  0.00000000E+00  0.00000000E+00
  0.00000000E+00  0.00000000E+00  0.00000000E+00
  0.00000000E+00  0.00000000E+00  0.00000000E+00
  0.00000000E+00  0.00000000E+00  0.00000000E+00
  0.00000000E+00  0.00000000E+00  0.00000000E+00
  0.00000000E+00  0.00000000E+00  0.00000000E+00
  0.00000000E+00  0.00000000E+00  0.00000000E+00
  0.00000000E+00  0.00000000E+00  0.00000000E+00
  0.00000000E+00  0.00000000E+00  0.00000000E+00
  0.00000000E+00  0.00000000E+00  0.00000000E+00
  0.00000000E+00  0.00000000E+00  0.00000000E+00
  0.00000000E+00  0.00000000E+00  0.00000000E+00
  0.00000000E+00  0.00000000E+00  0.00000000E+00
  0.00000000E+00  0.00000000E+00  0.00000000E+00
  0.00000000E+00  0.00000000E+00  0.00000000E+00
  0.00000000E+00  0.00000000E+00  0.00000000E+00
  0.00000000E+00  0.00000000E+00  0.00000000E+00
  0.00000000E+00  0.00000000E+00  0.00000000E+00
  0.00000000E+00  0.00000000E+00  0.00000000E+00
  0.00000000E+00  0.00000000E+00  0.00000000E+00
  0.00000000E+00  0.00000000E+00  0.00000000E+00
  0.00000000E+00  0.00000000E+00  0.00000000E+00
  0.00000000E+00  0.00000000E+00  0.00000000E+00
  0.00000000E+00  0.00000000E+00  0.00000000E+00
  0.00000000E+00  0.00000000E+00  0.00000000E+00
  0.00000000E+00  0.00000000E+00  0.00000000E+00
  0.00000000E+00  0.00000000E+00  0.00000000E+00
  0.00000000E+00  0.00000000E+00  0.00000000E+00
  0.00000000E+00  0.00000000E+00  0.00000000E+00
  0.00000000E+00  0.00000000E+00  0.00000000E+00
  0.00000000E+00  0.00000000E+00  0.00000000E+00
  0.00000000E+00  0.00000000E+00  0.00000000E+00
  0.00000000E+00  0.00000000E+00  0.00000000E+00
  0.00000000E+00  0.00000000E+00  0.00000000E+00
  0.00000000E+00  0.00000000E+00  0.00000000E+00
  0.00000000E+00  0.00000000E+00  0.00000000E+00
  0.00000000E+00  0.00000000E+00  0.00000000E+00
  0.00000000E+00  0.00000000E+00  0.00000000E+00
  0.00000000E+00  0.00000000E+00  0.00000000E+00
  0.00000000E+00  0.00000000E+00  0.00000000E+00
  0.00000000E+00  0.00000000E+00  0.00000000E+00
  0.00000000E+00  0.00000000E+00  0.00000000E+00
  0.00000000E+00  0.00000000E+00  0.00000000E+00
  0.00000000E+00  0.00000000E+00  0.00000000E+00
  0.00000000E+00  0.00000000E+00  0.00000000E+00
  0.00000000E+00  0.00000000E+00  0.00000000E+00
  0.00000000E+00  0.00000000E+00  0.00000000E+00
  0.00000000E+00  0.00000000E+00  0.00000000E+00
