CONTCAR\(3)                             
   1.00000000000000     
    12.3312997818000003    0.0000000000000000    0.0000000000000000
     0.0001127485000000   12.8291997905000006    0.0000000000000000
     0.0005937186000000    0.0011528207000000   19.9943999824000009
   C    N    Fe   Ni   H 
    53     3     1     1     2
Direct
  0.0559063738571498  0.0526752885813446  0.0518331590691368
  0.1559792400807209  0.1084184610247868  0.0515805967475520
  0.1559928891497406  0.2193557450985903  0.0507181627079279
  0.0563001871110959  0.2748123788632909  0.0499945316400382
  0.2565204982763776  0.0539681504693777  0.0529314484107287
  0.3566832169546227  0.1105071155278774  0.0546503478233051
  0.3564907476061759  0.2222015442781224  0.0542704500784878
  0.2555074220462887  0.2752625115913249  0.0516801154458840
  0.4565751798192193  0.0553075945219811  0.0570268342822096
  0.5566141619243093  0.1124881643992962  0.0587329958688821
  0.5567134253949604  0.2257022223174669  0.0587238079557201
  0.4552367039796690  0.2818044162405336  0.0566097558293980
  0.6562804531351841  0.0526296618829816  0.0591741193457814
  0.7559810632736871  0.1088839454720116  0.0570838734923759
  0.7572161070590719  0.2206937136764603  0.0565850219269386
  0.6592165706125753  0.2810028847284209  0.0590001294202801
  0.8550487412764590  0.0519156225549686  0.0550302476388203
  0.9556230642016179  0.1074334292562280  0.0526849696931425
  0.9566913910968882  0.2186866125479981  0.0516704594456598
  0.8575525768105280  0.2748992601406990  0.0534029523883237
  0.0566544231387669  0.3862578144326717  0.0490136777550903
  0.1554062928544110  0.4421632274993043  0.0492170812212591
  0.1553950798793353  0.5533018626702735  0.0493352451728734
  0.0556092574017411  0.6087766402332341  0.0491084974623062
  0.2546108778064441  0.3859539638622467  0.0509997963853557
  0.3535170117882086  0.4403804098381975  0.0534223315339508
  0.3556146271273839  0.5529418875012060  0.0538174827845876
  0.2553258498816701  0.6085811551077244  0.0512538823426118
  0.7608418175880696  0.4419111077197930  0.0566594549337836
  0.8592052206187030  0.3859435343442933  0.0524772406861936
  0.9574828347679587  0.4423112795200385  0.0496850695308472
  0.9558873997757641  0.5533474780939367  0.0497003043519781
  0.8545412115061488  0.6077423733011887  0.0527902975496881
  0.0554158199324931  0.7198378707492842  0.0500378737916164
  0.1548106210087969  0.7754906918634644  0.0507769100142932
  0.1557342068526669  0.8866872848284074  0.0515561975666638
  0.0556662869240069  0.9417799625918556  0.0518104064439389
  0.2546186021971438  0.7197001589687373  0.0518145725598016
  0.3537876427199619  0.7751136740965060  0.0545910954232982
  0.3557033236923902  0.8869152074137808  0.0549825248160174
  0.2559545976684681  0.9425373061432331  0.0529349733043595
  0.4530846996455411  0.7176308038390403  0.0582074324603466
  0.5546255536624539  0.8859330004023496  0.0606677442966300
  0.4555490134587573  0.9434903591980361  0.0573864902275438
  0.7558996293502627  0.8806499734776486  0.0583687325312334
  0.6562991425465943  0.9400832429892475  0.0602618276577175
  0.8555126082864463  0.7206800302864533  0.0537808446817300
  0.9554017619538606  0.7753724047272965  0.0517261350407565
  0.9557188976226911  0.8861727078762262  0.0528276892558092
  0.8547369938762656  0.9396507514678206  0.0553523672454491
  0.4567345914185978  0.6047417356903775  0.0581401746597781
  0.7545794681307865  0.5537289706212714  0.0573506543751890
  0.5499123659574716  0.7771472215286299  0.0632028054433010
  0.4505487658247162  0.3896970633304751  0.0562594142609576
  0.6647673934826540  0.3871975088935568  0.0604584494476403
  0.7576634439283277  0.7708802574479910  0.0582772723823358
  0.6357452368340737  0.6611942770868883  0.0697589370045130
  0.5632630348820528  0.4941386249068727  0.0615170087755747
  0.6194830546314487  0.6899972610666368  0.1556836595046387
  0.6424512207101152  0.6305201612100434  0.1563634609077318
 
  0.00000000E+00  0.00000000E+00  0.00000000E+00
  0.00000000E+00  0.00000000E+00  0.00000000E+00
  0.00000000E+00  0.00000000E+00  0.00000000E+00
  0.00000000E+00  0.00000000E+00  0.00000000E+00
  0.00000000E+00  0.00000000E+00  0.00000000E+00
  0.00000000E+00  0.00000000E+00  0.00000000E+00
  0.00000000E+00  0.00000000E+00  0.00000000E+00
  0.00000000E+00  0.00000000E+00  0.00000000E+00
  0.00000000E+00  0.00000000E+00  0.00000000E+00
  0.00000000E+00  0.00000000E+00  0.00000000E+00
  0.00000000E+00  0.00000000E+00  0.00000000E+00
  0.00000000E+00  0.00000000E+00  0.00000000E+00
  0.00000000E+00  0.00000000E+00  0.00000000E+00
  0.00000000E+00  0.00000000E+00  0.00000000E+00
  0.00000000E+00  0.00000000E+00  0.00000000E+00
  0.00000000E+00  0.00000000E+00  0.00000000E+00
  0.00000000E+00  0.00000000E+00  0.00000000E+00
  0.00000000E+00  0.00000000E+00  0.00000000E+00
  0.00000000E+00  0.00000000E+00  0.00000000E+00
  0.00000000E+00  0.00000000E+00  0.00000000E+00
  0.00000000E+00  0.00000000E+00  0.00000000E+00
  0.00000000E+00  0.00000000E+00  0.00000000E+00
  0.00000000E+00  0.00000000E+00  0.00000000E+00
  0.00000000E+00  0.00000000E+00  0.00000000E+00
  0.00000000E+00  0.00000000E+00  0.00000000E+00
  0.00000000E+00  0.00000000E+00  0.00000000E+00
  0.00000000E+00  0.00000000E+00  0.00000000E+00
  0.00000000E+00  0.00000000E+00  0.00000000E+00
  0.00000000E+00  0.00000000E+00  0.00000000E+00
  0.00000000E+00  0.00000000E+00  0.00000000E+00
  0.00000000E+00  0.00000000E+00  0.00000000E+00
  0.00000000E+00  0.00000000E+00  0.00000000E+00
  0.00000000E+00  0.00000000E+00  0.00000000E+00
  0.00000000E+00  0.00000000E+00  0.00000000E+00
  0.00000000E+00  0.00000000E+00  0.00000000E+00
  0.00000000E+00  0.00000000E+00  0.00000000E+00
  0.00000000E+00  0.00000000E+00  0.00000000E+00
  0.00000000E+00  0.00000000E+00  0.00000000E+00
  0.00000000E+00  0.00000000E+00  0.00000000E+00
  0.00000000E+00  0.00000000E+00  0.00000000E+00
  0.00000000E+00  0.00000000E+00  0.00000000E+00
  0.00000000E+00  0.00000000E+00  0.00000000E+00
  0.00000000E+00  0.00000000E+00  0.00000000E+00
  0.00000000E+00  0.00000000E+00  0.00000000E+00
  0.00000000E+00  0.00000000E+00  0.00000000E+00
  0.00000000E+00  0.00000000E+00  0.00000000E+00
  0.00000000E+00  0.00000000E+00  0.00000000E+00
  0.00000000E+00  0.00000000E+00  0.00000000E+00
  0.00000000E+00  0.00000000E+00  0.00000000E+00
  0.00000000E+00  0.00000000E+00  0.00000000E+00
  0.00000000E+00  0.00000000E+00  0.00000000E+00
  0.00000000E+00  0.00000000E+00  0.00000000E+00
  0.00000000E+00  0.00000000E+00  0.00000000E+00
  0.00000000E+00  0.00000000E+00  0.00000000E+00
  0.00000000E+00  0.00000000E+00  0.00000000E+00
  0.00000000E+00  0.00000000E+00  0.00000000E+00
  0.00000000E+00  0.00000000E+00  0.00000000E+00
  0.00000000E+00  0.00000000E+00  0.00000000E+00
  0.00000000E+00  0.00000000E+00  0.00000000E+00
  0.00000000E+00  0.00000000E+00  0.00000000E+00
