an6                                     
   1.00000000000000     
    12.3312997818000003    0.0000000000000000    0.0000000000000000
     0.0001127485000000   12.8291997905000006    0.0000000000000000
     0.0005937186000000    0.0011528207000000   19.9943999824000009
   C    N    Fe   Ni
    51     5     1     1
Direct
  0.0561135126392868  0.0548747371953453  0.0557764449757437
  0.1565540688137969  0.1108720329906531  0.0557866554822995
  0.1568478352882568  0.2216312925638996  0.0557757010408246
  0.0565057371773738  0.2763279272475017  0.0557557154559184
  0.2570601665447039  0.0561309150625657  0.0557894686839383
  0.3575474476783409  0.1117454725119065  0.0557621138537314
  0.3577484658936177  0.2237773180211635  0.0557408108008284
  0.2569268257976250  0.2779292814440105  0.0557651353563926
  0.4577671950916773  0.0553370504790384  0.0557339713831365
  0.5581893197902114  0.1119821519216014  0.0556946349900022
  0.5589921208073003  0.2259314062715195  0.0556723756958967
  0.4576963900416647  0.2827107618171089  0.0556869696957488
  0.6558612617253580  0.0508858929950726  0.0556693877911455
  0.7549953675117349  0.1089686222278008  0.0556952154057542
  0.7561877404970569  0.2219130502968222  0.0557011811138153
  0.6591303556945209  0.2828702619271858  0.0556578641302887
  0.8552602628202968  0.0531259311581829  0.0557144729317548
  0.9556767602282918  0.1090947112938682  0.0557476126948864
  0.9565440423835198  0.2205080809736736  0.0557427397928965
  0.8571539154326181  0.2762513741943680  0.0557252506596438
  0.0566935531499809  0.3874599087738111  0.0557584147389885
  0.1556400462019046  0.4439058841778790  0.0557713994446713
  0.1552778716957028  0.5546127307122615  0.0557761859552027
  0.0566732817075937  0.6106464504622454  0.0557667603928298
  0.2551271336326026  0.3892730629312389  0.0557598744406224
  0.3538612290262937  0.4461479885684280  0.0557153298549846
  0.3529966245687133  0.5583421594144610  0.0557086455431870
  0.2539136099251142  0.6117545816512330  0.0557631348237154
  0.7613060715336236  0.4450927360230570  0.0556618691509660
  0.8592185880323716  0.3874520737838949  0.0557106341889407
  0.9581093745817264  0.4430370027738897  0.0557311875928636
  0.9576360425060718  0.5544272032503417  0.0557243683027475
  0.8584156607862803  0.6081558470010570  0.0556753965470954
  0.0565208242405038  0.7213483432412203  0.0557810624754907
  0.1549580600242174  0.7783674827793325  0.0557979168037809
  0.1559916017020722  0.8890292157017540  0.0558043924546124
  0.0559331177181593  0.9439840754857395  0.0557859361845929
  0.2531878612494348  0.7226256455111414  0.0557750800709075
  0.3519207040436373  0.7774581860439019  0.0557455180686785
  0.3551307073474790  0.8887159430953033  0.0557653519351051
  0.2560801148241157  0.9447239092823840  0.0557995315342584
  0.4492566435193309  0.7194748879529987  0.0556769280158010
  0.5529896324091509  0.8812341202441021  0.0556611485679214
  0.4562566298867764  0.9429514433566880  0.0557232790468350
  0.7572828229790770  0.8804671414877632  0.0556473185743411
  0.6549438942064978  0.9360030441591383  0.0556499561584678
  0.8586964328825862  0.7206704787394511  0.0556734818750168
  0.9575580726316419  0.7762285448150913  0.0557400340863059
  0.9565270242906558  0.8876052109053220  0.0557469195430281
  0.8555841235423460  0.9412928618136046  0.0557028752403100
  0.4532043604805306  0.3930275713381695  0.0556737060685776
  0.4506516053452140  0.6111977625664031  0.0556554434484980
  0.6643877193378722  0.3932446968202755  0.0556328485754908
  0.7606218903656250  0.5535378665791120  0.0556536848647928
  0.5457515343337672  0.7720401703318154  0.0556288833148037
  0.7620364029435189  0.7730440431615646  0.0556105159928897
  0.6481241868090704  0.6600546668807767  0.0555961734606335
  0.5601061966815015  0.4970367335898414  0.0556451027273653
 
  0.00000000E+00  0.00000000E+00  0.00000000E+00
  0.00000000E+00  0.00000000E+00  0.00000000E+00
  0.00000000E+00  0.00000000E+00  0.00000000E+00
  0.00000000E+00  0.00000000E+00  0.00000000E+00
  0.00000000E+00  0.00000000E+00  0.00000000E+00
  0.00000000E+00  0.00000000E+00  0.00000000E+00
  0.00000000E+00  0.00000000E+00  0.00000000E+00
  0.00000000E+00  0.00000000E+00  0.00000000E+00
  0.00000000E+00  0.00000000E+00  0.00000000E+00
  0.00000000E+00  0.00000000E+00  0.00000000E+00
  0.00000000E+00  0.00000000E+00  0.00000000E+00
  0.00000000E+00  0.00000000E+00  0.00000000E+00
  0.00000000E+00  0.00000000E+00  0.00000000E+00
  0.00000000E+00  0.00000000E+00  0.00000000E+00
  0.00000000E+00  0.00000000E+00  0.00000000E+00
  0.00000000E+00  0.00000000E+00  0.00000000E+00
  0.00000000E+00  0.00000000E+00  0.00000000E+00
  0.00000000E+00  0.00000000E+00  0.00000000E+00
  0.00000000E+00  0.00000000E+00  0.00000000E+00
  0.00000000E+00  0.00000000E+00  0.00000000E+00
  0.00000000E+00  0.00000000E+00  0.00000000E+00
  0.00000000E+00  0.00000000E+00  0.00000000E+00
  0.00000000E+00  0.00000000E+00  0.00000000E+00
  0.00000000E+00  0.00000000E+00  0.00000000E+00
  0.00000000E+00  0.00000000E+00  0.00000000E+00
  0.00000000E+00  0.00000000E+00  0.00000000E+00
  0.00000000E+00  0.00000000E+00  0.00000000E+00
  0.00000000E+00  0.00000000E+00  0.00000000E+00
  0.00000000E+00  0.00000000E+00  0.00000000E+00
  0.00000000E+00  0.00000000E+00  0.00000000E+00
  0.00000000E+00  0.00000000E+00  0.00000000E+00
  0.00000000E+00  0.00000000E+00  0.00000000E+00
  0.00000000E+00  0.00000000E+00  0.00000000E+00
  0.00000000E+00  0.00000000E+00  0.00000000E+00
  0.00000000E+00  0.00000000E+00  0.00000000E+00
  0.00000000E+00  0.00000000E+00  0.00000000E+00
  0.00000000E+00  0.00000000E+00  0.00000000E+00
  0.00000000E+00  0.00000000E+00  0.00000000E+00
  0.00000000E+00  0.00000000E+00  0.00000000E+00
  0.00000000E+00  0.00000000E+00  0.00000000E+00
  0.00000000E+00  0.00000000E+00  0.00000000E+00
  0.00000000E+00  0.00000000E+00  0.00000000E+00
  0.00000000E+00  0.00000000E+00  0.00000000E+00
  0.00000000E+00  0.00000000E+00  0.00000000E+00
  0.00000000E+00  0.00000000E+00  0.00000000E+00
  0.00000000E+00  0.00000000E+00  0.00000000E+00
  0.00000000E+00  0.00000000E+00  0.00000000E+00
  0.00000000E+00  0.00000000E+00  0.00000000E+00
  0.00000000E+00  0.00000000E+00  0.00000000E+00
  0.00000000E+00  0.00000000E+00  0.00000000E+00
  0.00000000E+00  0.00000000E+00  0.00000000E+00
  0.00000000E+00  0.00000000E+00  0.00000000E+00
  0.00000000E+00  0.00000000E+00  0.00000000E+00
  0.00000000E+00  0.00000000E+00  0.00000000E+00
  0.00000000E+00  0.00000000E+00  0.00000000E+00
  0.00000000E+00  0.00000000E+00  0.00000000E+00
  0.00000000E+00  0.00000000E+00  0.00000000E+00
  0.00000000E+00  0.00000000E+00  0.00000000E+00
