CONTCAR                                 
   1.00000000000000     
    12.3312997818000003    0.0000000000000000    0.0000000000000000
     0.0001127485000000   12.8291997905000006    0.0000000000000000
     0.0005937186000000    0.0011528207000000   19.9943999824000009
   C    N    Fe   Ni   O 
    52     4     1     1     1
Direct
  0.0558399913870971  0.0543257997619218  0.0519086598438718
  0.1563989339640704  0.1095366507496032  0.0516506866507878
  0.1561817162804369  0.2204309430140388  0.0501074508041274
  0.0562448820428978  0.2758259043912702  0.0490703015577058
  0.2571607190061262  0.0550895282110984  0.0534640405363079
  0.3572960627903538  0.1115037388475822  0.0563151556747747
  0.3565935232489099  0.2235223484500291  0.0553751921329474
  0.2555676381964211  0.2765855095103064  0.0508718505962256
  0.4575575441083018  0.0562676232699529  0.0602381011394663
  0.5565297978026404  0.1151833540643466  0.0628421791689683
  0.5571260104979846  0.2297665100040465  0.0632861795193804
  0.4547366614805866  0.2841733120037276  0.0596202159784349
  0.6551059469619506  0.0552387922892445  0.0630587807540217
  0.7549664447322860  0.1115953887782694  0.0599449818849196
  0.7559883255751977  0.2242573248530808  0.0594930614199454
  0.6587912580629451  0.2860843181699078  0.0636233849785345
  0.8549427581052745  0.0548048089829599  0.0565402789843905
  0.9555287005736863  0.1096462998970624  0.0534794157759224
  0.9562259325757108  0.2208473654524631  0.0522589708957117
  0.8569396407604321  0.2772917214389884  0.0547543942680275
  0.0568108983865336  0.3867738006924191  0.0463520146982227
  0.1552441484385093  0.4432538467953901  0.0454196104097815
  0.1553603741268895  0.5543715416101824  0.0447632822809743
  0.0567456418774387  0.6104360401474628  0.0447505162926549
  0.2542664941422935  0.3875781688233417  0.0484871604506638
  0.3526590834241377  0.4426026733979212  0.0526782758780159
  0.3527871770708950  0.5553874095352302  0.0533890217856038
  0.2540699266434414  0.6103494773479897  0.0479556105389101
  0.7612450795512211  0.4464272252690790  0.0566441450397658
  0.8589779343662802  0.3881716227442670  0.0520272926863761
  0.9580024359749399  0.4427732131324408  0.0470746823096321
  0.9583758183675974  0.5535965265528523  0.0461145990374604
  0.8586706432325844  0.6067437960797888  0.0489050017049749
  0.0562189854478099  0.7216078216522887  0.0461065088909929
  0.1554797199311653  0.7774867517108333  0.0478745814077654
  0.1562355885263247  0.8885430249625715  0.0501801020633286
  0.0556769791212381  0.9433779463141123  0.0509989054619479
  0.2547762420079339  0.7215072985135382  0.0497223871088071
  0.3546819987696195  0.7751882416830574  0.0552660889547806
  0.3567471072930980  0.8873667552821884  0.0562436199279492
  0.2568713460293280  0.9434746282099743  0.0530056626349645
  0.4524723154821506  0.7153387990771042  0.0614613934213742
  0.5553422939390136  0.8834055609075661  0.0651168330387832
  0.4570483676078542  0.9429750373595954  0.0607291376396898
  0.7553856041312198  0.8851769452575116  0.0613290393954944
  0.6548446418752610  0.9420101786298987  0.0644372879120037
  0.8567865027530908  0.7199123116909908  0.0517950739049186
  0.9561024484056518  0.7762541323190635  0.0489589958373237
  0.9553953191265111  0.8877128409785378  0.0518586165647808
  0.8548577724549388  0.9427850066263829  0.0562492011730828
  0.5524972987642636  0.7706501756775103  0.0678097007377759
  0.7576495999908345  0.7738672908522589  0.0612269115184997
  0.4492148500645653  0.3917203489284913  0.0596201616743780
  0.4486348926841564  0.6060131747092619  0.0618287655860732
  0.6646921031446630  0.3952992460039229  0.0658569298215783
  0.7630487287762372  0.5535408065180072  0.0520255396967707
  0.6573791312921413  0.6672913687836136  0.0859903828508805
  0.5524182341649418  0.4954660236369796  0.0823500658125702
  0.6181337674599308  0.5782956764464650  0.1455836202859809
 
  0.00000000E+00  0.00000000E+00  0.00000000E+00
  0.00000000E+00  0.00000000E+00  0.00000000E+00
  0.00000000E+00  0.00000000E+00  0.00000000E+00
  0.00000000E+00  0.00000000E+00  0.00000000E+00
  0.00000000E+00  0.00000000E+00  0.00000000E+00
  0.00000000E+00  0.00000000E+00  0.00000000E+00
  0.00000000E+00  0.00000000E+00  0.00000000E+00
  0.00000000E+00  0.00000000E+00  0.00000000E+00
  0.00000000E+00  0.00000000E+00  0.00000000E+00
  0.00000000E+00  0.00000000E+00  0.00000000E+00
  0.00000000E+00  0.00000000E+00  0.00000000E+00
  0.00000000E+00  0.00000000E+00  0.00000000E+00
  0.00000000E+00  0.00000000E+00  0.00000000E+00
  0.00000000E+00  0.00000000E+00  0.00000000E+00
  0.00000000E+00  0.00000000E+00  0.00000000E+00
  0.00000000E+00  0.00000000E+00  0.00000000E+00
  0.00000000E+00  0.00000000E+00  0.00000000E+00
  0.00000000E+00  0.00000000E+00  0.00000000E+00
  0.00000000E+00  0.00000000E+00  0.00000000E+00
  0.00000000E+00  0.00000000E+00  0.00000000E+00
  0.00000000E+00  0.00000000E+00  0.00000000E+00
  0.00000000E+00  0.00000000E+00  0.00000000E+00
  0.00000000E+00  0.00000000E+00  0.00000000E+00
  0.00000000E+00  0.00000000E+00  0.00000000E+00
  0.00000000E+00  0.00000000E+00  0.00000000E+00
  0.00000000E+00  0.00000000E+00  0.00000000E+00
  0.00000000E+00  0.00000000E+00  0.00000000E+00
  0.00000000E+00  0.00000000E+00  0.00000000E+00
  0.00000000E+00  0.00000000E+00  0.00000000E+00
  0.00000000E+00  0.00000000E+00  0.00000000E+00
  0.00000000E+00  0.00000000E+00  0.00000000E+00
  0.00000000E+00  0.00000000E+00  0.00000000E+00
  0.00000000E+00  0.00000000E+00  0.00000000E+00
  0.00000000E+00  0.00000000E+00  0.00000000E+00
  0.00000000E+00  0.00000000E+00  0.00000000E+00
  0.00000000E+00  0.00000000E+00  0.00000000E+00
  0.00000000E+00  0.00000000E+00  0.00000000E+00
  0.00000000E+00  0.00000000E+00  0.00000000E+00
  0.00000000E+00  0.00000000E+00  0.00000000E+00
  0.00000000E+00  0.00000000E+00  0.00000000E+00
  0.00000000E+00  0.00000000E+00  0.00000000E+00
  0.00000000E+00  0.00000000E+00  0.00000000E+00
  0.00000000E+00  0.00000000E+00  0.00000000E+00
  0.00000000E+00  0.00000000E+00  0.00000000E+00
  0.00000000E+00  0.00000000E+00  0.00000000E+00
  0.00000000E+00  0.00000000E+00  0.00000000E+00
  0.00000000E+00  0.00000000E+00  0.00000000E+00
  0.00000000E+00  0.00000000E+00  0.00000000E+00
  0.00000000E+00  0.00000000E+00  0.00000000E+00
  0.00000000E+00  0.00000000E+00  0.00000000E+00
  0.00000000E+00  0.00000000E+00  0.00000000E+00
  0.00000000E+00  0.00000000E+00  0.00000000E+00
  0.00000000E+00  0.00000000E+00  0.00000000E+00
  0.00000000E+00  0.00000000E+00  0.00000000E+00
  0.00000000E+00  0.00000000E+00  0.00000000E+00
  0.00000000E+00  0.00000000E+00  0.00000000E+00
  0.00000000E+00  0.00000000E+00  0.00000000E+00
  0.00000000E+00  0.00000000E+00  0.00000000E+00
  0.00000000E+00  0.00000000E+00  0.00000000E+00
