CONTCAR\(2)\(3)                         
   1.00000000000000     
    12.3312997818000003    0.0000000000000000    0.0000000000000000
     0.0001127485000000   12.8291997905000006    0.0000000000000000
     0.0005937186000000    0.0011528207000000   19.9943999824000009
   C    N    Fe   Ni   H 
    55     1     1     1     1
Direct
  0.0564260806270163  0.0544536446323508  0.0526068995334151
  0.1565993406781204  0.1102520310265805  0.0521242618501298
  0.1570281375625314  0.2211492580962228  0.0510317612570216
  0.0570220991615427  0.2762562571055008  0.0499869142865147
  0.2570300346336057  0.0558058476557036  0.0533705192884904
  0.3571076557220582  0.1124732568669721  0.0550984073749607
  0.3576522568317397  0.2241546541854938  0.0548145213394255
  0.2565242253677397  0.2773495893061382  0.0519405378789607
  0.4568689922725512  0.0566830387516308  0.0575142140988888
  0.5570300952092329  0.1136540008961838  0.0595871253299722
  0.5576795874569461  0.2257019555992846  0.0602498080566447
  0.4575904066435462  0.2830373087908837  0.0577810820359872
  0.6562396973444580  0.0547588429072468  0.0598952396163062
  0.7564444175069023  0.1104377112502164  0.0575025073103841
  0.7579164793959985  0.2217411708739787  0.0566443241547885
  0.6596225702978371  0.2812053735802961  0.0605226670120900
  0.8558926377639029  0.0538655311654699  0.0556069997153726
  0.9562268668907719  0.1092712306524734  0.0530556153767438
  0.9574044877545660  0.2201969964082812  0.0514516333055376
  0.8581293333359088  0.2759348764784485  0.0527030746413644
  0.0568399451496808  0.3874322243795560  0.0491223542154169
  0.1551815568368996  0.4438191111945727  0.0495985503253382
  0.1550141454483378  0.5553885333017031  0.0499080347774204
  0.0553409626922929  0.6105605997872917  0.0504218427524968
  0.2545860134199047  0.3881557298179636  0.0510773875799644
  0.3524856018943001  0.4444821030738917  0.0533976680796773
  0.3532431597319057  0.5564040064989099  0.0537660813588738
  0.2537984940776775  0.6118846234112089  0.0513569731942443
  0.7601313693526952  0.4422009748100453  0.0558262584478686
  0.8591272690716550  0.3867183049978542  0.0511761036859592
  0.9574546299240657  0.4430571217145881  0.0493958133327728
  0.9565028082362801  0.5537717582762565  0.0505011756249575
  0.8556503248348635  0.6077683643386078  0.0530222696754468
  0.0555505172755705  0.7218521238140969  0.0515776202069511
  0.1547336320365784  0.7778853473637538  0.0517733318198366
  0.1557865341758363  0.8889451870083751  0.0524979604735293
  0.0556166502362098  0.9437336853701586  0.0530731187041851
  0.2543392239945636  0.7224925858984590  0.0520036186877451
  0.3542073177368689  0.7770978215097514  0.0542608474141309
  0.3559571534766998  0.8885805119391929  0.0548611136895610
  0.2561458824035086  0.9444942052390504  0.0533017940138221
  0.4536742078123144  0.7188327063834660  0.0583845295511688
  0.5551972393939651  0.8872481436953646  0.0612281046515230
  0.4559021222664591  0.9449323537009652  0.0575740658263015
  0.7549497170268098  0.8847940528701566  0.0603882752785313
  0.6557142051854346  0.9434946729219909  0.0613525400446388
  0.8561979194783955  0.7210160115302295  0.0558793662733491
  0.9555197653352729  0.7769269190438798  0.0535721924259274
  0.9554543316170054  0.8878883832729977  0.0544594236487211
  0.8549889444721608  0.9421627234451629  0.0567226755542648
  0.4533809557500205  0.3942400320459168  0.0568909996425186
  0.7566082431236880  0.5532033718209185  0.0562743099049548
  0.5519155273956167  0.7777156728969778  0.0648398800398029
  0.7558794210930738  0.7733091147660968  0.0617932115906566
  0.4538673828169890  0.6064425794360764  0.0588933768010842
  0.6643278699534445  0.3873226151965381  0.0629804881329563
  0.6463996108753646  0.6670779509219208  0.0822331975819643
  0.5633329837687648  0.4944226193953746  0.0689483076385160
  0.6122109541718816  0.5618525506812887  0.1309070208899215
 
  0.00000000E+00  0.00000000E+00  0.00000000E+00
  0.00000000E+00  0.00000000E+00  0.00000000E+00
  0.00000000E+00  0.00000000E+00  0.00000000E+00
  0.00000000E+00  0.00000000E+00  0.00000000E+00
  0.00000000E+00  0.00000000E+00  0.00000000E+00
  0.00000000E+00  0.00000000E+00  0.00000000E+00
  0.00000000E+00  0.00000000E+00  0.00000000E+00
  0.00000000E+00  0.00000000E+00  0.00000000E+00
  0.00000000E+00  0.00000000E+00  0.00000000E+00
  0.00000000E+00  0.00000000E+00  0.00000000E+00
  0.00000000E+00  0.00000000E+00  0.00000000E+00
  0.00000000E+00  0.00000000E+00  0.00000000E+00
  0.00000000E+00  0.00000000E+00  0.00000000E+00
  0.00000000E+00  0.00000000E+00  0.00000000E+00
  0.00000000E+00  0.00000000E+00  0.00000000E+00
  0.00000000E+00  0.00000000E+00  0.00000000E+00
  0.00000000E+00  0.00000000E+00  0.00000000E+00
  0.00000000E+00  0.00000000E+00  0.00000000E+00
  0.00000000E+00  0.00000000E+00  0.00000000E+00
  0.00000000E+00  0.00000000E+00  0.00000000E+00
  0.00000000E+00  0.00000000E+00  0.00000000E+00
  0.00000000E+00  0.00000000E+00  0.00000000E+00
  0.00000000E+00  0.00000000E+00  0.00000000E+00
  0.00000000E+00  0.00000000E+00  0.00000000E+00
  0.00000000E+00  0.00000000E+00  0.00000000E+00
  0.00000000E+00  0.00000000E+00  0.00000000E+00
  0.00000000E+00  0.00000000E+00  0.00000000E+00
  0.00000000E+00  0.00000000E+00  0.00000000E+00
  0.00000000E+00  0.00000000E+00  0.00000000E+00
  0.00000000E+00  0.00000000E+00  0.00000000E+00
  0.00000000E+00  0.00000000E+00  0.00000000E+00
  0.00000000E+00  0.00000000E+00  0.00000000E+00
  0.00000000E+00  0.00000000E+00  0.00000000E+00
  0.00000000E+00  0.00000000E+00  0.00000000E+00
  0.00000000E+00  0.00000000E+00  0.00000000E+00
  0.00000000E+00  0.00000000E+00  0.00000000E+00
  0.00000000E+00  0.00000000E+00  0.00000000E+00
  0.00000000E+00  0.00000000E+00  0.00000000E+00
  0.00000000E+00  0.00000000E+00  0.00000000E+00
  0.00000000E+00  0.00000000E+00  0.00000000E+00
  0.00000000E+00  0.00000000E+00  0.00000000E+00
  0.00000000E+00  0.00000000E+00  0.00000000E+00
  0.00000000E+00  0.00000000E+00  0.00000000E+00
  0.00000000E+00  0.00000000E+00  0.00000000E+00
  0.00000000E+00  0.00000000E+00  0.00000000E+00
  0.00000000E+00  0.00000000E+00  0.00000000E+00
  0.00000000E+00  0.00000000E+00  0.00000000E+00
  0.00000000E+00  0.00000000E+00  0.00000000E+00
  0.00000000E+00  0.00000000E+00  0.00000000E+00
  0.00000000E+00  0.00000000E+00  0.00000000E+00
  0.00000000E+00  0.00000000E+00  0.00000000E+00
  0.00000000E+00  0.00000000E+00  0.00000000E+00
  0.00000000E+00  0.00000000E+00  0.00000000E+00
  0.00000000E+00  0.00000000E+00  0.00000000E+00
  0.00000000E+00  0.00000000E+00  0.00000000E+00
  0.00000000E+00  0.00000000E+00  0.00000000E+00
  0.00000000E+00  0.00000000E+00  0.00000000E+00
  0.00000000E+00  0.00000000E+00  0.00000000E+00
  0.00000000E+00  0.00000000E+00  0.00000000E+00
