CONTCAR\(7)                             
   1.00000000000000     
    12.3312997818000003    0.0000000000000000    0.0000000000000000
     0.0001127485000000   12.8291997905000006    0.0000000000000000
     0.0005937186000000    0.0011528207000000   19.9943999824000009
   C    N    Fe   Ni   H 
    51     5     1     1     1
Direct
  0.0559540837290346  0.0549090497677494  0.0519387692730912
  0.1566221044214836  0.1105505319807927  0.0516292167922121
  0.1568771782315062  0.2213010209030027  0.0500609288405867
  0.0563253879387795  0.2760365695018166  0.0495870112453181
  0.2572897821091513  0.0558658555254114  0.0534656115305908
  0.3578316155059485  0.1114311350747246  0.0559515806030442
  0.3580581976868518  0.2236212852119706  0.0545728405248143
  0.2570773283869659  0.2775011413363587  0.0502564689524988
  0.4579681860805728  0.0549202561093151  0.0596945922836010
  0.5582334450434563  0.1119195329033030  0.0622136813791617
  0.5590295460738625  0.2261705947032496  0.0625971264411339
  0.4577885876952973  0.2827422665342367  0.0579968434257300
  0.6558840179559119  0.0506855458398572  0.0623195699060014
  0.7548267852939136  0.1089743538413083  0.0599853682353678
  0.7559811557737235  0.2223891742741208  0.0606176528236905
  0.6591710244729381  0.2835884006297587  0.0646412605622558
  0.8549715167392121  0.0530204929697852  0.0564189447238414
  0.9553783638367480  0.1090974473363782  0.0536568115254641
  0.9561214501062024  0.2206358657498436  0.0528524311320833
  0.8567500151478284  0.2767919177844052  0.0559570883335413
  0.0564109393510418  0.3871029838250999  0.0473405936102701
  0.1554837838119702  0.4434468218323080  0.0457428410664969
  0.1551701520264357  0.5543309977205951  0.0450220343258592
  0.0568739390949092  0.6105126141175736  0.0451892564515465
  0.2551802530805274  0.3887519718650488  0.0478315610783786
  0.3537579926966696  0.4457641602132521  0.0504846753292341
  0.3520713918159613  0.5579292493861813  0.0515478782187679
  0.2535919680751032  0.6116147847461829  0.0475893132052026
  0.7605574871639499  0.4467122145872984  0.0604156559562979
  0.8583041451221004  0.3882351570211774  0.0540852998265693
  0.9576662361641677  0.4429226279313986  0.0488582329352232
  0.9581071806912643  0.5541863889070696  0.0475160042179554
  0.8596022671040308  0.6081824414331759  0.0519734439966838
  0.0567947634107704  0.7213864572465162  0.0464788675198057
  0.1552899382640179  0.7783263998824278  0.0479790382885299
  0.1561290889456474  0.8890336059637322  0.0502481642689911
  0.0559046176123186  0.9440017250836388  0.0508986503835972
  0.2537011458085495  0.7224677551414779  0.0493163048794282
  0.3527107983520098  0.7768158505921835  0.0544934726698482
  0.3554596947885878  0.8882558240066761  0.0561287078719148
  0.2564391623581185  0.9444254089383850  0.0531007667382266
  0.4493918659310682  0.7180587641928132  0.0605864118511439
  0.5531617160236036  0.8801214981794575  0.0645299176092494
  0.4564790730442386  0.9421067262182957  0.0604452366843546
  0.7570173357859256  0.8800747017299033  0.0589019459645594
  0.6549750335494641  0.9354009630013017  0.0628464634499039
  0.8594211026475715  0.7204306666213985  0.0517661044144376
  0.9577418791269858  0.7763929440813235  0.0491058635134568
  0.9564323513865939  0.8876920258104661  0.0514758383435458
  0.8553049341212087  0.9409205682650948  0.0554597851480980
  0.4534879484288191  0.3933503263458677  0.0560633671774205
  0.4486826296311623  0.6099581985575727  0.0592833970976053
  0.6641205934337341  0.3943111888101520  0.0683533530210975
  0.7624451962554285  0.5553976430445506  0.0595237883726485
  0.5463808731221572  0.7703634086176088  0.0680136955971486
  0.7620646793384749  0.7719873126902116  0.0573528457526498
  0.6533042885211613  0.6645446831268298  0.0714215852864917
  0.5563472623036717  0.4966165025172676  0.0740959236946917
  0.6077445353811809  0.5820439107711064  0.1276999126486307
 
  0.00000000E+00  0.00000000E+00  0.00000000E+00
  0.00000000E+00  0.00000000E+00  0.00000000E+00
  0.00000000E+00  0.00000000E+00  0.00000000E+00
  0.00000000E+00  0.00000000E+00  0.00000000E+00
  0.00000000E+00  0.00000000E+00  0.00000000E+00
  0.00000000E+00  0.00000000E+00  0.00000000E+00
  0.00000000E+00  0.00000000E+00  0.00000000E+00
  0.00000000E+00  0.00000000E+00  0.00000000E+00
  0.00000000E+00  0.00000000E+00  0.00000000E+00
  0.00000000E+00  0.00000000E+00  0.00000000E+00
  0.00000000E+00  0.00000000E+00  0.00000000E+00
  0.00000000E+00  0.00000000E+00  0.00000000E+00
  0.00000000E+00  0.00000000E+00  0.00000000E+00
  0.00000000E+00  0.00000000E+00  0.00000000E+00
  0.00000000E+00  0.00000000E+00  0.00000000E+00
  0.00000000E+00  0.00000000E+00  0.00000000E+00
  0.00000000E+00  0.00000000E+00  0.00000000E+00
  0.00000000E+00  0.00000000E+00  0.00000000E+00
  0.00000000E+00  0.00000000E+00  0.00000000E+00
  0.00000000E+00  0.00000000E+00  0.00000000E+00
  0.00000000E+00  0.00000000E+00  0.00000000E+00
  0.00000000E+00  0.00000000E+00  0.00000000E+00
  0.00000000E+00  0.00000000E+00  0.00000000E+00
  0.00000000E+00  0.00000000E+00  0.00000000E+00
  0.00000000E+00  0.00000000E+00  0.00000000E+00
  0.00000000E+00  0.00000000E+00  0.00000000E+00
  0.00000000E+00  0.00000000E+00  0.00000000E+00
  0.00000000E+00  0.00000000E+00  0.00000000E+00
  0.00000000E+00  0.00000000E+00  0.00000000E+00
  0.00000000E+00  0.00000000E+00  0.00000000E+00
  0.00000000E+00  0.00000000E+00  0.00000000E+00
  0.00000000E+00  0.00000000E+00  0.00000000E+00
  0.00000000E+00  0.00000000E+00  0.00000000E+00
  0.00000000E+00  0.00000000E+00  0.00000000E+00
  0.00000000E+00  0.00000000E+00  0.00000000E+00
  0.00000000E+00  0.00000000E+00  0.00000000E+00
  0.00000000E+00  0.00000000E+00  0.00000000E+00
  0.00000000E+00  0.00000000E+00  0.00000000E+00
  0.00000000E+00  0.00000000E+00  0.00000000E+00
  0.00000000E+00  0.00000000E+00  0.00000000E+00
  0.00000000E+00  0.00000000E+00  0.00000000E+00
  0.00000000E+00  0.00000000E+00  0.00000000E+00
  0.00000000E+00  0.00000000E+00  0.00000000E+00
  0.00000000E+00  0.00000000E+00  0.00000000E+00
  0.00000000E+00  0.00000000E+00  0.00000000E+00
  0.00000000E+00  0.00000000E+00  0.00000000E+00
  0.00000000E+00  0.00000000E+00  0.00000000E+00
  0.00000000E+00  0.00000000E+00  0.00000000E+00
  0.00000000E+00  0.00000000E+00  0.00000000E+00
  0.00000000E+00  0.00000000E+00  0.00000000E+00
  0.00000000E+00  0.00000000E+00  0.00000000E+00
  0.00000000E+00  0.00000000E+00  0.00000000E+00
  0.00000000E+00  0.00000000E+00  0.00000000E+00
  0.00000000E+00  0.00000000E+00  0.00000000E+00
  0.00000000E+00  0.00000000E+00  0.00000000E+00
  0.00000000E+00  0.00000000E+00  0.00000000E+00
  0.00000000E+00  0.00000000E+00  0.00000000E+00
  0.00000000E+00  0.00000000E+00  0.00000000E+00
  0.00000000E+00  0.00000000E+00  0.00000000E+00
