CONTCAR\(2)                             
   1.00000000000000     
    12.3312997818000003    0.0000000000000000    0.0000000000000000
     0.0001127485000000   12.8291997905000006    0.0000000000000000
     0.0005937186000000    0.0011528207000000   19.9943999824000009
   C    N    Fe   Ni   O    H 
    53     3     1     1     1     1
Direct
  0.0558389539535779  0.0553126159284394  0.0504649429996477
  0.1564226396599112  0.1107968319413506  0.0504028791305450
  0.1567101674720602  0.2218260578013453  0.0492247285436546
  0.0566031592833606  0.2766744457369021  0.0485817229955542
  0.2570013903467304  0.0562349176144228  0.0521399942045908
  0.3573013012950073  0.1126806896993100  0.0544226677835683
  0.3575799613509590  0.2247520237106521  0.0533896212816598
  0.2564904195158041  0.2783171055791619  0.0498124183830480
  0.4571460569100875  0.0569205245380719  0.0581020757919371
  0.5571430226691572  0.1144585673104693  0.0602652016770430
  0.5580096615568010  0.2275766285788315  0.0605316145002478
  0.4573500402446857  0.2835577912892123  0.0568280857318391
  0.6555367317083147  0.0549206724321868  0.0601886194666006
  0.7553475195491145  0.1113553245999313  0.0571362998212424
  0.7564850593269639  0.2237694352023281  0.0572055849815777
  0.6592663715291973  0.2844207013149905  0.0613391533315871
  0.8550074629235118  0.0550680162856899  0.0539463826672176
  0.9556418292315787  0.1102736836815357  0.0516087585530223
  0.9565132355901118  0.2213159501529616  0.0508764476720967
  0.8571712711828556  0.2772779193726102  0.0531445967244675
  0.0565684902710362  0.3876840859037854  0.0469641621311493
  0.1551057749002217  0.4442140669690559  0.0465820754057612
  0.1544610356360611  0.5556965823301310  0.0463359123153966
  0.0558119835406396  0.6112106090063467  0.0461098126599626
  0.2545382201056300  0.3893369991599279  0.0484742870786263
  0.3530149174119320  0.4462553229819092  0.0514970555241552
  0.3517424731152592  0.5583415863914326  0.0534465802462503
  0.2529611606234294  0.6127449332002370  0.0490363561199525
  0.7602088476094694  0.4459044653974662  0.0555767484122535
  0.8583770029259177  0.3882152084818801  0.0512330298229889
  0.9574341490986892  0.4432278778681386  0.0474927177641745
  0.9569970740470169  0.5540636321372971  0.0468345333158936
  0.8570608953858166  0.6065566689499362  0.0487543108146022
  0.0554729535051137  0.7224181270065743  0.0470532886432791
  0.1545955840265566  0.7788194161081644  0.0484780771240561
  0.1555595976487053  0.8897490761614150  0.0498050821644501
  0.0552711301481462  0.9442892028331114  0.0498826390065675
  0.2537488784907805  0.7233220649999890  0.0503079456111646
  0.3541986367366767  0.7767782738914015  0.0548803536764544
  0.3560946431230467  0.8887113766340266  0.0553916575053331
  0.2563892309750525  0.9447585467952015  0.0521524759303203
  0.4517015696887310  0.7170485680390724  0.0615318050313587
  0.5544574344308061  0.8847862027664410  0.0639901398101076
  0.4562831000128049  0.9441751077370053  0.0593129580631300
  0.7548214627091506  0.8857316459770989  0.0575510355334830
  0.6548302243202975  0.9424928644729422  0.0616477697563924
  0.8556585445067509  0.7199310197779702  0.0500375156147559
  0.9553315624076012  0.7767440488097168  0.0485487175994916
  0.9549326697687736  0.8881851569206830  0.0502964798322725
  0.8545076394850064  0.9431521617231180  0.0534097313961327
  0.4528203102462437  0.3946638880396479  0.0563252056084301
  0.5517758746963718  0.7730085388254486  0.0687716359864849
  0.7564200146190362  0.7742751907874378  0.0569454919832725
  0.4480094345295451  0.6078300727865084  0.0618922271600512
  0.6636879543640135  0.3932040850170792  0.0639477561540061
  0.7606538823989618  0.5532121469257124  0.0521922355815402
  0.6577747248524153  0.6719116735301460  0.0858022843548184
  0.5552149090305845  0.4930773277484354  0.0784748993291971
  0.6192909194001041  0.5767367983376875  0.1544963227893004
  0.5597688689077861  0.6025054267999916  0.1819948929018223
 
  0.00000000E+00  0.00000000E+00  0.00000000E+00
  0.00000000E+00  0.00000000E+00  0.00000000E+00
  0.00000000E+00  0.00000000E+00  0.00000000E+00
  0.00000000E+00  0.00000000E+00  0.00000000E+00
  0.00000000E+00  0.00000000E+00  0.00000000E+00
  0.00000000E+00  0.00000000E+00  0.00000000E+00
  0.00000000E+00  0.00000000E+00  0.00000000E+00
  0.00000000E+00  0.00000000E+00  0.00000000E+00
  0.00000000E+00  0.00000000E+00  0.00000000E+00
  0.00000000E+00  0.00000000E+00  0.00000000E+00
  0.00000000E+00  0.00000000E+00  0.00000000E+00
  0.00000000E+00  0.00000000E+00  0.00000000E+00
  0.00000000E+00  0.00000000E+00  0.00000000E+00
  0.00000000E+00  0.00000000E+00  0.00000000E+00
  0.00000000E+00  0.00000000E+00  0.00000000E+00
  0.00000000E+00  0.00000000E+00  0.00000000E+00
  0.00000000E+00  0.00000000E+00  0.00000000E+00
  0.00000000E+00  0.00000000E+00  0.00000000E+00
  0.00000000E+00  0.00000000E+00  0.00000000E+00
  0.00000000E+00  0.00000000E+00  0.00000000E+00
  0.00000000E+00  0.00000000E+00  0.00000000E+00
  0.00000000E+00  0.00000000E+00  0.00000000E+00
  0.00000000E+00  0.00000000E+00  0.00000000E+00
  0.00000000E+00  0.00000000E+00  0.00000000E+00
  0.00000000E+00  0.00000000E+00  0.00000000E+00
  0.00000000E+00  0.00000000E+00  0.00000000E+00
  0.00000000E+00  0.00000000E+00  0.00000000E+00
  0.00000000E+00  0.00000000E+00  0.00000000E+00
  0.00000000E+00  0.00000000E+00  0.00000000E+00
  0.00000000E+00  0.00000000E+00  0.00000000E+00
  0.00000000E+00  0.00000000E+00  0.00000000E+00
  0.00000000E+00  0.00000000E+00  0.00000000E+00
  0.00000000E+00  0.00000000E+00  0.00000000E+00
  0.00000000E+00  0.00000000E+00  0.00000000E+00
  0.00000000E+00  0.00000000E+00  0.00000000E+00
  0.00000000E+00  0.00000000E+00  0.00000000E+00
  0.00000000E+00  0.00000000E+00  0.00000000E+00
  0.00000000E+00  0.00000000E+00  0.00000000E+00
  0.00000000E+00  0.00000000E+00  0.00000000E+00
  0.00000000E+00  0.00000000E+00  0.00000000E+00
  0.00000000E+00  0.00000000E+00  0.00000000E+00
  0.00000000E+00  0.00000000E+00  0.00000000E+00
  0.00000000E+00  0.00000000E+00  0.00000000E+00
  0.00000000E+00  0.00000000E+00  0.00000000E+00
  0.00000000E+00  0.00000000E+00  0.00000000E+00
  0.00000000E+00  0.00000000E+00  0.00000000E+00
  0.00000000E+00  0.00000000E+00  0.00000000E+00
  0.00000000E+00  0.00000000E+00  0.00000000E+00
  0.00000000E+00  0.00000000E+00  0.00000000E+00
  0.00000000E+00  0.00000000E+00  0.00000000E+00
  0.00000000E+00  0.00000000E+00  0.00000000E+00
  0.00000000E+00  0.00000000E+00  0.00000000E+00
  0.00000000E+00  0.00000000E+00  0.00000000E+00
  0.00000000E+00  0.00000000E+00  0.00000000E+00
  0.00000000E+00  0.00000000E+00  0.00000000E+00
  0.00000000E+00  0.00000000E+00  0.00000000E+00
  0.00000000E+00  0.00000000E+00  0.00000000E+00
  0.00000000E+00  0.00000000E+00  0.00000000E+00
  0.00000000E+00  0.00000000E+00  0.00000000E+00
  0.00000000E+00  0.00000000E+00  0.00000000E+00
