CONTCAR                                 
   1.00000000000000     
    12.3312997818000003    0.0000000000000000    0.0000000000000000
     0.0001127485000000   12.8291997905000006    0.0000000000000000
     0.0005937186000000    0.0011528207000000   19.9943999824000009
   C    N    Fe   Ni   H 
    52     4     1     1     1
Direct
  0.0557798606873977  0.0552007987132345  0.0508915832774010
  0.1563424359355459  0.1101870087269118  0.0507762272927514
  0.1561773414227280  0.2209401225655161  0.0491125417479479
  0.0560471846451729  0.2762876986511827  0.0479008329615686
  0.2568636077050098  0.0553331900494770  0.0531495203912085
  0.3572301681606213  0.1110484171602904  0.0567272177498398
  0.3566893157199774  0.2231058525717756  0.0557808310440872
  0.2559047756039860  0.2765856879093244  0.0503696163155138
  0.4569754640570483  0.0548839875154529  0.0613149370598804
  0.5563817516584744  0.1131042898690420  0.0646178571999206
  0.5564130847295610  0.2267268326576177  0.0655636904828222
  0.4551406534007811  0.2828006924986365  0.0607744504208292
  0.6559077359189803  0.0527912832702214  0.0645088765977579
  0.7550898503167824  0.1111247386349054  0.0610407168776575
  0.7555380682267621  0.2240467123182355  0.0613678261671042
  0.6573669436318514  0.2852468981996384  0.0672780368281527
  0.8547345126302686  0.0544457495887502  0.0566662421773929
  0.9552530503244863  0.1100625207119900  0.0528923751858559
  0.9557153071809557  0.2214842558895381  0.0516217528613244
  0.8562134676808780  0.2782101901496981  0.0553247414125711
  0.0571911948488523  0.3873129685442422  0.0450110802552839
  0.1560068848574535  0.4434384106271997  0.0438649517958387
  0.1558505248838257  0.5543304301427958  0.0427368587210979
  0.0575600330050416  0.6109762199803899  0.0423922969918640
  0.2552968896141999  0.3876830020072592  0.0478665143619240
  0.3538749407571731  0.4423993880652038  0.0529212866156045
  0.3527012579672339  0.5554389693177464  0.0539309039610372
  0.2541010946609671  0.6103747723765619  0.0469789250111809
  0.7628302143100393  0.4495230496962923  0.0619453092328593
  0.8591235781142276  0.3896808798095844  0.0532921625022977
  0.9585419970125377  0.4437076368723252  0.0466666711602295
  0.9593836870780813  0.5548575281858066  0.0452384220294169
  0.8610366669443381  0.6098594722777836  0.0516852109775812
  0.0567662727880302  0.7218720713884524  0.0442750048034498
  0.1553288554840611  0.7779928871026799  0.0462832722411869
  0.1562119314770328  0.8889647313930474  0.0489621059445647
  0.0559896259961079  0.9443704721510999  0.0497419014156463
  0.2540299422198951  0.7215324630965086  0.0486837874067666
  0.3529708188191196  0.7757966984219938  0.0554870609506751
  0.3559155904553361  0.8874723641786063  0.0566500721806776
  0.2564784621418421  0.9439300083969510  0.0525486492683255
  0.4493136733622619  0.7161860044360843  0.0643667702301101
  0.5544098908005597  0.8816949740642953  0.0677399450445762
  0.4564207362250433  0.9423168288250475  0.0621072394060251
  0.7568485902005866  0.8823155911768200  0.0607734738438362
  0.6558907875399639  0.9390236283318201  0.0654766465600563
  0.8590721106916319  0.7226118575932511  0.0520857499938602
  0.9573545342599475  0.7776797337228254  0.0480641180463677
  0.9563673400796464  0.8887644545350886  0.0508493674609619
  0.8552030159216710  0.9421028400213397  0.0559848455287046
  0.6625791151046205  0.3969818015185323  0.0720203350317280
  0.5492159392371792  0.7704401091925912  0.0727184946552699
  0.4508902039860793  0.3910901959166648  0.0601137105393163
  0.4470094773391868  0.6074436571536689  0.0644881411698183
  0.7666208367109433  0.5579215587137853  0.0611380982092661
  0.7611449494916668  0.7730306476541107  0.0595399197629737
  0.6538417949352786  0.6637099606236309  0.0756993879903109
  0.5541718357080611  0.4968371968027501  0.0783346172604170
  0.6122400303330167  0.5714077060337096  0.1297468153872825
 
  0.00000000E+00  0.00000000E+00  0.00000000E+00
  0.00000000E+00  0.00000000E+00  0.00000000E+00
  0.00000000E+00  0.00000000E+00  0.00000000E+00
  0.00000000E+00  0.00000000E+00  0.00000000E+00
  0.00000000E+00  0.00000000E+00  0.00000000E+00
  0.00000000E+00  0.00000000E+00  0.00000000E+00
  0.00000000E+00  0.00000000E+00  0.00000000E+00
  0.00000000E+00  0.00000000E+00  0.00000000E+00
  0.00000000E+00  0.00000000E+00  0.00000000E+00
  0.00000000E+00  0.00000000E+00  0.00000000E+00
  0.00000000E+00  0.00000000E+00  0.00000000E+00
  0.00000000E+00  0.00000000E+00  0.00000000E+00
  0.00000000E+00  0.00000000E+00  0.00000000E+00
  0.00000000E+00  0.00000000E+00  0.00000000E+00
  0.00000000E+00  0.00000000E+00  0.00000000E+00
  0.00000000E+00  0.00000000E+00  0.00000000E+00
  0.00000000E+00  0.00000000E+00  0.00000000E+00
  0.00000000E+00  0.00000000E+00  0.00000000E+00
  0.00000000E+00  0.00000000E+00  0.00000000E+00
  0.00000000E+00  0.00000000E+00  0.00000000E+00
  0.00000000E+00  0.00000000E+00  0.00000000E+00
  0.00000000E+00  0.00000000E+00  0.00000000E+00
  0.00000000E+00  0.00000000E+00  0.00000000E+00
  0.00000000E+00  0.00000000E+00  0.00000000E+00
  0.00000000E+00  0.00000000E+00  0.00000000E+00
  0.00000000E+00  0.00000000E+00  0.00000000E+00
  0.00000000E+00  0.00000000E+00  0.00000000E+00
  0.00000000E+00  0.00000000E+00  0.00000000E+00
  0.00000000E+00  0.00000000E+00  0.00000000E+00
  0.00000000E+00  0.00000000E+00  0.00000000E+00
  0.00000000E+00  0.00000000E+00  0.00000000E+00
  0.00000000E+00  0.00000000E+00  0.00000000E+00
  0.00000000E+00  0.00000000E+00  0.00000000E+00
  0.00000000E+00  0.00000000E+00  0.00000000E+00
  0.00000000E+00  0.00000000E+00  0.00000000E+00
  0.00000000E+00  0.00000000E+00  0.00000000E+00
  0.00000000E+00  0.00000000E+00  0.00000000E+00
  0.00000000E+00  0.00000000E+00  0.00000000E+00
  0.00000000E+00  0.00000000E+00  0.00000000E+00
  0.00000000E+00  0.00000000E+00  0.00000000E+00
  0.00000000E+00  0.00000000E+00  0.00000000E+00
  0.00000000E+00  0.00000000E+00  0.00000000E+00
  0.00000000E+00  0.00000000E+00  0.00000000E+00
  0.00000000E+00  0.00000000E+00  0.00000000E+00
  0.00000000E+00  0.00000000E+00  0.00000000E+00
  0.00000000E+00  0.00000000E+00  0.00000000E+00
  0.00000000E+00  0.00000000E+00  0.00000000E+00
  0.00000000E+00  0.00000000E+00  0.00000000E+00
  0.00000000E+00  0.00000000E+00  0.00000000E+00
  0.00000000E+00  0.00000000E+00  0.00000000E+00
  0.00000000E+00  0.00000000E+00  0.00000000E+00
  0.00000000E+00  0.00000000E+00  0.00000000E+00
  0.00000000E+00  0.00000000E+00  0.00000000E+00
  0.00000000E+00  0.00000000E+00  0.00000000E+00
  0.00000000E+00  0.00000000E+00  0.00000000E+00
  0.00000000E+00  0.00000000E+00  0.00000000E+00
  0.00000000E+00  0.00000000E+00  0.00000000E+00
  0.00000000E+00  0.00000000E+00  0.00000000E+00
  0.00000000E+00  0.00000000E+00  0.00000000E+00
