POSCAR\(2)                              
   1.00000000000000     
    12.3312997818000003    0.0000000000000000    0.0000000000000000
     0.0001127485000000   12.8291997905000006    0.0000000000000000
     0.0005937186000000    0.0011528207000000   19.9943999824000009
   C    N    Fe   Ni
    55     1     1     1
Direct
  0.0566061553989792  0.0538497413819779  0.0557791186911149
  0.1565527556646717  0.1101384680285264  0.0558011874010998
  0.1573403092799258  0.2211425466668626  0.0557832000289245
  0.0576098360027086  0.2759474594190456  0.0557504352197381
  0.2568034033524391  0.0558492949423597  0.0558052488491177
  0.3568518348874823  0.1129126633751533  0.0557567348207579
  0.3578889768957669  0.2246801129798658  0.0557263342854810
  0.2570025001642780  0.2778040128237598  0.0557678013852770
  0.4561616835306822  0.0572146318795746  0.0557309795147041
  0.5568570264609224  0.1134707930106914  0.0556972857478061
  0.5577555532978390  0.2246549302463789  0.0556685523387908
  0.4582944374097915  0.2831810770333275  0.0556740073078175
  0.6563002852266194  0.0548875757467602  0.0557015419138400
  0.7569562284369370  0.1094850172267524  0.0557053026498058
  0.7586835622651422  0.2203051388475464  0.0556803054793482
  0.6601535618484595  0.2786725547187195  0.0556538936152913
  0.8562910717393875  0.0532376111454490  0.0557181391662813
  0.9568395334147463  0.1085862969985834  0.0557386531587226
  0.9583110175066266  0.2193183356066728  0.0557192732754379
  0.8590415084994957  0.2744071143185284  0.0556812931889524
  0.0574976415350428  0.3873015367142060  0.0557483167782018
  0.1558622681106704  0.4437368815974240  0.0557753963485034
  0.1551225400493209  0.5551716043418821  0.0557852029754851
  0.0547993230450964  0.6097072986346650  0.0557620368463679
  0.2556301424475084  0.3885802720063848  0.0557697827031813
  0.3541421370389505  0.4449428806662589  0.0557261206154004
  0.3555738049376567  0.5572617238148125  0.0557279832431023
  0.2550295270216393  0.6116596294838054  0.0557823044397968
  0.7608522266809228  0.4386770890614712  0.0556317526248941
  0.8602751712794663  0.3847655561365506  0.0556652985053616
  0.9578434568375780  0.4422649878716377  0.0557036184345785
  0.9549738717972847  0.5530629148329721  0.0557101392281273
  0.8526433803100369  0.6058959022151301  0.0556712124898021
  0.0548425172840901  0.7211399275963676  0.0557794843397881
  0.1542134166297296  0.7772709460541835  0.0558152556635690
  0.1553151213190555  0.8883744597329547  0.0558223306050344
  0.0553318605230878  0.9429010900461843  0.0557903653982840
  0.2542109683246864  0.7223103398377019  0.0558013721090388
  0.3537290842334969  0.7774117016038453  0.0557711499372918
  0.3552794116904180  0.8890292861586155  0.0557926420148643
  0.2555969999792059  0.9445223501644691  0.0558259163793706
  0.4538017853391535  0.7202692042121072  0.0556850336211647
  0.5541165785487936  0.8893965242017601  0.0556845898298818
  0.4547640904967061  0.9460433503614694  0.0557418850014192
  0.7544416300559594  0.8856594258457784  0.0556598539240602
  0.6554884920907357  0.9442344446332407  0.0556787055929752
  0.8544052615084673  0.7198197514974575  0.0556789628055239
  0.9545498668065279  0.7757477809816974  0.0557390580683973
  0.9550722127612783  0.8869406185628897  0.0557483141890428
  0.8550022635004321  0.9418464303109860  0.0557081833908684
  0.4545564012199410  0.3943872482830967  0.0556589713870904
  0.7527688005444517  0.5490513528618572  0.0556254069747332
  0.5505475010586373  0.7810823039509942  0.0556295266091568
  0.7549465938524839  0.7745078139075179  0.0556293611514225
  0.4577659203855138  0.6074583900998058  0.0556608755500118
  0.6649927190522320  0.3838632270459861  0.0556208101147180
  0.6440314891292364  0.6705429727740936  0.0555477360208449
  0.5690522152915997  0.4920153645012013  0.0556257590502862
 
  0.00000000E+00  0.00000000E+00  0.00000000E+00
  0.00000000E+00  0.00000000E+00  0.00000000E+00
  0.00000000E+00  0.00000000E+00  0.00000000E+00
  0.00000000E+00  0.00000000E+00  0.00000000E+00
  0.00000000E+00  0.00000000E+00  0.00000000E+00
  0.00000000E+00  0.00000000E+00  0.00000000E+00
  0.00000000E+00  0.00000000E+00  0.00000000E+00
  0.00000000E+00  0.00000000E+00  0.00000000E+00
  0.00000000E+00  0.00000000E+00  0.00000000E+00
  0.00000000E+00  0.00000000E+00  0.00000000E+00
  0.00000000E+00  0.00000000E+00  0.00000000E+00
  0.00000000E+00  0.00000000E+00  0.00000000E+00
  0.00000000E+00  0.00000000E+00  0.00000000E+00
  0.00000000E+00  0.00000000E+00  0.00000000E+00
  0.00000000E+00  0.00000000E+00  0.00000000E+00
  0.00000000E+00  0.00000000E+00  0.00000000E+00
  0.00000000E+00  0.00000000E+00  0.00000000E+00
  0.00000000E+00  0.00000000E+00  0.00000000E+00
  0.00000000E+00  0.00000000E+00  0.00000000E+00
  0.00000000E+00  0.00000000E+00  0.00000000E+00
  0.00000000E+00  0.00000000E+00  0.00000000E+00
  0.00000000E+00  0.00000000E+00  0.00000000E+00
  0.00000000E+00  0.00000000E+00  0.00000000E+00
  0.00000000E+00  0.00000000E+00  0.00000000E+00
  0.00000000E+00  0.00000000E+00  0.00000000E+00
  0.00000000E+00  0.00000000E+00  0.00000000E+00
  0.00000000E+00  0.00000000E+00  0.00000000E+00
  0.00000000E+00  0.00000000E+00  0.00000000E+00
  0.00000000E+00  0.00000000E+00  0.00000000E+00
  0.00000000E+00  0.00000000E+00  0.00000000E+00
  0.00000000E+00  0.00000000E+00  0.00000000E+00
  0.00000000E+00  0.00000000E+00  0.00000000E+00
  0.00000000E+00  0.00000000E+00  0.00000000E+00
  0.00000000E+00  0.00000000E+00  0.00000000E+00
  0.00000000E+00  0.00000000E+00  0.00000000E+00
  0.00000000E+00  0.00000000E+00  0.00000000E+00
  0.00000000E+00  0.00000000E+00  0.00000000E+00
  0.00000000E+00  0.00000000E+00  0.00000000E+00
  0.00000000E+00  0.00000000E+00  0.00000000E+00
  0.00000000E+00  0.00000000E+00  0.00000000E+00
  0.00000000E+00  0.00000000E+00  0.00000000E+00
  0.00000000E+00  0.00000000E+00  0.00000000E+00
  0.00000000E+00  0.00000000E+00  0.00000000E+00
  0.00000000E+00  0.00000000E+00  0.00000000E+00
  0.00000000E+00  0.00000000E+00  0.00000000E+00
  0.00000000E+00  0.00000000E+00  0.00000000E+00
  0.00000000E+00  0.00000000E+00  0.00000000E+00
  0.00000000E+00  0.00000000E+00  0.00000000E+00
  0.00000000E+00  0.00000000E+00  0.00000000E+00
  0.00000000E+00  0.00000000E+00  0.00000000E+00
  0.00000000E+00  0.00000000E+00  0.00000000E+00
  0.00000000E+00  0.00000000E+00  0.00000000E+00
  0.00000000E+00  0.00000000E+00  0.00000000E+00
  0.00000000E+00  0.00000000E+00  0.00000000E+00
  0.00000000E+00  0.00000000E+00  0.00000000E+00
  0.00000000E+00  0.00000000E+00  0.00000000E+00
  0.00000000E+00  0.00000000E+00  0.00000000E+00
  0.00000000E+00  0.00000000E+00  0.00000000E+00
