CONTCAR\(4)                             
   1.00000000000000     
    12.3312997818000003    0.0000000000000000    0.0000000000000000
     0.0001127485000000   12.8291997905000006    0.0000000000000000
     0.0005937186000000    0.0011528207000000   19.9943999824000009
   C    N    Fe   Ni   H 
    54     2     1     1     2
Direct
  0.0549570806549241  0.0530672572061940  0.0524344986813181
  0.1552505549798519  0.1085170884232162  0.0522552625590582
  0.1556493790878408  0.2193081278967624  0.0515191955762805
  0.0560844489907159  0.2746684408540624  0.0508612078151120
  0.2557523676247915  0.0543440258517135  0.0531158770087048
  0.3560079005716375  0.1105027825494795  0.0554512465750156
  0.3560667421103152  0.2221827870578854  0.0553858747890765
  0.2552823017076516  0.2752729070129070  0.0521384633369853
  0.4558055299958066  0.0553193790520867  0.0578407520335362
  0.5554279815400114  0.1128897561494813  0.0605972289804540
  0.5559755006199784  0.2255911564650883  0.0617676128771472
  0.4548091089004946  0.2813489627052388  0.0584632251025307
  0.6551009439096614  0.0538572985569231  0.0608687110550436
  0.7552027524166678  0.1099015769162156  0.0587897888076874
  0.7560454744727533  0.2221040071167644  0.0588163622272476
  0.6576715436268157  0.2822900696350237  0.0633633912057578
  0.8542222742280630  0.0523604335167334  0.0563374100726878
  0.9547371305615759  0.1081011598770562  0.0538335341149446
  0.9557662493905638  0.2195548783452932  0.0529016447656234
  0.8565338730441985  0.2763105890405531  0.0547631483492997
  0.0578077347307958  0.3858316193600415  0.0493159214364841
  0.1562632514922212  0.4423195312188137  0.0484662181738175
  0.1565056046457152  0.5535961260414249  0.0475563042603140
  0.0571999863778633  0.6092728309282854  0.0479804964492421
  0.2553527031118999  0.3860369373270664  0.0502529720115845
  0.3542062596213069  0.4407143450520642  0.0522469997967422
  0.3559201299060175  0.5537901644356774  0.0511799841688596
  0.2557262755317632  0.6092845228603054  0.0483134641545516
  0.7626730746820650  0.4468005750072305  0.0586039379725570
  0.8595926779583989  0.3876892806282666  0.0530866297492560
  0.9590944538976102  0.4417625058703307  0.0499081463866371
  0.9591693729689548  0.5522734938320868  0.0495733679121671
  0.8592868900042607  0.6063408867719878  0.0528485154282718
  0.0557245642903088  0.7204702387049564  0.0486878648053753
  0.1547303905527654  0.7762132794263260  0.0487435639652743
  0.1549427748134838  0.8873991517376468  0.0502713952570878
  0.0544903261771635  0.9420402793941072  0.0516462874805332
  0.2545288938967180  0.7204966107308775  0.0486295824914223
  0.3533178555973323  0.7764154554772670  0.0512396669969180
  0.3548827794260968  0.8878167875428592  0.0531655232077870
  0.2551308601838292  0.9432288157793840  0.0518439214076270
  0.4521016001600353  0.7193533119254529  0.0561156845009761
  0.5542116510888901  0.8858886673898909  0.0615393552899573
  0.4551171962858073  0.9434083816034111  0.0573715598539271
  0.7535291166856823  0.8816254617189418  0.0597867018450204
  0.6549019855602738  0.9415887971999446  0.0616221594369199
  0.8562362620573977  0.7185854561299978  0.0537098292354575
  0.9552103089527714  0.7750497311899178  0.0511510620977104
  0.9544455814671146  0.8861084111498174  0.0528993198669416
  0.8533278392034498  0.9398197173504994  0.0564372144086932
  0.6631733597882467  0.3928329133621456  0.0678430081632913
  0.5512815108770378  0.7757122607637259  0.0632982586761078
  0.7536861761527855  0.7679365414009109  0.0591788602334770
  0.4552043093713011  0.6074832227072979  0.0569059822076126
  0.4511432419752225  0.3895271489789972  0.0571631634500832
  0.7641458288927722  0.5552231621584856  0.0576524934316460
  0.6409911715533319  0.6627679524496103  0.0700752739745900
  0.5576322477264681  0.4931632351008397  0.0734794971427020
  0.6595963236862877  0.6896199009454119  0.1405266421893745
  0.6118683982142111  0.5715194421190152  0.1257787265494744
 
  0.00000000E+00  0.00000000E+00  0.00000000E+00
  0.00000000E+00  0.00000000E+00  0.00000000E+00
  0.00000000E+00  0.00000000E+00  0.00000000E+00
  0.00000000E+00  0.00000000E+00  0.00000000E+00
  0.00000000E+00  0.00000000E+00  0.00000000E+00
  0.00000000E+00  0.00000000E+00  0.00000000E+00
  0.00000000E+00  0.00000000E+00  0.00000000E+00
  0.00000000E+00  0.00000000E+00  0.00000000E+00
  0.00000000E+00  0.00000000E+00  0.00000000E+00
  0.00000000E+00  0.00000000E+00  0.00000000E+00
  0.00000000E+00  0.00000000E+00  0.00000000E+00
  0.00000000E+00  0.00000000E+00  0.00000000E+00
  0.00000000E+00  0.00000000E+00  0.00000000E+00
  0.00000000E+00  0.00000000E+00  0.00000000E+00
  0.00000000E+00  0.00000000E+00  0.00000000E+00
  0.00000000E+00  0.00000000E+00  0.00000000E+00
  0.00000000E+00  0.00000000E+00  0.00000000E+00
  0.00000000E+00  0.00000000E+00  0.00000000E+00
  0.00000000E+00  0.00000000E+00  0.00000000E+00
  0.00000000E+00  0.00000000E+00  0.00000000E+00
  0.00000000E+00  0.00000000E+00  0.00000000E+00
  0.00000000E+00  0.00000000E+00  0.00000000E+00
  0.00000000E+00  0.00000000E+00  0.00000000E+00
  0.00000000E+00  0.00000000E+00  0.00000000E+00
  0.00000000E+00  0.00000000E+00  0.00000000E+00
  0.00000000E+00  0.00000000E+00  0.00000000E+00
  0.00000000E+00  0.00000000E+00  0.00000000E+00
  0.00000000E+00  0.00000000E+00  0.00000000E+00
  0.00000000E+00  0.00000000E+00  0.00000000E+00
  0.00000000E+00  0.00000000E+00  0.00000000E+00
  0.00000000E+00  0.00000000E+00  0.00000000E+00
  0.00000000E+00  0.00000000E+00  0.00000000E+00
  0.00000000E+00  0.00000000E+00  0.00000000E+00
  0.00000000E+00  0.00000000E+00  0.00000000E+00
  0.00000000E+00  0.00000000E+00  0.00000000E+00
  0.00000000E+00  0.00000000E+00  0.00000000E+00
  0.00000000E+00  0.00000000E+00  0.00000000E+00
  0.00000000E+00  0.00000000E+00  0.00000000E+00
  0.00000000E+00  0.00000000E+00  0.00000000E+00
  0.00000000E+00  0.00000000E+00  0.00000000E+00
  0.00000000E+00  0.00000000E+00  0.00000000E+00
  0.00000000E+00  0.00000000E+00  0.00000000E+00
  0.00000000E+00  0.00000000E+00  0.00000000E+00
  0.00000000E+00  0.00000000E+00  0.00000000E+00
  0.00000000E+00  0.00000000E+00  0.00000000E+00
  0.00000000E+00  0.00000000E+00  0.00000000E+00
  0.00000000E+00  0.00000000E+00  0.00000000E+00
  0.00000000E+00  0.00000000E+00  0.00000000E+00
  0.00000000E+00  0.00000000E+00  0.00000000E+00
  0.00000000E+00  0.00000000E+00  0.00000000E+00
  0.00000000E+00  0.00000000E+00  0.00000000E+00
  0.00000000E+00  0.00000000E+00  0.00000000E+00
  0.00000000E+00  0.00000000E+00  0.00000000E+00
  0.00000000E+00  0.00000000E+00  0.00000000E+00
  0.00000000E+00  0.00000000E+00  0.00000000E+00
  0.00000000E+00  0.00000000E+00  0.00000000E+00
  0.00000000E+00  0.00000000E+00  0.00000000E+00
  0.00000000E+00  0.00000000E+00  0.00000000E+00
  0.00000000E+00  0.00000000E+00  0.00000000E+00
  0.00000000E+00  0.00000000E+00  0.00000000E+00
