CONTCAR\(9)                             
   1.00000000000000     
    12.3312997818000003    0.0000000000000000    0.0000000000000000
     0.0001127485000000   12.8291997905000006    0.0000000000000000
     0.0005937186000000    0.0011528207000000   19.9943999824000009
   C    N    Fe   Ni   H 
    53     3     1     1     1
Direct
  0.0562052126048474  0.0556035654581108  0.0503220389987403
  0.1565077107140713  0.1106870464189735  0.0500529169435009
  0.1561501227901341  0.2214564319206519  0.0486949180587049
  0.0559875335227785  0.2767375337904805  0.0477450021932436
  0.2568966872402897  0.0556140469239238  0.0520079314102682
  0.3571550858151349  0.1113181398605264  0.0558073542861470
  0.3565693580561640  0.2233553220268245  0.0551456630162206
  0.2559038481148386  0.2769840562906323  0.0498942962038198
  0.4566499838786127  0.0547797311016713  0.0604227523652821
  0.5560682054305273  0.1124050597734004  0.0644690664251901
  0.5559062810594533  0.2254691845924122  0.0655200206157917
  0.4551148952821865  0.2825915316595298  0.0601618487867551
  0.6559655777457735  0.0524895555982035  0.0651168228104756
  0.7553383293426481  0.1105798868502199  0.0617110355763426
  0.7557680911862965  0.2230225842129503  0.0622052651745743
  0.6567629684155516  0.2826910514910920  0.0682702204495801
  0.8551626574744998  0.0546488372499733  0.0569643858188460
  0.9555776698832410  0.1102500516304169  0.0527636543802582
  0.9558704990863693  0.2213956991043772  0.0516145849063521
  0.8563016791571216  0.2775280917853353  0.0557961585734063
  0.0566831754268580  0.3878775792309767  0.0450721728682283
  0.1558453360454063  0.4436178370902298  0.0436932686076744
  0.1557747609398705  0.5546404693981498  0.0422775012568596
  0.0571149877755408  0.6110287192796789  0.0422691970760539
  0.2553130926141698  0.3880004917146835  0.0473988986201153
  0.3544381914596499  0.4425293046518331  0.0516896120801984
  0.3536201898737231  0.5558818100038617  0.0518875382027286
  0.2542773516204525  0.6105277418195154  0.0454272345322073
  0.7614789168151066  0.4469300099031145  0.0644694300349991
  0.8585953084375345  0.3887976985795923  0.0541921140725813
  0.9574874259501254  0.4440903958380742  0.0471131072081299
  0.9582843339888042  0.5555121102158554  0.0458140508241110
  0.8600126723150034  0.6119070631420003  0.0528697946764574
  0.0568630415627874  0.7222171065682359  0.0434438645202934
  0.1555369527114870  0.7780900076648148  0.0447255503750992
  0.1564202597336803  0.8892220810562282  0.0474438661330241
  0.0565461663920555  0.9449646901731173  0.0488679253845478
  0.2542823670943354  0.7216372294858679  0.0465695789450907
  0.3533061602728824  0.7758740811177615  0.0528020590151298
  0.3560278235484049  0.8875421352275809  0.0545559725096899
  0.2565762348155051  0.9441695332353620  0.0508605727970141
  0.4499183416670462  0.7167123644227722  0.0616612373824162
  0.5542192565416648  0.8818856345160502  0.0672374773340762
  0.4562035736600739  0.9424544604935269  0.0606767900591460
  0.7576401561249198  0.8830938427944904  0.0626273272216856
  0.6559904903815882  0.9392056673935688  0.0664962432905809
  0.8598472495205363  0.7245765860415400  0.0533293233174822
  0.9579083070065435  0.7790304739996274  0.0475424026348433
  0.9568816406904570  0.8896686110405382  0.0505451010527776
  0.8558387037798050  0.9427248419733142  0.0565709704517471
  0.6620024893805109  0.3932111487437608  0.0737109958135554
  0.7629841157903818  0.5583439198455241  0.0650312094977612
  0.5486394066069183  0.7711000171191944  0.0725440187208087
  0.4514273690606089  0.3910262762142329  0.0588010773986230
  0.4479749387187031  0.6077488438414411  0.0612818441956496
  0.7628848733297029  0.7746151020975958  0.0630338871739842
  0.6557969265297270  0.6634955121305638  0.0861681389641467
  0.5559417020944936  0.4955045938468191  0.0768447578931001
  0.6090830539223837  0.5675966343492274  0.1337879498638623
 
  0.00000000E+00  0.00000000E+00  0.00000000E+00
  0.00000000E+00  0.00000000E+00  0.00000000E+00
  0.00000000E+00  0.00000000E+00  0.00000000E+00
  0.00000000E+00  0.00000000E+00  0.00000000E+00
  0.00000000E+00  0.00000000E+00  0.00000000E+00
  0.00000000E+00  0.00000000E+00  0.00000000E+00
  0.00000000E+00  0.00000000E+00  0.00000000E+00
  0.00000000E+00  0.00000000E+00  0.00000000E+00
  0.00000000E+00  0.00000000E+00  0.00000000E+00
  0.00000000E+00  0.00000000E+00  0.00000000E+00
  0.00000000E+00  0.00000000E+00  0.00000000E+00
  0.00000000E+00  0.00000000E+00  0.00000000E+00
  0.00000000E+00  0.00000000E+00  0.00000000E+00
  0.00000000E+00  0.00000000E+00  0.00000000E+00
  0.00000000E+00  0.00000000E+00  0.00000000E+00
  0.00000000E+00  0.00000000E+00  0.00000000E+00
  0.00000000E+00  0.00000000E+00  0.00000000E+00
  0.00000000E+00  0.00000000E+00  0.00000000E+00
  0.00000000E+00  0.00000000E+00  0.00000000E+00
  0.00000000E+00  0.00000000E+00  0.00000000E+00
  0.00000000E+00  0.00000000E+00  0.00000000E+00
  0.00000000E+00  0.00000000E+00  0.00000000E+00
  0.00000000E+00  0.00000000E+00  0.00000000E+00
  0.00000000E+00  0.00000000E+00  0.00000000E+00
  0.00000000E+00  0.00000000E+00  0.00000000E+00
  0.00000000E+00  0.00000000E+00  0.00000000E+00
  0.00000000E+00  0.00000000E+00  0.00000000E+00
  0.00000000E+00  0.00000000E+00  0.00000000E+00
  0.00000000E+00  0.00000000E+00  0.00000000E+00
  0.00000000E+00  0.00000000E+00  0.00000000E+00
  0.00000000E+00  0.00000000E+00  0.00000000E+00
  0.00000000E+00  0.00000000E+00  0.00000000E+00
  0.00000000E+00  0.00000000E+00  0.00000000E+00
  0.00000000E+00  0.00000000E+00  0.00000000E+00
  0.00000000E+00  0.00000000E+00  0.00000000E+00
  0.00000000E+00  0.00000000E+00  0.00000000E+00
  0.00000000E+00  0.00000000E+00  0.00000000E+00
  0.00000000E+00  0.00000000E+00  0.00000000E+00
  0.00000000E+00  0.00000000E+00  0.00000000E+00
  0.00000000E+00  0.00000000E+00  0.00000000E+00
  0.00000000E+00  0.00000000E+00  0.00000000E+00
  0.00000000E+00  0.00000000E+00  0.00000000E+00
  0.00000000E+00  0.00000000E+00  0.00000000E+00
  0.00000000E+00  0.00000000E+00  0.00000000E+00
  0.00000000E+00  0.00000000E+00  0.00000000E+00
  0.00000000E+00  0.00000000E+00  0.00000000E+00
  0.00000000E+00  0.00000000E+00  0.00000000E+00
  0.00000000E+00  0.00000000E+00  0.00000000E+00
  0.00000000E+00  0.00000000E+00  0.00000000E+00
  0.00000000E+00  0.00000000E+00  0.00000000E+00
  0.00000000E+00  0.00000000E+00  0.00000000E+00
  0.00000000E+00  0.00000000E+00  0.00000000E+00
  0.00000000E+00  0.00000000E+00  0.00000000E+00
  0.00000000E+00  0.00000000E+00  0.00000000E+00
  0.00000000E+00  0.00000000E+00  0.00000000E+00
  0.00000000E+00  0.00000000E+00  0.00000000E+00
  0.00000000E+00  0.00000000E+00  0.00000000E+00
  0.00000000E+00  0.00000000E+00  0.00000000E+00
  0.00000000E+00  0.00000000E+00  0.00000000E+00
