CONTCAR\(3)                             
   1.00000000000000     
    12.3312997818000003    0.0000000000000000    0.0000000000000000
     0.0001127485000000   12.8291997905000006    0.0000000000000000
     0.0005937186000000    0.0011528207000000   19.9943999824000009
   C    N    Fe   Ni   O    H 
    52     4     1     1     2     2
Direct
  0.0554427247820658  0.0518822513204024  0.0450119222732691
  0.1559170350460987  0.1068540987914950  0.0448233894348165
  0.1551429277145747  0.2176514381394015  0.0426592866197385
  0.0551686272042162  0.2737170680431869  0.0424170709057800
  0.2569758692385866  0.0522300749239932  0.0476858376536218
  0.3571623527197078  0.1086693802457003  0.0515075679004748
  0.3563047842764317  0.2208619385892344  0.0491839488525430
  0.2547480593886895  0.2732315434378695  0.0428538219224806
  0.4571670567030509  0.0532763427242397  0.0576502691997718
  0.5564935801400160  0.1121474951417013  0.0616109229870247
  0.5566067636624797  0.2265617336153185  0.0620495556038090
  0.4544314590039314  0.2815245684149462  0.0544888953897589
  0.6557189339522822  0.0518720800898660  0.0621558435512792
  0.7550587988808991  0.1087249162822445  0.0577145969788338
  0.7559097566837729  0.2212715936278585  0.0588711263974240
  0.6591028273435378  0.2828255669542959  0.0654201133383878
  0.8547699398027897  0.0524835476270056  0.0518599856628312
  0.9552008731996348  0.1074086046268950  0.0476824100087131
  0.9554618532833279  0.2187055656558092  0.0472182927503808
  0.8562285907821333  0.2752286649732266  0.0527992382929967
  0.0547684112721207  0.3850132401980190  0.0394679952279967
  0.1535055155096359  0.4408003118643067  0.0366589728421359
  0.1531388853414000  0.5520131315951109  0.0355587008444403
  0.0542195021219272  0.6082999107323472  0.0364279123124756
  0.2526004175934985  0.3837436044657551  0.0394369385751813
  0.3504556015200404  0.4385078878643098  0.0440674218062230
  0.3501333538633556  0.5504499657110862  0.0468930533773637
  0.2525189614639270  0.6074534766804983  0.0396294561844655
  0.7601436237845174  0.4442578723425135  0.0623524987497364
  0.8573856710100528  0.3865020065075334  0.0518557253422722
  0.9558243059934858  0.4414857495804467  0.0431523787187864
  0.9549943797558031  0.5526049720088652  0.0413165797349430
  0.8547878619369916  0.6059824765492532  0.0495294715275492
  0.0553761466118041  0.7192593711409599  0.0377193542009716
  0.1553184903393720  0.7747321486389290  0.0400146130008164
  0.1562077666841287  0.8856776640194249  0.0430432904559623
  0.0557104313792539  0.9409017395445843  0.0435138881723087
  0.2548556988306609  0.7184407330375886  0.0428920334551930
  0.3550213411061863  0.7719490593896520  0.0523748794147309
  0.3566549964329473  0.8842001419350414  0.0532085305463867
  0.2569218322390778  0.9405972773528554  0.0475411631896542
  0.4525739094944210  0.7123705992524496  0.0647882478641194
  0.5552702303137494  0.8808045191320721  0.0677203303111124
  0.4567544771363167  0.9401818016788882  0.0596019027184545
  0.7573185989631519  0.8826936566682871  0.0577530602509033
  0.6560204436409783  0.9383570427512598  0.0643721835977340
  0.8559998021644633  0.7199563871681980  0.0479041029027954
  0.9555584850911167  0.7744770460053062  0.0415857146112488
  0.9556127336597672  0.8857469711670041  0.0443788117851230
  0.8554103158718465  0.9407151869955772  0.0503744660887510
  0.4474230517668523  0.5998373253745625  0.0637925630684974
  0.5510864924453046  0.7695497423704202  0.0762138402811607
  0.4482819915390416  0.3895887504585238  0.0516405163130473
  0.6647008353673366  0.3907090853294412  0.0721210397584193
  0.7603340176909820  0.5526182814287146  0.0619582722254936
  0.7612959902837766  0.7746422112180071  0.0586204252045834
  0.6687008217702504  0.6851597429451688  0.1058628577992269
  0.5470295668771714  0.4913850698000272  0.0826733369724738
  0.5957454053436695  0.5751159343383280  0.1546375036117499
  0.7390741620154456  0.7249668487054192  0.1835034821511193
  0.7190091629338164  0.6754629267333220  0.2185007870593982
  0.5294536080321345  0.6016795870952550  0.1752076040211274
 
  0.00000000E+00  0.00000000E+00  0.00000000E+00
  0.00000000E+00  0.00000000E+00  0.00000000E+00
  0.00000000E+00  0.00000000E+00  0.00000000E+00
  0.00000000E+00  0.00000000E+00  0.00000000E+00
  0.00000000E+00  0.00000000E+00  0.00000000E+00
  0.00000000E+00  0.00000000E+00  0.00000000E+00
  0.00000000E+00  0.00000000E+00  0.00000000E+00
  0.00000000E+00  0.00000000E+00  0.00000000E+00
  0.00000000E+00  0.00000000E+00  0.00000000E+00
  0.00000000E+00  0.00000000E+00  0.00000000E+00
  0.00000000E+00  0.00000000E+00  0.00000000E+00
  0.00000000E+00  0.00000000E+00  0.00000000E+00
  0.00000000E+00  0.00000000E+00  0.00000000E+00
  0.00000000E+00  0.00000000E+00  0.00000000E+00
  0.00000000E+00  0.00000000E+00  0.00000000E+00
  0.00000000E+00  0.00000000E+00  0.00000000E+00
  0.00000000E+00  0.00000000E+00  0.00000000E+00
  0.00000000E+00  0.00000000E+00  0.00000000E+00
  0.00000000E+00  0.00000000E+00  0.00000000E+00
  0.00000000E+00  0.00000000E+00  0.00000000E+00
  0.00000000E+00  0.00000000E+00  0.00000000E+00
  0.00000000E+00  0.00000000E+00  0.00000000E+00
  0.00000000E+00  0.00000000E+00  0.00000000E+00
  0.00000000E+00  0.00000000E+00  0.00000000E+00
  0.00000000E+00  0.00000000E+00  0.00000000E+00
  0.00000000E+00  0.00000000E+00  0.00000000E+00
  0.00000000E+00  0.00000000E+00  0.00000000E+00
  0.00000000E+00  0.00000000E+00  0.00000000E+00
  0.00000000E+00  0.00000000E+00  0.00000000E+00
  0.00000000E+00  0.00000000E+00  0.00000000E+00
  0.00000000E+00  0.00000000E+00  0.00000000E+00
  0.00000000E+00  0.00000000E+00  0.00000000E+00
  0.00000000E+00  0.00000000E+00  0.00000000E+00
  0.00000000E+00  0.00000000E+00  0.00000000E+00
  0.00000000E+00  0.00000000E+00  0.00000000E+00
  0.00000000E+00  0.00000000E+00  0.00000000E+00
  0.00000000E+00  0.00000000E+00  0.00000000E+00
  0.00000000E+00  0.00000000E+00  0.00000000E+00
  0.00000000E+00  0.00000000E+00  0.00000000E+00
  0.00000000E+00  0.00000000E+00  0.00000000E+00
  0.00000000E+00  0.00000000E+00  0.00000000E+00
  0.00000000E+00  0.00000000E+00  0.00000000E+00
  0.00000000E+00  0.00000000E+00  0.00000000E+00
  0.00000000E+00  0.00000000E+00  0.00000000E+00
  0.00000000E+00  0.00000000E+00  0.00000000E+00
  0.00000000E+00  0.00000000E+00  0.00000000E+00
  0.00000000E+00  0.00000000E+00  0.00000000E+00
  0.00000000E+00  0.00000000E+00  0.00000000E+00
  0.00000000E+00  0.00000000E+00  0.00000000E+00
  0.00000000E+00  0.00000000E+00  0.00000000E+00
  0.00000000E+00  0.00000000E+00  0.00000000E+00
  0.00000000E+00  0.00000000E+00  0.00000000E+00
  0.00000000E+00  0.00000000E+00  0.00000000E+00
  0.00000000E+00  0.00000000E+00  0.00000000E+00
  0.00000000E+00  0.00000000E+00  0.00000000E+00
  0.00000000E+00  0.00000000E+00  0.00000000E+00
  0.00000000E+00  0.00000000E+00  0.00000000E+00
  0.00000000E+00  0.00000000E+00  0.00000000E+00
  0.00000000E+00  0.00000000E+00  0.00000000E+00
  0.00000000E+00  0.00000000E+00  0.00000000E+00
  0.00000000E+00  0.00000000E+00  0.00000000E+00
  0.00000000E+00  0.00000000E+00  0.00000000E+00
