CONTCAR\(3)                             
   1.00000000000000     
    12.3312997818000003    0.0000000000000000    0.0000000000000000
     0.0001127485000000   12.8291997905000006    0.0000000000000000
     0.0005937186000000    0.0011528207000000   19.9943999824000009
   C    N    Fe   Ni   O 
    53     3     1     1     1
Direct
  0.0560283115125273  0.0551291485862109  0.0511557400496372
  0.1565505282509037  0.1107859832253553  0.0510103973956575
  0.1570038345115776  0.2217480847731892  0.0496309057305879
  0.0566280103439638  0.2761230104816619  0.0487338036937359
  0.2567342034879445  0.0559910545613960  0.0528826611496953
  0.3572551353173026  0.1116674620722051  0.0560732722169206
  0.3576453660432861  0.2236403840187009  0.0550916377526747
  0.2571191569706102  0.2779907143633409  0.0503476499036850
  0.4569565913196101  0.0555176364426018  0.0601676025064748
  0.5569198060362908  0.1120333178646291  0.0635958314150713
  0.5576557295529909  0.2250780687961367  0.0643287469902205
  0.4575174637917740  0.2817684832169078  0.0596178167787755
  0.6549752809427929  0.0516508186250775  0.0639745880978211
  0.7549429172251365  0.1089990956006588  0.0606867835087783
  0.7564819634310993  0.2215821309434602  0.0606291802009906
  0.6587017769664527  0.2818223000906954  0.0657466395664272
  0.8549643751147400  0.0534321992552407  0.0565805292401436
  0.9554102055242311  0.1094103095931729  0.0531294455294713
  0.9563895350055347  0.2204746895640497  0.0520770753422042
  0.8568300294815430  0.2760981134512832  0.0552365597723252
  0.0566348223191255  0.3870958970908660  0.0459882577867248
  0.1558788394588078  0.4434189766940122  0.0448673564569404
  0.1559552467169283  0.5547804356214669  0.0437257445448935
  0.0573320666935402  0.6101477512649467  0.0433245900675132
  0.2557160193618913  0.3892137251796299  0.0478865895240901
  0.3548800487212773  0.4463225339923227  0.0510898278808085
  0.3540299234612334  0.5591221912610891  0.0512411100646233
  0.2545259106297095  0.6120544745400949  0.0464242014201659
  0.7587378386264874  0.4444344559772375  0.0596558035816344
  0.8575660229424216  0.3873461354030141  0.0528291785869470
  0.9571417275318126  0.4424073735943281  0.0467820612404140
  0.9583293342248140  0.5533223520020343  0.0451056607930767
  0.8598854306119748  0.6080086626582712  0.0492438677565801
  0.0570691653772286  0.7217426078526685  0.0445353387233922
  0.1554296981240739  0.7783408379773391  0.0460996202044086
  0.1556711852259980  0.8893759206187539  0.0487843223737983
  0.0556535409374987  0.9443616720020813  0.0498883256721641
  0.2542657568579259  0.7227700899327303  0.0476613492393625
  0.3531729672459107  0.7774797074362638  0.0531422586125530
  0.3550486754909130  0.8887447489691311  0.0549570652937277
  0.2557661298106950  0.9447360285190527  0.0519031978100273
  0.4507454793128787  0.7196888893930122  0.0598424469150416
  0.5522032276477375  0.8819395438259363  0.0652296204483847
  0.4555385385802140  0.9428332593545932  0.0602208659426253
  0.7554174145093526  0.8823565340647477  0.0615656410131251
  0.6540743624879894  0.9383045263175376  0.0651296002039743
  0.8600457981550775  0.7205598218847697  0.0516797895640764
  0.9578298577866420  0.7772171190649857  0.0478681988487608
  0.9557948774067029  0.8881799272970454  0.0508934463112638
  0.8547088825863511  0.9415671738269467  0.0560182348363725
  0.4536153803653562  0.3928174914432176  0.0583484026097452
  0.7598442609125158  0.5563740160185517  0.0571407184486503
  0.7602398286930381  0.7712800565303510  0.0609270506010731
  0.6627200584652115  0.3896308424704600  0.0692027476589487
  0.5466361570323244  0.7729693222236378  0.0677688383871669
  0.4499790060150772  0.6112819865834425  0.0588225185256590
  0.6555445404589051  0.6634816111219237  0.0829328486271095
  0.5557151451928704  0.4899423133460914  0.0828934214363031
  0.6136567341911530  0.5814359951194277  0.1463830231465693
 
  0.00000000E+00  0.00000000E+00  0.00000000E+00
  0.00000000E+00  0.00000000E+00  0.00000000E+00
  0.00000000E+00  0.00000000E+00  0.00000000E+00
  0.00000000E+00  0.00000000E+00  0.00000000E+00
  0.00000000E+00  0.00000000E+00  0.00000000E+00
  0.00000000E+00  0.00000000E+00  0.00000000E+00
  0.00000000E+00  0.00000000E+00  0.00000000E+00
  0.00000000E+00  0.00000000E+00  0.00000000E+00
  0.00000000E+00  0.00000000E+00  0.00000000E+00
  0.00000000E+00  0.00000000E+00  0.00000000E+00
  0.00000000E+00  0.00000000E+00  0.00000000E+00
  0.00000000E+00  0.00000000E+00  0.00000000E+00
  0.00000000E+00  0.00000000E+00  0.00000000E+00
  0.00000000E+00  0.00000000E+00  0.00000000E+00
  0.00000000E+00  0.00000000E+00  0.00000000E+00
  0.00000000E+00  0.00000000E+00  0.00000000E+00
  0.00000000E+00  0.00000000E+00  0.00000000E+00
  0.00000000E+00  0.00000000E+00  0.00000000E+00
  0.00000000E+00  0.00000000E+00  0.00000000E+00
  0.00000000E+00  0.00000000E+00  0.00000000E+00
  0.00000000E+00  0.00000000E+00  0.00000000E+00
  0.00000000E+00  0.00000000E+00  0.00000000E+00
  0.00000000E+00  0.00000000E+00  0.00000000E+00
  0.00000000E+00  0.00000000E+00  0.00000000E+00
  0.00000000E+00  0.00000000E+00  0.00000000E+00
  0.00000000E+00  0.00000000E+00  0.00000000E+00
  0.00000000E+00  0.00000000E+00  0.00000000E+00
  0.00000000E+00  0.00000000E+00  0.00000000E+00
  0.00000000E+00  0.00000000E+00  0.00000000E+00
  0.00000000E+00  0.00000000E+00  0.00000000E+00
  0.00000000E+00  0.00000000E+00  0.00000000E+00
  0.00000000E+00  0.00000000E+00  0.00000000E+00
  0.00000000E+00  0.00000000E+00  0.00000000E+00
  0.00000000E+00  0.00000000E+00  0.00000000E+00
  0.00000000E+00  0.00000000E+00  0.00000000E+00
  0.00000000E+00  0.00000000E+00  0.00000000E+00
  0.00000000E+00  0.00000000E+00  0.00000000E+00
  0.00000000E+00  0.00000000E+00  0.00000000E+00
  0.00000000E+00  0.00000000E+00  0.00000000E+00
  0.00000000E+00  0.00000000E+00  0.00000000E+00
  0.00000000E+00  0.00000000E+00  0.00000000E+00
  0.00000000E+00  0.00000000E+00  0.00000000E+00
  0.00000000E+00  0.00000000E+00  0.00000000E+00
  0.00000000E+00  0.00000000E+00  0.00000000E+00
  0.00000000E+00  0.00000000E+00  0.00000000E+00
  0.00000000E+00  0.00000000E+00  0.00000000E+00
  0.00000000E+00  0.00000000E+00  0.00000000E+00
  0.00000000E+00  0.00000000E+00  0.00000000E+00
  0.00000000E+00  0.00000000E+00  0.00000000E+00
  0.00000000E+00  0.00000000E+00  0.00000000E+00
  0.00000000E+00  0.00000000E+00  0.00000000E+00
  0.00000000E+00  0.00000000E+00  0.00000000E+00
  0.00000000E+00  0.00000000E+00  0.00000000E+00
  0.00000000E+00  0.00000000E+00  0.00000000E+00
  0.00000000E+00  0.00000000E+00  0.00000000E+00
  0.00000000E+00  0.00000000E+00  0.00000000E+00
  0.00000000E+00  0.00000000E+00  0.00000000E+00
  0.00000000E+00  0.00000000E+00  0.00000000E+00
  0.00000000E+00  0.00000000E+00  0.00000000E+00
