CONTCAR\(5)                             
   1.00000000000000     
    12.3312997818000003    0.0000000000000000    0.0000000000000000
     0.0001127485000000   12.8291997905000006    0.0000000000000000
     0.0005937186000000    0.0011528207000000   19.9943999824000009
   C    N    Fe   Ni   O    H 
    54     2     1     1     1     1
Direct
  0.0561471329662365  0.0548866272110441  0.0492006788626368
  0.1562781179368900  0.1101966134281732  0.0495851176050933
  0.1561201188771631  0.2209768113038904  0.0478368609913079
  0.0564671907424163  0.2764564028862858  0.0460925064041612
  0.2568827592093462  0.0558405164661026  0.0523229204598420
  0.3568703366763230  0.1125302001346377  0.0554806904052912
  0.3565623652198762  0.2244435614908862  0.0543639113546167
  0.2554342945239962  0.2769095956195260  0.0492558319707084
  0.4565413846867333  0.0573943317908923  0.0597665577141433
  0.5560046685814094  0.1156279573788031  0.0617643059958966
  0.5563258004925969  0.2287189539290256  0.0623112086242938
  0.4548504739475555  0.2844535917463951  0.0588915171595547
  0.6554276967683491  0.0561034419233200  0.0608717156003412
  0.7556528782114790  0.1116375146132147  0.0564768703985010
  0.7569173516533958  0.2234033825118111  0.0560277064126545
  0.6592687588793487  0.2840575788552690  0.0617949094872571
  0.8552132980393562  0.0549944573481372  0.0529497028323353
  0.9558681750548269  0.1100285015854655  0.0499628837803343
  0.9567077901324637  0.2209251268106993  0.0485774054933101
  0.8573479034508117  0.2771082377000740  0.0510099186504612
  0.0566628399344226  0.3876741686828181  0.0438034223803747
  0.1550728157332718  0.4438029279084958  0.0437862491496569
  0.1552503104479730  0.5552552916188962  0.0436071281699966
  0.0561651204591501  0.6107851778021819  0.0431476809877254
  0.2540417735063488  0.3873493084331066  0.0471300320870612
  0.3520609957150195  0.4421844710351674  0.0522032422293547
  0.3531233600963992  0.5544804793857169  0.0538310193700826
  0.2544452102516572  0.6108480201217984  0.0477132880445549
  0.7598347480729829  0.4440235386337119  0.0545570948477125
  0.8586183530639651  0.3878271857105985  0.0489715635921556
  0.9573742323156179  0.4435695311356159  0.0443878189004993
  0.9573180338261145  0.5542521092859527  0.0437869041003248
  0.8567940299134698  0.6084324833830732  0.0465813757699525
  0.0563353882859306  0.7223767774533103  0.0447934128567421
  0.1556521141001327  0.7777171225422419  0.0471460129169161
  0.1561462187206734  0.8890327059309900  0.0490233903043276
  0.0559232993829652  0.9440287582346124  0.0487595193252201
  0.2553611958608062  0.7217616312799278  0.0496708756564234
  0.3549975275176108  0.7763691955074353  0.0561755113006123
  0.3562894681825606  0.8885272016603889  0.0566741574642376
  0.2564643937556521  0.9444593132620714  0.0523455200385594
  0.4537856980641674  0.7182112667192485  0.0648488642392893
  0.5548813026533989  0.8869124692660331  0.0663486847319681
  0.4558256660441768  0.9449557441516822  0.0612309396904888
  0.7549400969407474  0.8862004494409954  0.0577457976387021
  0.6553850517189732  0.9441356273283226  0.0627199262247950
  0.8570069402836084  0.7219708096401465  0.0487673449238410
  0.9563313961374886  0.7777738750981229  0.0468340226891567
  0.9555794434013591  0.8886949093994776  0.0491258425413933
  0.8548550594537853  0.9432686903706594  0.0528587688391018
  0.7579839784740073  0.5548917836399433  0.0517718975181552
  0.5518124719312133  0.7770420954873065  0.0724326906847974
  0.7573298257219797  0.7745860292099834  0.0569169343377540
  0.4520675620610043  0.6050742025701999  0.0651480390550816
  0.4492766154024642  0.3928730854890097  0.0589298874893082
  0.6643028937337189  0.3901777595021938  0.0645677003887876
  0.6553335769123861  0.6686581583237905  0.0848019243953873
  0.5562238712504842  0.4958297686080560  0.0789954960420435
  0.6166270870974414  0.5763765619581873  0.1569551927146344
  0.5550815975242915  0.6039858760548974  0.1820916141600666
 
  0.00000000E+00  0.00000000E+00  0.00000000E+00
  0.00000000E+00  0.00000000E+00  0.00000000E+00
  0.00000000E+00  0.00000000E+00  0.00000000E+00
  0.00000000E+00  0.00000000E+00  0.00000000E+00
  0.00000000E+00  0.00000000E+00  0.00000000E+00
  0.00000000E+00  0.00000000E+00  0.00000000E+00
  0.00000000E+00  0.00000000E+00  0.00000000E+00
  0.00000000E+00  0.00000000E+00  0.00000000E+00
  0.00000000E+00  0.00000000E+00  0.00000000E+00
  0.00000000E+00  0.00000000E+00  0.00000000E+00
  0.00000000E+00  0.00000000E+00  0.00000000E+00
  0.00000000E+00  0.00000000E+00  0.00000000E+00
  0.00000000E+00  0.00000000E+00  0.00000000E+00
  0.00000000E+00  0.00000000E+00  0.00000000E+00
  0.00000000E+00  0.00000000E+00  0.00000000E+00
  0.00000000E+00  0.00000000E+00  0.00000000E+00
  0.00000000E+00  0.00000000E+00  0.00000000E+00
  0.00000000E+00  0.00000000E+00  0.00000000E+00
  0.00000000E+00  0.00000000E+00  0.00000000E+00
  0.00000000E+00  0.00000000E+00  0.00000000E+00
  0.00000000E+00  0.00000000E+00  0.00000000E+00
  0.00000000E+00  0.00000000E+00  0.00000000E+00
  0.00000000E+00  0.00000000E+00  0.00000000E+00
  0.00000000E+00  0.00000000E+00  0.00000000E+00
  0.00000000E+00  0.00000000E+00  0.00000000E+00
  0.00000000E+00  0.00000000E+00  0.00000000E+00
  0.00000000E+00  0.00000000E+00  0.00000000E+00
  0.00000000E+00  0.00000000E+00  0.00000000E+00
  0.00000000E+00  0.00000000E+00  0.00000000E+00
  0.00000000E+00  0.00000000E+00  0.00000000E+00
  0.00000000E+00  0.00000000E+00  0.00000000E+00
  0.00000000E+00  0.00000000E+00  0.00000000E+00
  0.00000000E+00  0.00000000E+00  0.00000000E+00
  0.00000000E+00  0.00000000E+00  0.00000000E+00
  0.00000000E+00  0.00000000E+00  0.00000000E+00
  0.00000000E+00  0.00000000E+00  0.00000000E+00
  0.00000000E+00  0.00000000E+00  0.00000000E+00
  0.00000000E+00  0.00000000E+00  0.00000000E+00
  0.00000000E+00  0.00000000E+00  0.00000000E+00
  0.00000000E+00  0.00000000E+00  0.00000000E+00
  0.00000000E+00  0.00000000E+00  0.00000000E+00
  0.00000000E+00  0.00000000E+00  0.00000000E+00
  0.00000000E+00  0.00000000E+00  0.00000000E+00
  0.00000000E+00  0.00000000E+00  0.00000000E+00
  0.00000000E+00  0.00000000E+00  0.00000000E+00
  0.00000000E+00  0.00000000E+00  0.00000000E+00
  0.00000000E+00  0.00000000E+00  0.00000000E+00
  0.00000000E+00  0.00000000E+00  0.00000000E+00
  0.00000000E+00  0.00000000E+00  0.00000000E+00
  0.00000000E+00  0.00000000E+00  0.00000000E+00
  0.00000000E+00  0.00000000E+00  0.00000000E+00
  0.00000000E+00  0.00000000E+00  0.00000000E+00
  0.00000000E+00  0.00000000E+00  0.00000000E+00
  0.00000000E+00  0.00000000E+00  0.00000000E+00
  0.00000000E+00  0.00000000E+00  0.00000000E+00
  0.00000000E+00  0.00000000E+00  0.00000000E+00
  0.00000000E+00  0.00000000E+00  0.00000000E+00
  0.00000000E+00  0.00000000E+00  0.00000000E+00
  0.00000000E+00  0.00000000E+00  0.00000000E+00
  0.00000000E+00  0.00000000E+00  0.00000000E+00
