35                                      
   1.00000000000000     
    12.3312997818000003    0.0000000000000000    0.0000000000000000
     0.0001127485000000   12.8291997905000006    0.0000000000000000
     0.0005937186000000    0.0011528207000000   19.9943999824000009
   C    N    Fe   Ni   O    H 
    54     2     1     1     1     1
Direct
  0.0554523855211517  0.0544970719239281  0.0511971843788982
  0.1557878397887347  0.1100691518013519  0.0515657939495995
  0.1564602556975031  0.2209229390211051  0.0509797363764679
  0.0564812932301744  0.2756129387464696  0.0501135906516962
  0.2560902461397854  0.0554980046776165  0.0530878550483026
  0.3565793676891933  0.1110786810003076  0.0561670397545932
  0.3572561227709626  0.2227854339605327  0.0561809325266931
  0.2566849517332387  0.2768505743274866  0.0522944128019634
  0.4561496661507217  0.0551814413952989  0.0595109175529448
  0.5563700550571133  0.1114040310705203  0.0625022460822640
  0.5571613333065704  0.2231655872952895  0.0642062765529181
  0.4572196751911110  0.2802726603037000  0.0609009190271705
  0.6552452583726494  0.0521125240383394  0.0618805152717443
  0.7551824764541856  0.1091725076814004  0.0587514943081119
  0.7560642715640896  0.2216611629951933  0.0591925363740906
  0.6578994733575918  0.2809558978022160  0.0650442243417303
  0.8547391655401436  0.0530957393606013  0.0551610269183121
  0.9551164804802822  0.1092491232354854  0.0526904030713402
  0.9559413897960995  0.2205418766674260  0.0522464677383166
  0.8562045727564832  0.2765410780379134  0.0548531715090516
  0.0576030071545592  0.3867083222745966  0.0483415732289837
  0.1565912961378571  0.4429818362735438  0.0480373206671848
  0.1567498684969822  0.5545638540905653  0.0470731060528345
  0.0576438596095618  0.6097301673467757  0.0461599338628293
  0.2564926211857310  0.3878799595265258  0.0507692196260935
  0.3556152006289864  0.4440699112702464  0.0542651008096420
  0.3561830173031713  0.5573688827528740  0.0538798022773131
  0.2558275773508693  0.6112857758528445  0.0492070506010625
  0.7598501028495009  0.4472134203962452  0.0586960502432434
  0.8578721953008712  0.3881629780777945  0.0532644227476279
  0.9581651101064307  0.4420665055214570  0.0489722341787370
  0.9590775931863094  0.5526239268685557  0.0475832764687691
  0.8594359118426584  0.6064453387879716  0.0501491677040566
  0.0567833065317040  0.7212478641680501  0.0465278356130027
  0.1552327770018485  0.7775415275980133  0.0476119222603983
  0.1550873082486255  0.8887102233995731  0.0493118586974562
  0.0550596328854219  0.9434119388988519  0.0499338910593452
  0.2547121381861482  0.7220327481449076  0.0492890716755954
  0.3530905059931464  0.7781714476137839  0.0537930711238137
  0.3543054253554705  0.8890721818170966  0.0549988600530686
  0.2550203846566388  0.9446339856319067  0.0520468943440616
  0.4512314500928754  0.7220136142675124  0.0611461560790145
  0.5528218691424277  0.8839299659688310  0.0643123699152879
  0.4546968424226743  0.9433708811349992  0.0596592386879094
  0.7546390514655307  0.8826084214560039  0.0584057207601416
  0.6545998607541128  0.9396863997183178  0.0626042149658448
  0.8582347405366664  0.7193970573431034  0.0504606834847911
  0.9570038392931872  0.7760096178067747  0.0484077851683163
  0.9552109810087691  0.8870298376709356  0.0505084954370626
  0.8542917460346442  0.9409855192068880  0.0544254958984074
  0.4552062621136169  0.3915861137237256  0.0615114242825853
  0.4551698526283590  0.6109345849877623  0.0618331613534320
  0.6606011178835419  0.3918341887845420  0.0701517008572407
  0.7582752165955475  0.7708953200471961  0.0570996022488544
  0.7633479369896863  0.5558268874264749  0.0554713220142503
  0.5478045962035345  0.7771146953848401  0.0685264682543998
  0.6515733740860837  0.6682534018795939  0.0769040859082716
  0.5557191955832809  0.4898926334862731  0.0887573803061736
  0.6252433752161560  0.5839466519623239  0.1561586769743038
  0.5670234893390447  0.6117030620895589  0.1840176088723751
 
  0.00000000E+00  0.00000000E+00  0.00000000E+00
  0.00000000E+00  0.00000000E+00  0.00000000E+00
  0.00000000E+00  0.00000000E+00  0.00000000E+00
  0.00000000E+00  0.00000000E+00  0.00000000E+00
  0.00000000E+00  0.00000000E+00  0.00000000E+00
  0.00000000E+00  0.00000000E+00  0.00000000E+00
  0.00000000E+00  0.00000000E+00  0.00000000E+00
  0.00000000E+00  0.00000000E+00  0.00000000E+00
  0.00000000E+00  0.00000000E+00  0.00000000E+00
  0.00000000E+00  0.00000000E+00  0.00000000E+00
  0.00000000E+00  0.00000000E+00  0.00000000E+00
  0.00000000E+00  0.00000000E+00  0.00000000E+00
  0.00000000E+00  0.00000000E+00  0.00000000E+00
  0.00000000E+00  0.00000000E+00  0.00000000E+00
  0.00000000E+00  0.00000000E+00  0.00000000E+00
  0.00000000E+00  0.00000000E+00  0.00000000E+00
  0.00000000E+00  0.00000000E+00  0.00000000E+00
  0.00000000E+00  0.00000000E+00  0.00000000E+00
  0.00000000E+00  0.00000000E+00  0.00000000E+00
  0.00000000E+00  0.00000000E+00  0.00000000E+00
  0.00000000E+00  0.00000000E+00  0.00000000E+00
  0.00000000E+00  0.00000000E+00  0.00000000E+00
  0.00000000E+00  0.00000000E+00  0.00000000E+00
  0.00000000E+00  0.00000000E+00  0.00000000E+00
  0.00000000E+00  0.00000000E+00  0.00000000E+00
  0.00000000E+00  0.00000000E+00  0.00000000E+00
  0.00000000E+00  0.00000000E+00  0.00000000E+00
  0.00000000E+00  0.00000000E+00  0.00000000E+00
  0.00000000E+00  0.00000000E+00  0.00000000E+00
  0.00000000E+00  0.00000000E+00  0.00000000E+00
  0.00000000E+00  0.00000000E+00  0.00000000E+00
  0.00000000E+00  0.00000000E+00  0.00000000E+00
  0.00000000E+00  0.00000000E+00  0.00000000E+00
  0.00000000E+00  0.00000000E+00  0.00000000E+00
  0.00000000E+00  0.00000000E+00  0.00000000E+00
  0.00000000E+00  0.00000000E+00  0.00000000E+00
  0.00000000E+00  0.00000000E+00  0.00000000E+00
  0.00000000E+00  0.00000000E+00  0.00000000E+00
  0.00000000E+00  0.00000000E+00  0.00000000E+00
  0.00000000E+00  0.00000000E+00  0.00000000E+00
  0.00000000E+00  0.00000000E+00  0.00000000E+00
  0.00000000E+00  0.00000000E+00  0.00000000E+00
  0.00000000E+00  0.00000000E+00  0.00000000E+00
  0.00000000E+00  0.00000000E+00  0.00000000E+00
  0.00000000E+00  0.00000000E+00  0.00000000E+00
  0.00000000E+00  0.00000000E+00  0.00000000E+00
  0.00000000E+00  0.00000000E+00  0.00000000E+00
  0.00000000E+00  0.00000000E+00  0.00000000E+00
  0.00000000E+00  0.00000000E+00  0.00000000E+00
  0.00000000E+00  0.00000000E+00  0.00000000E+00
  0.00000000E+00  0.00000000E+00  0.00000000E+00
  0.00000000E+00  0.00000000E+00  0.00000000E+00
  0.00000000E+00  0.00000000E+00  0.00000000E+00
  0.00000000E+00  0.00000000E+00  0.00000000E+00
  0.00000000E+00  0.00000000E+00  0.00000000E+00
  0.00000000E+00  0.00000000E+00  0.00000000E+00
  0.00000000E+00  0.00000000E+00  0.00000000E+00
  0.00000000E+00  0.00000000E+00  0.00000000E+00
  0.00000000E+00  0.00000000E+00  0.00000000E+00
  0.00000000E+00  0.00000000E+00  0.00000000E+00
