CONTCAR\(2)                             
   1.00000000000000     
    12.3312997818000003    0.0000000000000000    0.0000000000000000
     0.0001127485000000   12.8291997905000006    0.0000000000000000
     0.0005937186000000    0.0011528207000000   19.9943999824000009
   C    N    Fe   Ni   H 
    54     2     1     1     1
Direct
  0.0553457595148318  0.0546155888606257  0.0552481148451372
  0.1554210363285771  0.1106472748769499  0.0550123614766005
  0.1562031703590201  0.2214296343568334  0.0543454623433289
  0.0565188471471075  0.2762635823198750  0.0531726169564228
  0.2555063752567113  0.0563456014202958  0.0552700244125284
  0.3559693866620811  0.1120037828922361  0.0564119905676425
  0.3564767232917645  0.2236526905315153  0.0567950357511985
  0.2561068974173672  0.2773889414618144  0.0549087103788803
  0.4554111930173609  0.0562086197524641  0.0571522121267128
  0.5552604375449838  0.1124618361533284  0.0588485496516518
  0.5558523527610202  0.2246179256400630  0.0600448426312552
  0.4556203316360615  0.2818744794565002  0.0587972428442372
  0.6545906022002138  0.0527476953329435  0.0589275480637831
  0.7551355084974606  0.1091203684507058  0.0577763954947351
  0.7564794180764554  0.2209935328939695  0.0572137003506547
  0.6574861269587361  0.2798704674251711  0.0603331484615909
  0.8543864116550907  0.0523953082444859  0.0568426342468039
  0.9548910890432750  0.1089310505846787  0.0553874907424303
  0.9561406113598065  0.2202972957925063  0.0540323901023270
  0.8567825890060073  0.2763757562664895  0.0543053479609155
  0.0582549651075909  0.3874872617620109  0.0519220102330161
  0.1574161449568924  0.4437848085705129  0.0520889555005181
  0.1579383099090580  0.5551414230946095  0.0517812882956462
  0.0581641752268517  0.6101509371646950  0.0520823158764346
  0.2568301698238857  0.3883820199629366  0.0536253410401225
  0.3568356155883168  0.4431966930527801  0.0549954826096884
  0.3596417331865083  0.5571883942292034  0.0535079055360251
  0.2574860241129326  0.6109366620548011  0.0521063350900035
  0.7612577640421918  0.4458809506378920  0.0557797536105223
  0.8596084368202820  0.3877869119119974  0.0525541338607112
  0.9590126309181864  0.4428134978363717  0.0513237775606164
  0.9590152224034451  0.5536710334352216  0.0519377545498634
  0.8596642665759018  0.6090203921800288  0.0537622977038901
  0.0567026138302465  0.7215583195892665  0.0532654492399443
  0.1551741371573437  0.7775085408391629  0.0530740034688862
  0.1548229338986082  0.8888625723145223  0.0541449746739243
  0.0548416771548002  0.9436967424329213  0.0553024310008700
  0.2547431838826299  0.7219186255194391  0.0522138372964068
  0.3524075512401277  0.7792734918135351  0.0527811513094047
  0.3536357734092422  0.8902462557966003  0.0540224094269513
  0.2542796229503388  0.9454068318047966  0.0543248652032131
  0.4514150472554069  0.7247605964134265  0.0543363359138129
  0.5521501299516701  0.8857457892522349  0.0575650992810044
  0.4538470225746552  0.9448094889113109  0.0559854359760948
  0.7532480897245530  0.8808168939532263  0.0594047671775990
  0.6541270578409653  0.9404296305891739  0.0591690980008735
  0.8584809378160611  0.7206819149853981  0.0564164863762753
  0.9567922195706167  0.7768781937759426  0.0552129133368515
  0.9549379771561435  0.8875437226717489  0.0562320425090451
  0.8534143292229273  0.9402415351150329  0.0576198079887121
  0.4589676258213063  0.6132791553345275  0.0552805514505707
  0.6633387256933690  0.3890683949463830  0.0626041297882741
  0.7591462276586249  0.5579799336398586  0.0552803724455646
  0.7559997320363833  0.7681531987664050  0.0600527525512794
  0.4529798318122249  0.3903746645533844  0.0586664125936505
  0.5474628628303356  0.7799741500990319  0.0570831711447995
  0.6363288607265445  0.6595655311047945  0.0625463292898045
  0.5626887008923501  0.4914453035389790  0.0679418264577782
  0.6269767944865365  0.5740681576323851  0.1198801712225062
 
  0.00000000E+00  0.00000000E+00  0.00000000E+00
  0.00000000E+00  0.00000000E+00  0.00000000E+00
  0.00000000E+00  0.00000000E+00  0.00000000E+00
  0.00000000E+00  0.00000000E+00  0.00000000E+00
  0.00000000E+00  0.00000000E+00  0.00000000E+00
  0.00000000E+00  0.00000000E+00  0.00000000E+00
  0.00000000E+00  0.00000000E+00  0.00000000E+00
  0.00000000E+00  0.00000000E+00  0.00000000E+00
  0.00000000E+00  0.00000000E+00  0.00000000E+00
  0.00000000E+00  0.00000000E+00  0.00000000E+00
  0.00000000E+00  0.00000000E+00  0.00000000E+00
  0.00000000E+00  0.00000000E+00  0.00000000E+00
  0.00000000E+00  0.00000000E+00  0.00000000E+00
  0.00000000E+00  0.00000000E+00  0.00000000E+00
  0.00000000E+00  0.00000000E+00  0.00000000E+00
  0.00000000E+00  0.00000000E+00  0.00000000E+00
  0.00000000E+00  0.00000000E+00  0.00000000E+00
  0.00000000E+00  0.00000000E+00  0.00000000E+00
  0.00000000E+00  0.00000000E+00  0.00000000E+00
  0.00000000E+00  0.00000000E+00  0.00000000E+00
  0.00000000E+00  0.00000000E+00  0.00000000E+00
  0.00000000E+00  0.00000000E+00  0.00000000E+00
  0.00000000E+00  0.00000000E+00  0.00000000E+00
  0.00000000E+00  0.00000000E+00  0.00000000E+00
  0.00000000E+00  0.00000000E+00  0.00000000E+00
  0.00000000E+00  0.00000000E+00  0.00000000E+00
  0.00000000E+00  0.00000000E+00  0.00000000E+00
  0.00000000E+00  0.00000000E+00  0.00000000E+00
  0.00000000E+00  0.00000000E+00  0.00000000E+00
  0.00000000E+00  0.00000000E+00  0.00000000E+00
  0.00000000E+00  0.00000000E+00  0.00000000E+00
  0.00000000E+00  0.00000000E+00  0.00000000E+00
  0.00000000E+00  0.00000000E+00  0.00000000E+00
  0.00000000E+00  0.00000000E+00  0.00000000E+00
  0.00000000E+00  0.00000000E+00  0.00000000E+00
  0.00000000E+00  0.00000000E+00  0.00000000E+00
  0.00000000E+00  0.00000000E+00  0.00000000E+00
  0.00000000E+00  0.00000000E+00  0.00000000E+00
  0.00000000E+00  0.00000000E+00  0.00000000E+00
  0.00000000E+00  0.00000000E+00  0.00000000E+00
  0.00000000E+00  0.00000000E+00  0.00000000E+00
  0.00000000E+00  0.00000000E+00  0.00000000E+00
  0.00000000E+00  0.00000000E+00  0.00000000E+00
  0.00000000E+00  0.00000000E+00  0.00000000E+00
  0.00000000E+00  0.00000000E+00  0.00000000E+00
  0.00000000E+00  0.00000000E+00  0.00000000E+00
  0.00000000E+00  0.00000000E+00  0.00000000E+00
  0.00000000E+00  0.00000000E+00  0.00000000E+00
  0.00000000E+00  0.00000000E+00  0.00000000E+00
  0.00000000E+00  0.00000000E+00  0.00000000E+00
  0.00000000E+00  0.00000000E+00  0.00000000E+00
  0.00000000E+00  0.00000000E+00  0.00000000E+00
  0.00000000E+00  0.00000000E+00  0.00000000E+00
  0.00000000E+00  0.00000000E+00  0.00000000E+00
  0.00000000E+00  0.00000000E+00  0.00000000E+00
  0.00000000E+00  0.00000000E+00  0.00000000E+00
  0.00000000E+00  0.00000000E+00  0.00000000E+00
  0.00000000E+00  0.00000000E+00  0.00000000E+00
  0.00000000E+00  0.00000000E+00  0.00000000E+00
