CONTCAR\(5)                             
   1.00000000000000     
    12.3312997818000003    0.0000000000000000    0.0000000000000000
     0.0001127485000000   12.8291997905000006    0.0000000000000000
     0.0005937186000000    0.0011528207000000   19.9943999824000009
   C    N    Fe   Ni   O    H 
    54     2     1     1     2     2
Direct
  0.0580512810758404  0.0535720904491528  0.0483816151868092
  0.1580278043493427  0.1090728129785056  0.0482364510715378
  0.1578979703388401  0.2200107408364344  0.0474700169745062
  0.0584733023717120  0.2756076681872431  0.0471960094750813
  0.2585858032573983  0.0546125098511203  0.0493944581210420
  0.3586237256807445  0.1113414618430635  0.0510407746795071
  0.3582600185956231  0.2230946280645632  0.0501450196611213
  0.2572759815069984  0.2760762548006562  0.0477816462681724
  0.4584745294624478  0.0564938638012318  0.0536756502972613
  0.5578590631076339  0.1147646940630887  0.0556154122996829
  0.5580879695978199  0.2274574437702698  0.0553222779516217
  0.4566453007874041  0.2830845344768401  0.0516136834529035
  0.6574663143651325  0.0555470306211432  0.0564210006658546
  0.7579588714764856  0.1105597041899860  0.0540600672694836
  0.7592113328725065  0.2220319175330643  0.0539404669116173
  0.6611327189447106  0.2822788069652620  0.0568578399203021
  0.8573400910187647  0.0538962694019376  0.0516556315764885
  0.9579653504616564  0.1089232672336087  0.0494302859269250
  0.9588354047997318  0.2197921529557334  0.0488567166766810
  0.8594965102922149  0.2758795530138549  0.0509399701124190
  0.0587321255612599  0.3869554148702514  0.0462740019243848
  0.1571823109936968  0.4429160447831791  0.0458942571590707
  0.1571779104054349  0.5543408696879453  0.0454399229017162
  0.0574651317615844  0.6095223562256751  0.0456856914353014
  0.2561746807153659  0.3865890050400875  0.0470352425114715
  0.3554249235580314  0.4409704578907029  0.0480969945936547
  0.3572124537478391  0.5536873076426628  0.0497036749567983
  0.2572064007444892  0.6096293135158064  0.0468039930311838
  0.7620922361179358  0.4420017176783957  0.0554022224632496
  0.8610526954259206  0.3866368912520239  0.0504560791588571
  0.9593660450347633  0.4427208711960257  0.0472708590734877
  0.9578074685033521  0.5533723577359784  0.0469383809845189
  0.8562134813746091  0.6071991826196262  0.0502471192940352
  0.0577897528262074  0.7210365536233502  0.0462057395017590
  0.1574519386965396  0.7762700283505308  0.0468765945162060
  0.1578896927672721  0.8876663550380236  0.0477220939487797
  0.0577402445244940  0.9426265638672766  0.0480220928544266
  0.2576612245375043  0.7205808311260147  0.0479398330232545
  0.3576492683242681  0.7755781761494892  0.0513429382062304
  0.3583750162705113  0.8875875654736292  0.0515648319411443
  0.2582084362368192  0.9432853960477366  0.0492253101851458
  0.4576500306294107  0.7179180941548400  0.0561457044858632
  0.5572361746354972  0.8868413961542827  0.0585813354148202
  0.4578246552830593  0.9442063064678720  0.0544676463118314
  0.7567169518914839  0.8857716467256607  0.0558301955458822
  0.6574160279928202  0.9440577458404485  0.0580075317032434
  0.8574398688517455  0.7206578452716584  0.0505885732973591
  0.9574883763288702  0.7762740230132663  0.0478497370817602
  0.9572834901748682  0.8872475589543654  0.0489317772662268
  0.8568910972284410  0.9422377679167429  0.0518038624178592
  0.7569792443321706  0.5534363623982156  0.0564387188385094
  0.5552061144314239  0.7771676668518123  0.0619230887300892
  0.7586402446646908  0.7744923521861719  0.0566218672761776
  0.4571012363757849  0.6055287217963480  0.0565019348323495
  0.4517304557481964  0.3906377432584101  0.0483466390026409
  0.6668233284626890  0.3876201588865175  0.0593805892359563
  0.6542756587402577  0.6737135170897737  0.0910706593793219
  0.5635557864681282  0.4991549412379144  0.0689504697863724
  0.5461974333747355  0.4886222488534847  0.1626784531799727
  0.6646144099063411  0.6745772938664963  0.1823019844160693
  0.6521931650150269  0.7409563744021606  0.2046645595350598
  0.5756035819734543  0.5508595788224303  0.1849118110989486
 
  0.00000000E+00  0.00000000E+00  0.00000000E+00
  0.00000000E+00  0.00000000E+00  0.00000000E+00
  0.00000000E+00  0.00000000E+00  0.00000000E+00
  0.00000000E+00  0.00000000E+00  0.00000000E+00
  0.00000000E+00  0.00000000E+00  0.00000000E+00
  0.00000000E+00  0.00000000E+00  0.00000000E+00
  0.00000000E+00  0.00000000E+00  0.00000000E+00
  0.00000000E+00  0.00000000E+00  0.00000000E+00
  0.00000000E+00  0.00000000E+00  0.00000000E+00
  0.00000000E+00  0.00000000E+00  0.00000000E+00
  0.00000000E+00  0.00000000E+00  0.00000000E+00
  0.00000000E+00  0.00000000E+00  0.00000000E+00
  0.00000000E+00  0.00000000E+00  0.00000000E+00
  0.00000000E+00  0.00000000E+00  0.00000000E+00
  0.00000000E+00  0.00000000E+00  0.00000000E+00
  0.00000000E+00  0.00000000E+00  0.00000000E+00
  0.00000000E+00  0.00000000E+00  0.00000000E+00
  0.00000000E+00  0.00000000E+00  0.00000000E+00
  0.00000000E+00  0.00000000E+00  0.00000000E+00
  0.00000000E+00  0.00000000E+00  0.00000000E+00
  0.00000000E+00  0.00000000E+00  0.00000000E+00
  0.00000000E+00  0.00000000E+00  0.00000000E+00
  0.00000000E+00  0.00000000E+00  0.00000000E+00
  0.00000000E+00  0.00000000E+00  0.00000000E+00
  0.00000000E+00  0.00000000E+00  0.00000000E+00
  0.00000000E+00  0.00000000E+00  0.00000000E+00
  0.00000000E+00  0.00000000E+00  0.00000000E+00
  0.00000000E+00  0.00000000E+00  0.00000000E+00
  0.00000000E+00  0.00000000E+00  0.00000000E+00
  0.00000000E+00  0.00000000E+00  0.00000000E+00
  0.00000000E+00  0.00000000E+00  0.00000000E+00
  0.00000000E+00  0.00000000E+00  0.00000000E+00
  0.00000000E+00  0.00000000E+00  0.00000000E+00
  0.00000000E+00  0.00000000E+00  0.00000000E+00
  0.00000000E+00  0.00000000E+00  0.00000000E+00
  0.00000000E+00  0.00000000E+00  0.00000000E+00
  0.00000000E+00  0.00000000E+00  0.00000000E+00
  0.00000000E+00  0.00000000E+00  0.00000000E+00
  0.00000000E+00  0.00000000E+00  0.00000000E+00
  0.00000000E+00  0.00000000E+00  0.00000000E+00
  0.00000000E+00  0.00000000E+00  0.00000000E+00
  0.00000000E+00  0.00000000E+00  0.00000000E+00
  0.00000000E+00  0.00000000E+00  0.00000000E+00
  0.00000000E+00  0.00000000E+00  0.00000000E+00
  0.00000000E+00  0.00000000E+00  0.00000000E+00
  0.00000000E+00  0.00000000E+00  0.00000000E+00
  0.00000000E+00  0.00000000E+00  0.00000000E+00
  0.00000000E+00  0.00000000E+00  0.00000000E+00
  0.00000000E+00  0.00000000E+00  0.00000000E+00
  0.00000000E+00  0.00000000E+00  0.00000000E+00
  0.00000000E+00  0.00000000E+00  0.00000000E+00
  0.00000000E+00  0.00000000E+00  0.00000000E+00
  0.00000000E+00  0.00000000E+00  0.00000000E+00
  0.00000000E+00  0.00000000E+00  0.00000000E+00
  0.00000000E+00  0.00000000E+00  0.00000000E+00
  0.00000000E+00  0.00000000E+00  0.00000000E+00
  0.00000000E+00  0.00000000E+00  0.00000000E+00
  0.00000000E+00  0.00000000E+00  0.00000000E+00
  0.00000000E+00  0.00000000E+00  0.00000000E+00
  0.00000000E+00  0.00000000E+00  0.00000000E+00
  0.00000000E+00  0.00000000E+00  0.00000000E+00
  0.00000000E+00  0.00000000E+00  0.00000000E+00
