CONTCAR\(3)                             
   1.00000000000000     
    12.3312997818000003    0.0000000000000000    0.0000000000000000
     0.0001127485000000   12.8291997905000006    0.0000000000000000
     0.0005937186000000    0.0011528207000000   19.9943999824000009
   C    N    Fe   Ni   O    H 
    52     4     1     1     1     1
Direct
  0.0562436756881273  0.0547347594282126  0.0490536208557285
  0.1568059228565913  0.1101869903525786  0.0489978781065755
  0.1572179965998824  0.2210508447820413  0.0480557533597186
  0.0566411053439612  0.2757196408826875  0.0477081504592355
  0.2571405151896106  0.0550129835299292  0.0507874454368909
  0.3577804986044764  0.1099896642809406  0.0539552658212168
  0.3581582587222341  0.2220320436564956  0.0532243486374210
  0.2577572754269900  0.2769008043677403  0.0488145978200337
  0.4574903854001316  0.0531805222204768  0.0578437020513469
  0.5577339368958154  0.1093796253474987  0.0613912372608811
  0.5581849953267936  0.2221325555255579  0.0628755369550489
  0.4581162228607006  0.2795446947461416  0.0578796920974014
  0.6563124781400302  0.0493656556978585  0.0614384613155962
  0.7554355210155901  0.1079883964525195  0.0587369066508480
  0.7561778534074010  0.2209620904435417  0.0598219142284560
  0.6581302918954745  0.2805675671855239  0.0655419872190548
  0.8553428127005450  0.0523419776926116  0.0543596772301666
  0.9555993834437224  0.1090309403445141  0.0512067443316556
  0.9560871967319042  0.2206655796607564  0.0508445525367069
  0.8562018597678376  0.2767908368562059  0.0546498474067993
  0.0571976527285713  0.3868067866674525  0.0457534589880747
  0.1568018563819603  0.4429049041471972  0.0443109456736051
  0.1563982581980744  0.5537565425036949  0.0431675514000116
  0.0576548628717216  0.6098488392126118  0.0428443892938276
  0.2571949713543825  0.3883729240389227  0.0467903980506702
  0.3566186453806450  0.4450417813338301  0.0499483110651478
  0.3546558097443130  0.5580691748264037  0.0503065447946620
  0.2549551765496687  0.6109056389168399  0.0456590232196103
  0.7598345293487018  0.4483795527922381  0.0608612144226080
  0.8576063135299504  0.3887266794304144  0.0532833957767242
  0.9580327671174017  0.4425403929145530  0.0474292595662651
  0.9589161744345565  0.5536894112833938  0.0456739004241820
  0.8603117058722100  0.6087872362192803  0.0506993161724501
  0.0573161268167286  0.7208472023704349  0.0435108245574035
  0.1557040612734563  0.7776418628644146  0.0447955104096229
  0.1562617801988093  0.8884113160742302  0.0469625736730006
  0.0562243432942136  0.9437244475305560  0.0477425989950802
  0.2544074157590087  0.7216908875024277  0.0467085506636061
  0.3530880443766891  0.7766888584514681  0.0520105256759962
  0.3553316047964632  0.8876485863572077  0.0533083087473856
  0.2563360061202000  0.9438154077671472  0.0500620834192309
  0.4499466810055213  0.7184596316210847  0.0587182313702478
  0.5532835645980111  0.8795371084209995  0.0627837723238084
  0.4562970921782732  0.9409864785790170  0.0580070077268213
  0.7573140315742045  0.8798509016631637  0.0579598110449342
  0.6556281074704643  0.9349647841481800  0.0619255240921812
  0.8601659160351139  0.7207295550164768  0.0503670146555209
  0.9582629729700914  0.7763175902653900  0.0464475266017009
  0.9569513092142393  0.8873927214143961  0.0487457359951406
  0.8556182965574420  0.9402475220326936  0.0534120380451881
  0.4561975658930050  0.3907613534343361  0.0569836704754176
  0.6604399846813681  0.3926972300450421  0.0706309151128354
  0.4498519660139347  0.6117055394650656  0.0578815307964451
  0.7635764144508081  0.5584661747610360  0.0595892920075760
  0.5474592483928322  0.7707028594696256  0.0662249322248752
  0.7622516099637577  0.7711369396654506  0.0577337717553361
  0.6568569741659029  0.6683825320452563  0.0773877564535626
  0.5536084886883974  0.4898545935710071  0.0836630043946584
  0.6040170687571507  0.5876773434632870  0.1513743140439697
  0.6630963712238960  0.5531125892599600  0.1750581381098110
 
  0.00000000E+00  0.00000000E+00  0.00000000E+00
  0.00000000E+00  0.00000000E+00  0.00000000E+00
  0.00000000E+00  0.00000000E+00  0.00000000E+00
  0.00000000E+00  0.00000000E+00  0.00000000E+00
  0.00000000E+00  0.00000000E+00  0.00000000E+00
  0.00000000E+00  0.00000000E+00  0.00000000E+00
  0.00000000E+00  0.00000000E+00  0.00000000E+00
  0.00000000E+00  0.00000000E+00  0.00000000E+00
  0.00000000E+00  0.00000000E+00  0.00000000E+00
  0.00000000E+00  0.00000000E+00  0.00000000E+00
  0.00000000E+00  0.00000000E+00  0.00000000E+00
  0.00000000E+00  0.00000000E+00  0.00000000E+00
  0.00000000E+00  0.00000000E+00  0.00000000E+00
  0.00000000E+00  0.00000000E+00  0.00000000E+00
  0.00000000E+00  0.00000000E+00  0.00000000E+00
  0.00000000E+00  0.00000000E+00  0.00000000E+00
  0.00000000E+00  0.00000000E+00  0.00000000E+00
  0.00000000E+00  0.00000000E+00  0.00000000E+00
  0.00000000E+00  0.00000000E+00  0.00000000E+00
  0.00000000E+00  0.00000000E+00  0.00000000E+00
  0.00000000E+00  0.00000000E+00  0.00000000E+00
  0.00000000E+00  0.00000000E+00  0.00000000E+00
  0.00000000E+00  0.00000000E+00  0.00000000E+00
  0.00000000E+00  0.00000000E+00  0.00000000E+00
  0.00000000E+00  0.00000000E+00  0.00000000E+00
  0.00000000E+00  0.00000000E+00  0.00000000E+00
  0.00000000E+00  0.00000000E+00  0.00000000E+00
  0.00000000E+00  0.00000000E+00  0.00000000E+00
  0.00000000E+00  0.00000000E+00  0.00000000E+00
  0.00000000E+00  0.00000000E+00  0.00000000E+00
  0.00000000E+00  0.00000000E+00  0.00000000E+00
  0.00000000E+00  0.00000000E+00  0.00000000E+00
  0.00000000E+00  0.00000000E+00  0.00000000E+00
  0.00000000E+00  0.00000000E+00  0.00000000E+00
  0.00000000E+00  0.00000000E+00  0.00000000E+00
  0.00000000E+00  0.00000000E+00  0.00000000E+00
  0.00000000E+00  0.00000000E+00  0.00000000E+00
  0.00000000E+00  0.00000000E+00  0.00000000E+00
  0.00000000E+00  0.00000000E+00  0.00000000E+00
  0.00000000E+00  0.00000000E+00  0.00000000E+00
  0.00000000E+00  0.00000000E+00  0.00000000E+00
  0.00000000E+00  0.00000000E+00  0.00000000E+00
  0.00000000E+00  0.00000000E+00  0.00000000E+00
  0.00000000E+00  0.00000000E+00  0.00000000E+00
  0.00000000E+00  0.00000000E+00  0.00000000E+00
  0.00000000E+00  0.00000000E+00  0.00000000E+00
  0.00000000E+00  0.00000000E+00  0.00000000E+00
  0.00000000E+00  0.00000000E+00  0.00000000E+00
  0.00000000E+00  0.00000000E+00  0.00000000E+00
  0.00000000E+00  0.00000000E+00  0.00000000E+00
  0.00000000E+00  0.00000000E+00  0.00000000E+00
  0.00000000E+00  0.00000000E+00  0.00000000E+00
  0.00000000E+00  0.00000000E+00  0.00000000E+00
  0.00000000E+00  0.00000000E+00  0.00000000E+00
  0.00000000E+00  0.00000000E+00  0.00000000E+00
  0.00000000E+00  0.00000000E+00  0.00000000E+00
  0.00000000E+00  0.00000000E+00  0.00000000E+00
  0.00000000E+00  0.00000000E+00  0.00000000E+00
  0.00000000E+00  0.00000000E+00  0.00000000E+00
  0.00000000E+00  0.00000000E+00  0.00000000E+00
