an6                                     
   1.00000000000000     
    12.3312997818000003    0.0000000000000000    0.0000000000000000
     0.0001127485000000   12.8291997905000006    0.0000000000000000
     0.0005937186000000    0.0011528207000000   19.9943999824000009
   C    N    Fe   Ni
    53     3     1     1
Direct
  0.0558438857287087  0.0546665109365948  0.0557816200959068
  0.1558822966106769  0.1108922925090531  0.0557997228169676
  0.1566304360692582  0.2217719679474082  0.0557837156749039
  0.0567380941694316  0.2766443493881637  0.0557676156649457
  0.2560004850511274  0.0563440531022164  0.0558048015623250
  0.3565726718774176  0.1118811629985571  0.0557764569005058
  0.3571907616195442  0.2237547237082671  0.0557467003398519
  0.2567251268482324  0.2776243866966986  0.0557644269216364
  0.4558670614960352  0.0555227909377098  0.0557434431279795
  0.5560401254095969  0.1112895857904415  0.0557009467280981
  0.5563989581889289  0.2234947513277908  0.0556896134588297
  0.4566392104561441  0.2820091989639735  0.0556891002671739
  0.6556277813205140  0.0515289554099796  0.0556557454912914
  0.7556020390040805  0.1083743881143655  0.0556749672363342
  0.7569147765997482  0.2203272357531986  0.0556942404167547
  0.6577346423596996  0.2784035942942826  0.0556805513496555
  0.8549521790254869  0.0522771544328659  0.0556902762252782
  0.9554765734654540  0.1088710075646214  0.0557380560100795
  0.9566931922209831  0.2203793150903492  0.0557421150376433
  0.8571495979205088  0.2761689549797317  0.0557156621542896
  0.0582655182410441  0.3880284793406859  0.0557573686785173
  0.1576838134026528  0.4440120356226935  0.0557633853866034
  0.1577564877859559  0.5549210755312790  0.0557692757154910
  0.0573385339833994  0.6100588732889850  0.0557681128762309
  0.2576802463160709  0.3887087773129904  0.0557520504646421
  0.3577701369752386  0.4433109147841042  0.0557112425840405
  0.3603845348632368  0.5568734258939492  0.0557062563324873
  0.2577502848825331  0.6105296034348188  0.0557603666200658
  0.7609891022961424  0.4449123559732783  0.0556601171898559
  0.8597743756903359  0.3875521075159425  0.0557027712461411
  0.9587253153546134  0.4435012819419329  0.0557293353753885
  0.9575491061062175  0.5546415728997470  0.0557327626704538
  0.8565460643483979  0.6098177370817831  0.0556914169379516
  0.0562028797908338  0.7210839740140923  0.0557839810465798
  0.1548576819484614  0.7772302484741611  0.0558115323242913
  0.1551574063036695  0.8884849418567614  0.0558215480949595
  0.0553318058201879  0.9436263239394701  0.0557912896442032
  0.2544810686245930  0.7215762126616222  0.0557894371328973
  0.3518963657371894  0.7789394341935985  0.0557544881113948
  0.3537692173712533  0.8897717370887354  0.0557754066793896
  0.2546537454070418  0.9451870416130659  0.0558166909157960
  0.4507239916328623  0.7242513770122400  0.0556668582487056
  0.5523702953522008  0.8850393339114422  0.0556430394569488
  0.4542638287541510  0.9443287319895500  0.0557288310199513
  0.7553898432982064  0.8802875762466614  0.0556235006304660
  0.6551959085897292  0.9384149416383722  0.0556155755005715
  0.8573877233639423  0.7217696730585461  0.0556848863798245
  0.9563922045097484  0.7767823907067168  0.0557459192644218
  0.9558379240376758  0.8874973117645837  0.0557409730066555
  0.8544184988281319  0.9401420442668608  0.0556747128781882
  0.4602634023578203  0.6134173161899406  0.0556519786292522
  0.6633713107767261  0.3874193981416524  0.0556536703210538
  0.7554011146376803  0.5571346537136024  0.0556502729808196
  0.4547117761454451  0.3906324141492777  0.0556699419865388
  0.5466446767862738  0.7794592344027365  0.0556119243238084
  0.7586286755396049  0.7708632388584499  0.0556139499526215
  0.6376272807319001  0.6633987405460080  0.0556063360585434
  0.5674580009672715  0.4927070369933734  0.0556190278537637
 
  0.00000000E+00  0.00000000E+00  0.00000000E+00
  0.00000000E+00  0.00000000E+00  0.00000000E+00
  0.00000000E+00  0.00000000E+00  0.00000000E+00
  0.00000000E+00  0.00000000E+00  0.00000000E+00
  0.00000000E+00  0.00000000E+00  0.00000000E+00
  0.00000000E+00  0.00000000E+00  0.00000000E+00
  0.00000000E+00  0.00000000E+00  0.00000000E+00
  0.00000000E+00  0.00000000E+00  0.00000000E+00
  0.00000000E+00  0.00000000E+00  0.00000000E+00
  0.00000000E+00  0.00000000E+00  0.00000000E+00
  0.00000000E+00  0.00000000E+00  0.00000000E+00
  0.00000000E+00  0.00000000E+00  0.00000000E+00
  0.00000000E+00  0.00000000E+00  0.00000000E+00
  0.00000000E+00  0.00000000E+00  0.00000000E+00
  0.00000000E+00  0.00000000E+00  0.00000000E+00
  0.00000000E+00  0.00000000E+00  0.00000000E+00
  0.00000000E+00  0.00000000E+00  0.00000000E+00
  0.00000000E+00  0.00000000E+00  0.00000000E+00
  0.00000000E+00  0.00000000E+00  0.00000000E+00
  0.00000000E+00  0.00000000E+00  0.00000000E+00
  0.00000000E+00  0.00000000E+00  0.00000000E+00
  0.00000000E+00  0.00000000E+00  0.00000000E+00
  0.00000000E+00  0.00000000E+00  0.00000000E+00
  0.00000000E+00  0.00000000E+00  0.00000000E+00
  0.00000000E+00  0.00000000E+00  0.00000000E+00
  0.00000000E+00  0.00000000E+00  0.00000000E+00
  0.00000000E+00  0.00000000E+00  0.00000000E+00
  0.00000000E+00  0.00000000E+00  0.00000000E+00
  0.00000000E+00  0.00000000E+00  0.00000000E+00
  0.00000000E+00  0.00000000E+00  0.00000000E+00
  0.00000000E+00  0.00000000E+00  0.00000000E+00
  0.00000000E+00  0.00000000E+00  0.00000000E+00
  0.00000000E+00  0.00000000E+00  0.00000000E+00
  0.00000000E+00  0.00000000E+00  0.00000000E+00
  0.00000000E+00  0.00000000E+00  0.00000000E+00
  0.00000000E+00  0.00000000E+00  0.00000000E+00
  0.00000000E+00  0.00000000E+00  0.00000000E+00
  0.00000000E+00  0.00000000E+00  0.00000000E+00
  0.00000000E+00  0.00000000E+00  0.00000000E+00
  0.00000000E+00  0.00000000E+00  0.00000000E+00
  0.00000000E+00  0.00000000E+00  0.00000000E+00
  0.00000000E+00  0.00000000E+00  0.00000000E+00
  0.00000000E+00  0.00000000E+00  0.00000000E+00
  0.00000000E+00  0.00000000E+00  0.00000000E+00
  0.00000000E+00  0.00000000E+00  0.00000000E+00
  0.00000000E+00  0.00000000E+00  0.00000000E+00
  0.00000000E+00  0.00000000E+00  0.00000000E+00
  0.00000000E+00  0.00000000E+00  0.00000000E+00
  0.00000000E+00  0.00000000E+00  0.00000000E+00
  0.00000000E+00  0.00000000E+00  0.00000000E+00
  0.00000000E+00  0.00000000E+00  0.00000000E+00
  0.00000000E+00  0.00000000E+00  0.00000000E+00
  0.00000000E+00  0.00000000E+00  0.00000000E+00
  0.00000000E+00  0.00000000E+00  0.00000000E+00
  0.00000000E+00  0.00000000E+00  0.00000000E+00
  0.00000000E+00  0.00000000E+00  0.00000000E+00
  0.00000000E+00  0.00000000E+00  0.00000000E+00
  0.00000000E+00  0.00000000E+00  0.00000000E+00
