CONTCAR\(4)                             
   1.00000000000000     
    12.3312997818000003    0.0000000000000000    0.0000000000000000
     0.0001127485000000   12.8291997905000006    0.0000000000000000
     0.0005937186000000    0.0011528207000000   19.9943999824000009
   C    N    Fe   Ni   O 
    54     2     1     1     1
Direct
  0.0557567664252580  0.0548533716622717  0.0507841086063175
  0.1562091450936006  0.1100747973801955  0.0509886524320548
  0.1566740790041448  0.2210330780461551  0.0499089305086648
  0.0566140902998109  0.2757643380733296  0.0483422277649965
  0.2564844550575335  0.0551803391343850  0.0529180807808283
  0.3568155904562386  0.1109972631978772  0.0563385054883507
  0.3572504328808242  0.2228397774701618  0.0562596333671511
  0.2567165361936762  0.2771751594919537  0.0515360534225419
  0.4563836399884754  0.0550189313952695  0.0600161880024316
  0.5563628662265702  0.1119350484175964  0.0630372251477212
  0.5569945322357388  0.2238697728260436  0.0645188536703335
  0.4567610891330851  0.2806116285288761  0.0613049638118247
  0.6557332469801140  0.0531130356152539  0.0626671518067501
  0.7554749039144117  0.1102408376517438  0.0591394308929845
  0.7560639031665352  0.2226542561484169  0.0588213819502369
  0.6576377281862584  0.2820880721536947  0.0647013266673745
  0.8550411870075719  0.0540198981101828  0.0554476507371669
  0.9554335792284423  0.1097516374747072  0.0522002188227754
  0.9560747181973498  0.2208273680158954  0.0509137620211812
  0.8563929051487997  0.2769199647880534  0.0534180933115640
  0.0575090020600142  0.3867124954089615  0.0459976100534291
  0.1562458325746576  0.4430129607765410  0.0459535734934489
  0.1557603772065908  0.5544969163115711  0.0450450701745089
  0.0571552110530804  0.6101048655654799  0.0441516495450509
  0.2561900328677595  0.3882532822426657  0.0495221838329606
  0.3553195373000586  0.4446122166712888  0.0536757492717652
  0.3535707130442437  0.5577459162196094  0.0533025489813278
  0.2540505653371231  0.6115616306308412  0.0479874879892397
  0.7604793926323662  0.4473786967907548  0.0561504292047151
  0.8581616860835387  0.3882157171553979  0.0508319282230538
  0.9581219168294818  0.4423520129781094  0.0461507260856412
  0.9589215592415378  0.5529690303466221  0.0450286264802539
  0.8594763006762359  0.6068329759795283  0.0479094526094540
  0.0561450870640367  0.7216285720396386  0.0452866786030654
  0.1546189559913065  0.7779553457269732  0.0469524412611764
  0.1553849655335628  0.8890177453687295  0.0490341324826395
  0.0553306594578507  0.9438494138303037  0.0497917486660310
  0.2538108002558492  0.7222277727899287  0.0489422706363853
  0.3530985112427392  0.7766044250638011  0.0542841001151870
  0.3554273170360055  0.8880585437904461  0.0553523769671556
  0.2558077777794316  0.9440889266739131  0.0520070914413744
  0.4503039977811305  0.7176791947038011  0.0612695456574148
  0.5542046571781203  0.8835769704150603  0.0651028639597362
  0.4556615306137097  0.9427789305410991  0.0602160115771570
  0.7552130360557696  0.8840988607374145  0.0601159281124562
  0.6551727047118661  0.9410873772074374  0.0638407878324967
  0.8572842062982206  0.7201505986225367  0.0508089191788808
  0.9563008583366985  0.7765579124683105  0.0480028697663583
  0.9553378390803444  0.8876901666520766  0.0507268452283254
  0.8546721082869719  0.9420210304801049  0.0552399786511924
  0.4547425361009745  0.3919807193540693  0.0617341877101001
  0.6605102797514802  0.3934262151076149  0.0683543268917983
  0.5500475695991277  0.7727319222830235  0.0689901406661441
  0.7577815464142164  0.7724735518184657  0.0593744532722330
  0.7646284627457177  0.5550820824077363  0.0524281309568275
  0.4480597179383554  0.6093391260911997  0.0609292244931469
  0.6534006293758724  0.6655451830708123  0.0804590627468212
  0.5556546025714070  0.4909829662251008  0.0876156916735882
  0.6192722000681505  0.5841591538709661  0.1468907222942006
 
  0.00000000E+00  0.00000000E+00  0.00000000E+00
  0.00000000E+00  0.00000000E+00  0.00000000E+00
  0.00000000E+00  0.00000000E+00  0.00000000E+00
  0.00000000E+00  0.00000000E+00  0.00000000E+00
  0.00000000E+00  0.00000000E+00  0.00000000E+00
  0.00000000E+00  0.00000000E+00  0.00000000E+00
  0.00000000E+00  0.00000000E+00  0.00000000E+00
  0.00000000E+00  0.00000000E+00  0.00000000E+00
  0.00000000E+00  0.00000000E+00  0.00000000E+00
  0.00000000E+00  0.00000000E+00  0.00000000E+00
  0.00000000E+00  0.00000000E+00  0.00000000E+00
  0.00000000E+00  0.00000000E+00  0.00000000E+00
  0.00000000E+00  0.00000000E+00  0.00000000E+00
  0.00000000E+00  0.00000000E+00  0.00000000E+00
  0.00000000E+00  0.00000000E+00  0.00000000E+00
  0.00000000E+00  0.00000000E+00  0.00000000E+00
  0.00000000E+00  0.00000000E+00  0.00000000E+00
  0.00000000E+00  0.00000000E+00  0.00000000E+00
  0.00000000E+00  0.00000000E+00  0.00000000E+00
  0.00000000E+00  0.00000000E+00  0.00000000E+00
  0.00000000E+00  0.00000000E+00  0.00000000E+00
  0.00000000E+00  0.00000000E+00  0.00000000E+00
  0.00000000E+00  0.00000000E+00  0.00000000E+00
  0.00000000E+00  0.00000000E+00  0.00000000E+00
  0.00000000E+00  0.00000000E+00  0.00000000E+00
  0.00000000E+00  0.00000000E+00  0.00000000E+00
  0.00000000E+00  0.00000000E+00  0.00000000E+00
  0.00000000E+00  0.00000000E+00  0.00000000E+00
  0.00000000E+00  0.00000000E+00  0.00000000E+00
  0.00000000E+00  0.00000000E+00  0.00000000E+00
  0.00000000E+00  0.00000000E+00  0.00000000E+00
  0.00000000E+00  0.00000000E+00  0.00000000E+00
  0.00000000E+00  0.00000000E+00  0.00000000E+00
  0.00000000E+00  0.00000000E+00  0.00000000E+00
  0.00000000E+00  0.00000000E+00  0.00000000E+00
  0.00000000E+00  0.00000000E+00  0.00000000E+00
  0.00000000E+00  0.00000000E+00  0.00000000E+00
  0.00000000E+00  0.00000000E+00  0.00000000E+00
  0.00000000E+00  0.00000000E+00  0.00000000E+00
  0.00000000E+00  0.00000000E+00  0.00000000E+00
  0.00000000E+00  0.00000000E+00  0.00000000E+00
  0.00000000E+00  0.00000000E+00  0.00000000E+00
  0.00000000E+00  0.00000000E+00  0.00000000E+00
  0.00000000E+00  0.00000000E+00  0.00000000E+00
  0.00000000E+00  0.00000000E+00  0.00000000E+00
  0.00000000E+00  0.00000000E+00  0.00000000E+00
  0.00000000E+00  0.00000000E+00  0.00000000E+00
  0.00000000E+00  0.00000000E+00  0.00000000E+00
  0.00000000E+00  0.00000000E+00  0.00000000E+00
  0.00000000E+00  0.00000000E+00  0.00000000E+00
  0.00000000E+00  0.00000000E+00  0.00000000E+00
  0.00000000E+00  0.00000000E+00  0.00000000E+00
  0.00000000E+00  0.00000000E+00  0.00000000E+00
  0.00000000E+00  0.00000000E+00  0.00000000E+00
  0.00000000E+00  0.00000000E+00  0.00000000E+00
  0.00000000E+00  0.00000000E+00  0.00000000E+00
  0.00000000E+00  0.00000000E+00  0.00000000E+00
  0.00000000E+00  0.00000000E+00  0.00000000E+00
  0.00000000E+00  0.00000000E+00  0.00000000E+00
