CONTCAR\(7)                             
   1.00000000000000     
    12.3312997818000003    0.0000000000000000    0.0000000000000000
     0.0001127485000000   12.8291997905000006    0.0000000000000000
     0.0005937186000000    0.0011528207000000   19.9943999824000009
   C    N    Fe   Ni   O 
    50     6     1     1     2
Direct
  0.0551021036679608  0.0539909959129188  0.0519621784109258
  0.1556707975027727  0.1098329119878542  0.0516361773733025
  0.1557183871220539  0.2206529181079915  0.0506527839295395
  0.0554861201724371  0.2757064553976108  0.0501532906467138
  0.2562594884394491  0.0552080643491216  0.0528634182065301
  0.3567035448614397  0.1109767035827496  0.0551241629464485
  0.3561531245116358  0.2229302849843869  0.0546539682797344
  0.2555220936393700  0.2767561368251977  0.0512694820100539
  0.4570251855008931  0.0550435823538561  0.0578528119078531
  0.5566283826960930  0.1128602236989301  0.0602414287439876
  0.5570786039967038  0.2279426868774817  0.0610858818011996
  0.4545501349722401  0.2833474081648186  0.0583614267883794
  0.6544717151946166  0.0515106358219035  0.0603626505348761
  0.7539432096241175  0.1090250414288430  0.0583033385123271
  0.7552884946642113  0.2219841584674221  0.0581949274305059
  0.6585904640573239  0.2841308828988680  0.0616724552942929
  0.8539758044428352  0.0525076988597442  0.0556812317150499
  0.9544943409678240  0.1084912645766921  0.0532793994991449
  0.9553846522164646  0.2201312305962621  0.0525052187282842
  0.8561115949767821  0.2764328337150259  0.0547433329980667
  0.0561698218880510  0.3866975625795920  0.0485573245829492
  0.1553398012443785  0.4430984743279466  0.0476230871657213
  0.1554261013881738  0.5537649809843717  0.0474366550037034
  0.0564653770674511  0.6099374946873127  0.0478806827562010
  0.2546349918944981  0.3881024483989621  0.0495821074426866
  0.3539128135954347  0.4432323638411715  0.0530714661172045
  0.3545302987070705  0.5564160774859475  0.0535221964576934
  0.2546342654695346  0.6098979893911158  0.0495720132198877
  0.7606076236414981  0.4461083304782438  0.0583529926134992
  0.8584110689287553  0.3878324940321456  0.0535687213864831
  0.9575660707235061  0.4425622823030795  0.0498744917915366
  0.9573232976610467  0.5538818047468953  0.0497045181009682
  0.8578307699411502  0.6075031318382239  0.0534712948028425
  0.0560061696507555  0.7205981032550001  0.0486485921624021
  0.1549080791986842  0.7770825362999850  0.0491843569975321
  0.1554789034517216  0.8879997957562406  0.0506124728658923
  0.0551805886966932  0.9430737517217810  0.0514674383002810
  0.2536479695589129  0.7211854645820421  0.0502221725387060
  0.3524783887505525  0.7763861995525082  0.0535405325674254
  0.3548155729385745  0.8878186431794756  0.0542163512745970
  0.2555518061092451  0.9436957909391671  0.0523319091550136
  0.4498258820039185  0.7182270293300549  0.0579373084269412
  0.5526043869629697  0.8806926152638631  0.0602251496560722
  0.4557228264403918  0.9422922153909219  0.0574209813740988
  0.7558101910743878  0.8799449938930929  0.0593291705285003
  0.6539466979701107  0.9361864554172703  0.0608935892471077
  0.8579742820667382  0.7199463880352995  0.0543493840721906
  0.9565538147408535  0.7756025144843322  0.0511055500428648
  0.9555329561257589  0.8869545581185521  0.0526444928422052
  0.8544012144498659  0.9403055475886629  0.0556942858810745
  0.4496548112597790  0.3904844915226143  0.0589757176608271
  0.4512988797534424  0.6104267934779111  0.0587185792477381
  0.6649895021171235  0.3933064263716948  0.0643440313779264
  0.7603061139165165  0.5548191373565160  0.0573427805752307
  0.5468760889419223  0.7711199943217002  0.0611987981249740
  0.7605198940664977  0.7716347038772178  0.0605475061581372
  0.6527735045694956  0.6683913650695102  0.0759360215291026
  0.5567750074653984  0.4961434789055519  0.0813561132365353
  0.5975674551048344  0.5448038740174389  0.1676567267381425
  0.6455183832370714  0.6417795175689086  0.1618528782198426
 
  0.00000000E+00  0.00000000E+00  0.00000000E+00
  0.00000000E+00  0.00000000E+00  0.00000000E+00
  0.00000000E+00  0.00000000E+00  0.00000000E+00
  0.00000000E+00  0.00000000E+00  0.00000000E+00
  0.00000000E+00  0.00000000E+00  0.00000000E+00
  0.00000000E+00  0.00000000E+00  0.00000000E+00
  0.00000000E+00  0.00000000E+00  0.00000000E+00
  0.00000000E+00  0.00000000E+00  0.00000000E+00
  0.00000000E+00  0.00000000E+00  0.00000000E+00
  0.00000000E+00  0.00000000E+00  0.00000000E+00
  0.00000000E+00  0.00000000E+00  0.00000000E+00
  0.00000000E+00  0.00000000E+00  0.00000000E+00
  0.00000000E+00  0.00000000E+00  0.00000000E+00
  0.00000000E+00  0.00000000E+00  0.00000000E+00
  0.00000000E+00  0.00000000E+00  0.00000000E+00
  0.00000000E+00  0.00000000E+00  0.00000000E+00
  0.00000000E+00  0.00000000E+00  0.00000000E+00
  0.00000000E+00  0.00000000E+00  0.00000000E+00
  0.00000000E+00  0.00000000E+00  0.00000000E+00
  0.00000000E+00  0.00000000E+00  0.00000000E+00
  0.00000000E+00  0.00000000E+00  0.00000000E+00
  0.00000000E+00  0.00000000E+00  0.00000000E+00
  0.00000000E+00  0.00000000E+00  0.00000000E+00
  0.00000000E+00  0.00000000E+00  0.00000000E+00
  0.00000000E+00  0.00000000E+00  0.00000000E+00
  0.00000000E+00  0.00000000E+00  0.00000000E+00
  0.00000000E+00  0.00000000E+00  0.00000000E+00
  0.00000000E+00  0.00000000E+00  0.00000000E+00
  0.00000000E+00  0.00000000E+00  0.00000000E+00
  0.00000000E+00  0.00000000E+00  0.00000000E+00
  0.00000000E+00  0.00000000E+00  0.00000000E+00
  0.00000000E+00  0.00000000E+00  0.00000000E+00
  0.00000000E+00  0.00000000E+00  0.00000000E+00
  0.00000000E+00  0.00000000E+00  0.00000000E+00
  0.00000000E+00  0.00000000E+00  0.00000000E+00
  0.00000000E+00  0.00000000E+00  0.00000000E+00
  0.00000000E+00  0.00000000E+00  0.00000000E+00
  0.00000000E+00  0.00000000E+00  0.00000000E+00
  0.00000000E+00  0.00000000E+00  0.00000000E+00
  0.00000000E+00  0.00000000E+00  0.00000000E+00
  0.00000000E+00  0.00000000E+00  0.00000000E+00
  0.00000000E+00  0.00000000E+00  0.00000000E+00
  0.00000000E+00  0.00000000E+00  0.00000000E+00
  0.00000000E+00  0.00000000E+00  0.00000000E+00
  0.00000000E+00  0.00000000E+00  0.00000000E+00
  0.00000000E+00  0.00000000E+00  0.00000000E+00
  0.00000000E+00  0.00000000E+00  0.00000000E+00
  0.00000000E+00  0.00000000E+00  0.00000000E+00
  0.00000000E+00  0.00000000E+00  0.00000000E+00
  0.00000000E+00  0.00000000E+00  0.00000000E+00
  0.00000000E+00  0.00000000E+00  0.00000000E+00
  0.00000000E+00  0.00000000E+00  0.00000000E+00
  0.00000000E+00  0.00000000E+00  0.00000000E+00
  0.00000000E+00  0.00000000E+00  0.00000000E+00
  0.00000000E+00  0.00000000E+00  0.00000000E+00
  0.00000000E+00  0.00000000E+00  0.00000000E+00
  0.00000000E+00  0.00000000E+00  0.00000000E+00
  0.00000000E+00  0.00000000E+00  0.00000000E+00
  0.00000000E+00  0.00000000E+00  0.00000000E+00
  0.00000000E+00  0.00000000E+00  0.00000000E+00
