CONTCAR\(4)                             
   1.00000000000000     
    12.3312997818000003    0.0000000000000000    0.0000000000000000
     0.0001127485000000   12.8291997905000006    0.0000000000000000
     0.0005937186000000    0.0011528207000000   19.9943999824000009
   C    N    Fe   Ni   O 
    53     3     1     1     2
Direct
  0.0569143369533954  0.0548641582528522  0.0487366026427764
  0.1572905636693702  0.1096723124685798  0.0483529439046915
  0.1566908100619026  0.2206585135048694  0.0472714398393648
  0.0560980059160098  0.2760903535874056  0.0471337288368110
  0.2580176220670259  0.0540848691555531  0.0498623230883089
  0.3583739839333484  0.1096474630422926  0.0529756487213563
  0.3578358050537961  0.2219432992639138  0.0518813411815482
  0.2566940452443529  0.2761499605503307  0.0475702071665005
  0.4583446203932131  0.0529698009037818  0.0570866243150617
  0.5580648218779900  0.1105985247595601  0.0606500154406976
  0.5577799212253935  0.2235960498897910  0.0609108457734285
  0.4574449830724208  0.2803544007028349  0.0557701427857941
  0.6572346008003744  0.0512163451599576  0.0617438137897733
  0.7560545441773926  0.1093256808571482  0.0587855846018727
  0.7565591390377507  0.2219199357638023  0.0589450291633761
  0.6583080659213705  0.2813292953038588  0.0629040881541508
  0.8561431418763967  0.0540125818022087  0.0545042105879274
  0.9562756639454771  0.1097227296597648  0.0509619380681784
  0.9562150700784808  0.2209807476899512  0.0504872283959678
  0.8562915585513603  0.2771434901583963  0.0542182934850730
  0.0551421574917128  0.3873510571182363  0.0451554946821464
  0.1542971090941299  0.4426269004323856  0.0431078662038319
  0.1540113775468745  0.5538245360084540  0.0419182263044504
  0.0552423553103040  0.6099763284109707  0.0426858812078996
  0.2543460246472571  0.3871458483013016  0.0450769394706711
  0.3528006899420214  0.4434353400970537  0.0470938464020979
  0.3519009994091768  0.5555856064973057  0.0470581797029762
  0.2530260418848942  0.6103701540157047  0.0433457994923066
  0.7562811855481228  0.4458074066980544  0.0597493082611761
  0.8559814147290058  0.3887794101552118  0.0531727759542347
  0.9553777333291942  0.4438107917074378  0.0473966638159808
  0.9553948824072079  0.5548134096883153  0.0461643233535698
  0.8555938115881427  0.6104033391944169  0.0516105942760967
  0.0568964676960910  0.7212258723314811  0.0430517982149849
  0.1558074680908378  0.7771713479587625  0.0435995811494597
  0.1572625812216696  0.8882058562508170  0.0460197977175986
  0.0573389659613276  0.9439832901677672  0.0475594333803892
  0.2547975309743485  0.7208474728765629  0.0446203599684362
  0.3553731391588077  0.7734819170584999  0.0498616337809707
  0.3578613476176634  0.8855218452887120  0.0517821042582488
  0.2580353990415944  0.9425318757392850  0.0488116163493432
  0.4524597932668768  0.7127552269904698  0.0558779707026807
  0.5569318739519400  0.8792071595975256  0.0626682560609019
  0.4582822429471786  0.9399963215313329  0.0570708423523349
  0.7591060924609184  0.8834914778161450  0.0613703065800744
  0.6574067849402236  0.9378962907157944  0.0634972768245179
  0.8598866210899495  0.7232834776549176  0.0529586560540071
  0.9579406622723357  0.7777273284201168  0.0469511025025995
  0.9578160955874344  0.8886627887804206  0.0493840360424869
  0.8570941320780038  0.9422959852962330  0.0544445431598312
  0.4527117768763199  0.3914802589359586  0.0532808516672919
  0.7545783607679827  0.5588849744469110  0.0597966905711765
  0.5528310218623189  0.7666516650738144  0.0659131615799646
  0.6610131659949710  0.3890244033211416  0.0658873456712830
  0.7643417438999515  0.7752872872922569  0.0655830174007074
  0.4485808253301589  0.6044170826345738  0.0534377764510780
  0.6634340304101601  0.6790664317493240  0.0989394913807797
  0.5556598702145892  0.4911643249888847  0.0706129026190274
  0.5699825094522600  0.5756402159209921  0.1645053423969487
  0.6550824770491940  0.6451471893595885  0.1821561460927930
 
  0.00000000E+00  0.00000000E+00  0.00000000E+00
  0.00000000E+00  0.00000000E+00  0.00000000E+00
  0.00000000E+00  0.00000000E+00  0.00000000E+00
  0.00000000E+00  0.00000000E+00  0.00000000E+00
  0.00000000E+00  0.00000000E+00  0.00000000E+00
  0.00000000E+00  0.00000000E+00  0.00000000E+00
  0.00000000E+00  0.00000000E+00  0.00000000E+00
  0.00000000E+00  0.00000000E+00  0.00000000E+00
  0.00000000E+00  0.00000000E+00  0.00000000E+00
  0.00000000E+00  0.00000000E+00  0.00000000E+00
  0.00000000E+00  0.00000000E+00  0.00000000E+00
  0.00000000E+00  0.00000000E+00  0.00000000E+00
  0.00000000E+00  0.00000000E+00  0.00000000E+00
  0.00000000E+00  0.00000000E+00  0.00000000E+00
  0.00000000E+00  0.00000000E+00  0.00000000E+00
  0.00000000E+00  0.00000000E+00  0.00000000E+00
  0.00000000E+00  0.00000000E+00  0.00000000E+00
  0.00000000E+00  0.00000000E+00  0.00000000E+00
  0.00000000E+00  0.00000000E+00  0.00000000E+00
  0.00000000E+00  0.00000000E+00  0.00000000E+00
  0.00000000E+00  0.00000000E+00  0.00000000E+00
  0.00000000E+00  0.00000000E+00  0.00000000E+00
  0.00000000E+00  0.00000000E+00  0.00000000E+00
  0.00000000E+00  0.00000000E+00  0.00000000E+00
  0.00000000E+00  0.00000000E+00  0.00000000E+00
  0.00000000E+00  0.00000000E+00  0.00000000E+00
  0.00000000E+00  0.00000000E+00  0.00000000E+00
  0.00000000E+00  0.00000000E+00  0.00000000E+00
  0.00000000E+00  0.00000000E+00  0.00000000E+00
  0.00000000E+00  0.00000000E+00  0.00000000E+00
  0.00000000E+00  0.00000000E+00  0.00000000E+00
  0.00000000E+00  0.00000000E+00  0.00000000E+00
  0.00000000E+00  0.00000000E+00  0.00000000E+00
  0.00000000E+00  0.00000000E+00  0.00000000E+00
  0.00000000E+00  0.00000000E+00  0.00000000E+00
  0.00000000E+00  0.00000000E+00  0.00000000E+00
  0.00000000E+00  0.00000000E+00  0.00000000E+00
  0.00000000E+00  0.00000000E+00  0.00000000E+00
  0.00000000E+00  0.00000000E+00  0.00000000E+00
  0.00000000E+00  0.00000000E+00  0.00000000E+00
  0.00000000E+00  0.00000000E+00  0.00000000E+00
  0.00000000E+00  0.00000000E+00  0.00000000E+00
  0.00000000E+00  0.00000000E+00  0.00000000E+00
  0.00000000E+00  0.00000000E+00  0.00000000E+00
  0.00000000E+00  0.00000000E+00  0.00000000E+00
  0.00000000E+00  0.00000000E+00  0.00000000E+00
  0.00000000E+00  0.00000000E+00  0.00000000E+00
  0.00000000E+00  0.00000000E+00  0.00000000E+00
  0.00000000E+00  0.00000000E+00  0.00000000E+00
  0.00000000E+00  0.00000000E+00  0.00000000E+00
  0.00000000E+00  0.00000000E+00  0.00000000E+00
  0.00000000E+00  0.00000000E+00  0.00000000E+00
  0.00000000E+00  0.00000000E+00  0.00000000E+00
  0.00000000E+00  0.00000000E+00  0.00000000E+00
  0.00000000E+00  0.00000000E+00  0.00000000E+00
  0.00000000E+00  0.00000000E+00  0.00000000E+00
  0.00000000E+00  0.00000000E+00  0.00000000E+00
  0.00000000E+00  0.00000000E+00  0.00000000E+00
  0.00000000E+00  0.00000000E+00  0.00000000E+00
  0.00000000E+00  0.00000000E+00  0.00000000E+00
