CONTCAR\(2)                             
   1.00000000000000     
    12.3312997818000003    0.0000000000000000    0.0000000000000000
     0.0001127485000000   12.8291997905000006    0.0000000000000000
     0.0005937186000000    0.0011528207000000   19.9943999824000009
   C    N    Fe   Ni   O    H 
    53     3     1     1     1     1
Direct
  0.0557169214381209  0.0552903373485799  0.0483027663845933
  0.1560980553868629  0.1103157008633308  0.0486908649669790
  0.1556931270959808  0.2210130753197589  0.0468396338019212
  0.0557611867380341  0.2767056998607852  0.0452028305342142
  0.2567928042112604  0.0556786310739745  0.0517230090981142
  0.3570132451397297  0.1116940912377129  0.0557636921907745
  0.3565112710930336  0.2236817501572519  0.0546953097029038
  0.2554320829544948  0.2765298097825896  0.0485090342208769
  0.4566750887652786  0.0559200007512120  0.0608063877751384
  0.5562341974094538  0.1137154540664844  0.0638185406622180
  0.5563362539529088  0.2268654235077284  0.0651832988011397
  0.4550186443436746  0.2831441221884020  0.0604872323222951
  0.6561431553465723  0.0541755821334045  0.0627525207912914
  0.7553886187627524  0.1114609098241430  0.0581644921895226
  0.7558275760918610  0.2238362081364984  0.0586170968235683
  0.6579263037265001  0.2840773041373743  0.0662409871788702
  0.8548691776039544  0.0548104293484286  0.0534287412049049
  0.9552778034211730  0.1104404888356121  0.0498166770833975
  0.9555159147599038  0.2218790003488753  0.0486718311885004
  0.8559776555226686  0.2785350649391627  0.0524611556066348
  0.0564506357871618  0.3879207693323794  0.0423595871043242
  0.1553955861772045  0.4438067872600500  0.0416193600298288
  0.1554312606922447  0.5550178905384608  0.0407476604994031
  0.0566013727354221  0.6113063533030481  0.0402705713733511
  0.2546084801818537  0.3871373050714312  0.0457956498527652
  0.3528769815987094  0.4418595943796697  0.0516083088326006
  0.3529115804504315  0.5543020145451102  0.0529846468095524
  0.2545383326799598  0.6104187205170991  0.0452335871736323
  0.7606094353258841  0.4493874953976945  0.0591552473827288
  0.8579342329553504  0.3901011480886542  0.0505234388860669
  0.9573263651549950  0.4442432571216533  0.0438172453968715
  0.9578235275454540  0.5554566202126991  0.0424086631158057
  0.8580695717735631  0.6099029659842720  0.0475005054714293
  0.0564938328584109  0.7223376423852838  0.0419785987412509
  0.1557331271530116  0.7779665252530764  0.0446505846553636
  0.1563310108042232  0.8890714145924793  0.0471946682748487
  0.0560316217195201  0.9443758316474357  0.0472878240811255
  0.2550555525580828  0.7217071318199578  0.0475898104342709
  0.3540788604552261  0.7763539308025655  0.0558108136340545
  0.3561103847184128  0.8880388703394149  0.0564033434044487
  0.2565570721228432  0.9443211208866862  0.0512973343393597
  0.4514916278366473  0.7177294985590041  0.0670555755210263
  0.5552175632804561  0.8847030691336870  0.0680318830646022
  0.4562067397008962  0.9436005737962744  0.0621492576118764
  0.7567554939804713  0.8838876310901901  0.0581273032816799
  0.6563070815369120  0.9410282507529734  0.0640766062108165
  0.8574645388406593  0.7231782751763804  0.0481715925112745
  0.9567292311542600  0.7778337574801748  0.0449700284718783
  0.9562086046294430  0.8889173276762270  0.0478686168069719
  0.8553749967158704  0.9427448475170499  0.0527700096456893
  0.4502870443006743  0.6054772636455796  0.0682660651524160
  0.6624201602965936  0.3947432411565033  0.0723623400352593
  0.5502808488967021  0.7744458605088023  0.0750304105412690
  0.4502656670973674  0.3917636003640227  0.0601009369482727
  0.7631790930320870  0.5580749397948173  0.0556811374656929
  0.7599443119597115  0.7748883890305541  0.0565898499590426
  0.6575645273796490  0.6712671703214109  0.0844136967440544
  0.5521252161556067  0.4923309528650399  0.0872138232903261
  0.6180739934659961  0.5812085318334477  0.1550622871208629
  0.5557153315278160  0.6103543699574325  0.1787250395960316
 
  0.00000000E+00  0.00000000E+00  0.00000000E+00
  0.00000000E+00  0.00000000E+00  0.00000000E+00
  0.00000000E+00  0.00000000E+00  0.00000000E+00
  0.00000000E+00  0.00000000E+00  0.00000000E+00
  0.00000000E+00  0.00000000E+00  0.00000000E+00
  0.00000000E+00  0.00000000E+00  0.00000000E+00
  0.00000000E+00  0.00000000E+00  0.00000000E+00
  0.00000000E+00  0.00000000E+00  0.00000000E+00
  0.00000000E+00  0.00000000E+00  0.00000000E+00
  0.00000000E+00  0.00000000E+00  0.00000000E+00
  0.00000000E+00  0.00000000E+00  0.00000000E+00
  0.00000000E+00  0.00000000E+00  0.00000000E+00
  0.00000000E+00  0.00000000E+00  0.00000000E+00
  0.00000000E+00  0.00000000E+00  0.00000000E+00
  0.00000000E+00  0.00000000E+00  0.00000000E+00
  0.00000000E+00  0.00000000E+00  0.00000000E+00
  0.00000000E+00  0.00000000E+00  0.00000000E+00
  0.00000000E+00  0.00000000E+00  0.00000000E+00
  0.00000000E+00  0.00000000E+00  0.00000000E+00
  0.00000000E+00  0.00000000E+00  0.00000000E+00
  0.00000000E+00  0.00000000E+00  0.00000000E+00
  0.00000000E+00  0.00000000E+00  0.00000000E+00
  0.00000000E+00  0.00000000E+00  0.00000000E+00
  0.00000000E+00  0.00000000E+00  0.00000000E+00
  0.00000000E+00  0.00000000E+00  0.00000000E+00
  0.00000000E+00  0.00000000E+00  0.00000000E+00
  0.00000000E+00  0.00000000E+00  0.00000000E+00
  0.00000000E+00  0.00000000E+00  0.00000000E+00
  0.00000000E+00  0.00000000E+00  0.00000000E+00
  0.00000000E+00  0.00000000E+00  0.00000000E+00
  0.00000000E+00  0.00000000E+00  0.00000000E+00
  0.00000000E+00  0.00000000E+00  0.00000000E+00
  0.00000000E+00  0.00000000E+00  0.00000000E+00
  0.00000000E+00  0.00000000E+00  0.00000000E+00
  0.00000000E+00  0.00000000E+00  0.00000000E+00
  0.00000000E+00  0.00000000E+00  0.00000000E+00
  0.00000000E+00  0.00000000E+00  0.00000000E+00
  0.00000000E+00  0.00000000E+00  0.00000000E+00
  0.00000000E+00  0.00000000E+00  0.00000000E+00
  0.00000000E+00  0.00000000E+00  0.00000000E+00
  0.00000000E+00  0.00000000E+00  0.00000000E+00
  0.00000000E+00  0.00000000E+00  0.00000000E+00
  0.00000000E+00  0.00000000E+00  0.00000000E+00
  0.00000000E+00  0.00000000E+00  0.00000000E+00
  0.00000000E+00  0.00000000E+00  0.00000000E+00
  0.00000000E+00  0.00000000E+00  0.00000000E+00
  0.00000000E+00  0.00000000E+00  0.00000000E+00
  0.00000000E+00  0.00000000E+00  0.00000000E+00
  0.00000000E+00  0.00000000E+00  0.00000000E+00
  0.00000000E+00  0.00000000E+00  0.00000000E+00
  0.00000000E+00  0.00000000E+00  0.00000000E+00
  0.00000000E+00  0.00000000E+00  0.00000000E+00
  0.00000000E+00  0.00000000E+00  0.00000000E+00
  0.00000000E+00  0.00000000E+00  0.00000000E+00
  0.00000000E+00  0.00000000E+00  0.00000000E+00
  0.00000000E+00  0.00000000E+00  0.00000000E+00
  0.00000000E+00  0.00000000E+00  0.00000000E+00
  0.00000000E+00  0.00000000E+00  0.00000000E+00
  0.00000000E+00  0.00000000E+00  0.00000000E+00
  0.00000000E+00  0.00000000E+00  0.00000000E+00
