124                                     
   1.00000000000000     
    12.3312997818000003    0.0000000000000000    0.0000000000000000
     0.0001127485000000   12.8291997905000006    0.0000000000000000
     0.0005937186000000    0.0011528207000000   19.9943999824000009
   C    N    Fe   Ni   O 
    53     3     1     1     1
Direct
  0.0565127867443445  0.0558746088404843  0.0510242267064798
  0.1568515023419858  0.1103926390664632  0.0501798984994338
  0.1557104056195329  0.2212362969998615  0.0487646883993030
  0.0553253575703823  0.2771787186433697  0.0486799358597165
  0.2574834268672371  0.0546462723811235  0.0515300392462688
  0.3578033691766720  0.1098786945427226  0.0548746395489014
  0.3564447208478370  0.2221416380379759  0.0538674674870081
  0.2555636656870737  0.2761948814085126  0.0489730095774920
  0.4576624510407549  0.0529619679161955  0.0591721874000278
  0.5563601600588727  0.1114087646543339  0.0634000967607815
  0.5555826013316325  0.2245302530669781  0.0644909825508736
  0.4547665793456458  0.2814172440222363  0.0584552040047680
  0.6564000542561376  0.0523496628121014  0.0647566155590197
  0.7554763136383046  0.1107201945267075  0.0621455636108448
  0.7552624772135127  0.2233048859780644  0.0627031273061420
  0.6558800074288058  0.2820178543648998  0.0679588860501091
  0.8557781174313737  0.0553499557171712  0.0578007190627008
  0.9558117834787682  0.1111003885034156  0.0537972482382180
  0.9552114522820558  0.2224938384054428  0.0530247550365307
  0.8552028224805723  0.2789398795245691  0.0574199615700407
  0.0552378628390202  0.3883482751610555  0.0458733108502835
  0.1546902513651451  0.4434010389816722  0.0431265768606604
  0.1546006683363975  0.5543389396846143  0.0414678303240444
  0.0558929875408143  0.6111572397599374  0.0427536028642061
  0.2544621403630016  0.3872061846655748  0.0459074507963415
  0.3536346053834405  0.4414541673384236  0.0486857839726872
  0.3529463780168846  0.5545996825567762  0.0477469761738634
  0.2537158657642307  0.6097278627616585  0.0429905221791437
  0.7573328686995150  0.4493111772537759  0.0647528719855423
  0.8561959348462922  0.3907437271548748  0.0561021628439771
  0.9556747956974110  0.4450963780161069  0.0485661073710490
  0.9563261989479588  0.5564156677817255  0.0468085000460394
  0.8575684552711090  0.6138507023874054  0.0529324370587728
  0.0571420244003715  0.7223574946898960  0.0437515183843854
  0.1563948226881194  0.7777097349825308  0.0443653380294125
  0.1573779736592022  0.8888297870106835  0.0474033675740531
  0.0574873446236907  0.9451177862995607  0.0496449087887903
  0.2554146998192554  0.7207930040499743  0.0449974354667516
  0.3556429304454838  0.7739580165787709  0.0505232277362347
  0.3577539327028116  0.8857966354804948  0.0529254653966882
  0.2578575961025705  0.9430804744758766  0.0501778568556132
  0.4531886642714346  0.7129973762388851  0.0562015837034544
  0.5572473639113118  0.8791106169534963  0.0641283048359579
  0.4581471473764741  0.9400950576426305  0.0587802624763756
  0.7593377064161057  0.8845811393662362  0.0643403726125321
  0.6572689153916160  0.9388891995998445  0.0660398413268303
  0.8600301781955400  0.7259579372732190  0.0550012493141979
  0.9584887943788538  0.7795493458999676  0.0486125525781753
  0.9579751396190963  0.8901719450805461  0.0518467550886974
  0.8572062742583322  0.9437377545486160  0.0576985632572931
  0.6598776690963027  0.3926579681458142  0.0738735572195166
  0.7589510862079272  0.5619206262062750  0.0636081544441532
  0.5533781785080117  0.7667236606510103  0.0654837151859249
  0.4509369552874841  0.3897292188104142  0.0560323172742955
  0.4481261873879682  0.6051906425819116  0.0554831212138511
  0.7644050050235475  0.7768291354230241  0.0673698802139502
  0.6617780875485605  0.6706929019039475  0.0989902421297770
  0.5515817921470599  0.4913379019226260  0.0806695803154957
  0.6051642036201372  0.5790549892675479  0.1473374417763008
 
  0.00000000E+00  0.00000000E+00  0.00000000E+00
  0.00000000E+00  0.00000000E+00  0.00000000E+00
  0.00000000E+00  0.00000000E+00  0.00000000E+00
  0.00000000E+00  0.00000000E+00  0.00000000E+00
  0.00000000E+00  0.00000000E+00  0.00000000E+00
  0.00000000E+00  0.00000000E+00  0.00000000E+00
  0.00000000E+00  0.00000000E+00  0.00000000E+00
  0.00000000E+00  0.00000000E+00  0.00000000E+00
  0.00000000E+00  0.00000000E+00  0.00000000E+00
  0.00000000E+00  0.00000000E+00  0.00000000E+00
  0.00000000E+00  0.00000000E+00  0.00000000E+00
  0.00000000E+00  0.00000000E+00  0.00000000E+00
  0.00000000E+00  0.00000000E+00  0.00000000E+00
  0.00000000E+00  0.00000000E+00  0.00000000E+00
  0.00000000E+00  0.00000000E+00  0.00000000E+00
  0.00000000E+00  0.00000000E+00  0.00000000E+00
  0.00000000E+00  0.00000000E+00  0.00000000E+00
  0.00000000E+00  0.00000000E+00  0.00000000E+00
  0.00000000E+00  0.00000000E+00  0.00000000E+00
  0.00000000E+00  0.00000000E+00  0.00000000E+00
  0.00000000E+00  0.00000000E+00  0.00000000E+00
  0.00000000E+00  0.00000000E+00  0.00000000E+00
  0.00000000E+00  0.00000000E+00  0.00000000E+00
  0.00000000E+00  0.00000000E+00  0.00000000E+00
  0.00000000E+00  0.00000000E+00  0.00000000E+00
  0.00000000E+00  0.00000000E+00  0.00000000E+00
  0.00000000E+00  0.00000000E+00  0.00000000E+00
  0.00000000E+00  0.00000000E+00  0.00000000E+00
  0.00000000E+00  0.00000000E+00  0.00000000E+00
  0.00000000E+00  0.00000000E+00  0.00000000E+00
  0.00000000E+00  0.00000000E+00  0.00000000E+00
  0.00000000E+00  0.00000000E+00  0.00000000E+00
  0.00000000E+00  0.00000000E+00  0.00000000E+00
  0.00000000E+00  0.00000000E+00  0.00000000E+00
  0.00000000E+00  0.00000000E+00  0.00000000E+00
  0.00000000E+00  0.00000000E+00  0.00000000E+00
  0.00000000E+00  0.00000000E+00  0.00000000E+00
  0.00000000E+00  0.00000000E+00  0.00000000E+00
  0.00000000E+00  0.00000000E+00  0.00000000E+00
  0.00000000E+00  0.00000000E+00  0.00000000E+00
  0.00000000E+00  0.00000000E+00  0.00000000E+00
  0.00000000E+00  0.00000000E+00  0.00000000E+00
  0.00000000E+00  0.00000000E+00  0.00000000E+00
  0.00000000E+00  0.00000000E+00  0.00000000E+00
  0.00000000E+00  0.00000000E+00  0.00000000E+00
  0.00000000E+00  0.00000000E+00  0.00000000E+00
  0.00000000E+00  0.00000000E+00  0.00000000E+00
  0.00000000E+00  0.00000000E+00  0.00000000E+00
  0.00000000E+00  0.00000000E+00  0.00000000E+00
  0.00000000E+00  0.00000000E+00  0.00000000E+00
  0.00000000E+00  0.00000000E+00  0.00000000E+00
  0.00000000E+00  0.00000000E+00  0.00000000E+00
  0.00000000E+00  0.00000000E+00  0.00000000E+00
  0.00000000E+00  0.00000000E+00  0.00000000E+00
  0.00000000E+00  0.00000000E+00  0.00000000E+00
  0.00000000E+00  0.00000000E+00  0.00000000E+00
  0.00000000E+00  0.00000000E+00  0.00000000E+00
  0.00000000E+00  0.00000000E+00  0.00000000E+00
  0.00000000E+00  0.00000000E+00  0.00000000E+00
