CONTCAR\(15)                            
   1.00000000000000     
    12.3312997818000003    0.0000000000000000    0.0000000000000000
     0.0001127485000000   12.8291997905000006    0.0000000000000000
     0.0005937186000000    0.0011528207000000   19.9943999824000009
   C    N    Fe   Ni   H 
    52     4     1     1     1
Direct
  0.0556426064080006  0.0547913792754275  0.0533326079821335
  0.1563688110484345  0.1105464807536170  0.0535030352307679
  0.1570108191464099  0.2214628554981767  0.0522241695335401
  0.0567251508446489  0.2758667842758383  0.0514607957927520
  0.2567840785172474  0.0561699056677978  0.0552754250106251
  0.3573511772032448  0.1120767064511200  0.0569022474551426
  0.3579115718475053  0.2241251364196729  0.0556200267078097
  0.2570826926470203  0.2779976240171940  0.0525313354419297
  0.4573191843171160  0.0561655796036019  0.0596631631331009
  0.5573965986812288  0.1132419653329684  0.0612015110641655
  0.5585518268272978  0.2269998570692513  0.0615601433202827
  0.4576739954245033  0.2831652981956921  0.0579459547446290
  0.6548864855658637  0.0523587490823077  0.0605968678635629
  0.7546480610671304  0.1095495039349860  0.0581125324592028
  0.7560782735510396  0.2226980708382729  0.0586093353226842
  0.6593658006086560  0.2840336081269386  0.0627775201532342
  0.8545269002151145  0.0532743346831843  0.0554192072906412
  0.9552162419857185  0.1091315763794185  0.0539317308396019
  0.9563427998669081  0.2204344867876405  0.0531998412271225
  0.8570607184017476  0.2764508241552648  0.0548149797199588
  0.0572345338269083  0.3867762101488366  0.0500993559706460
  0.1559486356474959  0.4435763506807215  0.0498982790042810
  0.1556554042486758  0.5547578911687548  0.0498749714051111
  0.0574331577197510  0.6103095297726563  0.0494051090093299
  0.2555328019676992  0.3892848306121405  0.0511071075602948
  0.3542677866030415  0.4465715046523691  0.0529009692971687
  0.3530222528621620  0.5589128387086554  0.0549425160798139
  0.2542055127014373  0.6121811105272471  0.0522760147164310
  0.7611389624383634  0.4460760365137751  0.0569804725473040
  0.8588464868301047  0.3876710229681030  0.0526590876178015
  0.9584942403722467  0.4421505114014739  0.0499309345641861
  0.9590434288945693  0.5528953192666053  0.0493501086081131
  0.8603886010852025  0.6061594358648613  0.0503513964367305
  0.0566435581706734  0.7215706912708896  0.0504849491043562
  0.1550431002532749  0.7784294931155024  0.0522821736166223
  0.1553883564890265  0.8893312987190592  0.0533941881759455
  0.0551167604910946  0.9438034154967925  0.0528638219865320
  0.2537222265730728  0.7229671563659078  0.0536803879544373
  0.3527509013431577  0.7776868558367617  0.0573067847158440
  0.3548847099951958  0.8891314113899010  0.0579674408372850
  0.2557623981112522  0.9448762128250145  0.0554929323066086
  0.4500460370612078  0.7196327756830979  0.0622722254089865
  0.5525481670957455  0.8825206828747852  0.0635885350845307
  0.4557734914927549  0.9432922312589502  0.0606855430153088
  0.7543567019899490  0.8818785074666682  0.0563199772619695
  0.6537718364351514  0.9384571468575131  0.0608126441830764
  0.8586252203469299  0.7184884144606117  0.0505683210456863
  0.9571141060660551  0.7759046945399594  0.0508381297057490
  0.9551904895237316  0.8872448010443611  0.0523581612461963
  0.8539775545806275  0.9410513368320245  0.0544178047377772
  0.4538957197117359  0.3941114673313501  0.0562827785126422
  0.7582281602814054  0.7701737446235837  0.0533861678091577
  0.4500217472993160  0.6111634245911927  0.0617701652159573
  0.6645533705081397  0.3940610533174226  0.0663223095440917
  0.7631084196171716  0.5541769855842242  0.0539247261368537
  0.5469905103692483  0.7728016494213331  0.0672370390870727
  0.6513820595900000  0.6652930256211330  0.0688737423930971
  0.5571894690648287  0.4955961784513835  0.0765796559350825
  0.6162992621667862  0.5751719301859857  0.1278506548690359
 
  0.00000000E+00  0.00000000E+00  0.00000000E+00
  0.00000000E+00  0.00000000E+00  0.00000000E+00
  0.00000000E+00  0.00000000E+00  0.00000000E+00
  0.00000000E+00  0.00000000E+00  0.00000000E+00
  0.00000000E+00  0.00000000E+00  0.00000000E+00
  0.00000000E+00  0.00000000E+00  0.00000000E+00
  0.00000000E+00  0.00000000E+00  0.00000000E+00
  0.00000000E+00  0.00000000E+00  0.00000000E+00
  0.00000000E+00  0.00000000E+00  0.00000000E+00
  0.00000000E+00  0.00000000E+00  0.00000000E+00
  0.00000000E+00  0.00000000E+00  0.00000000E+00
  0.00000000E+00  0.00000000E+00  0.00000000E+00
  0.00000000E+00  0.00000000E+00  0.00000000E+00
  0.00000000E+00  0.00000000E+00  0.00000000E+00
  0.00000000E+00  0.00000000E+00  0.00000000E+00
  0.00000000E+00  0.00000000E+00  0.00000000E+00
  0.00000000E+00  0.00000000E+00  0.00000000E+00
  0.00000000E+00  0.00000000E+00  0.00000000E+00
  0.00000000E+00  0.00000000E+00  0.00000000E+00
  0.00000000E+00  0.00000000E+00  0.00000000E+00
  0.00000000E+00  0.00000000E+00  0.00000000E+00
  0.00000000E+00  0.00000000E+00  0.00000000E+00
  0.00000000E+00  0.00000000E+00  0.00000000E+00
  0.00000000E+00  0.00000000E+00  0.00000000E+00
  0.00000000E+00  0.00000000E+00  0.00000000E+00
  0.00000000E+00  0.00000000E+00  0.00000000E+00
  0.00000000E+00  0.00000000E+00  0.00000000E+00
  0.00000000E+00  0.00000000E+00  0.00000000E+00
  0.00000000E+00  0.00000000E+00  0.00000000E+00
  0.00000000E+00  0.00000000E+00  0.00000000E+00
  0.00000000E+00  0.00000000E+00  0.00000000E+00
  0.00000000E+00  0.00000000E+00  0.00000000E+00
  0.00000000E+00  0.00000000E+00  0.00000000E+00
  0.00000000E+00  0.00000000E+00  0.00000000E+00
  0.00000000E+00  0.00000000E+00  0.00000000E+00
  0.00000000E+00  0.00000000E+00  0.00000000E+00
  0.00000000E+00  0.00000000E+00  0.00000000E+00
  0.00000000E+00  0.00000000E+00  0.00000000E+00
  0.00000000E+00  0.00000000E+00  0.00000000E+00
  0.00000000E+00  0.00000000E+00  0.00000000E+00
  0.00000000E+00  0.00000000E+00  0.00000000E+00
  0.00000000E+00  0.00000000E+00  0.00000000E+00
  0.00000000E+00  0.00000000E+00  0.00000000E+00
  0.00000000E+00  0.00000000E+00  0.00000000E+00
  0.00000000E+00  0.00000000E+00  0.00000000E+00
  0.00000000E+00  0.00000000E+00  0.00000000E+00
  0.00000000E+00  0.00000000E+00  0.00000000E+00
  0.00000000E+00  0.00000000E+00  0.00000000E+00
  0.00000000E+00  0.00000000E+00  0.00000000E+00
  0.00000000E+00  0.00000000E+00  0.00000000E+00
  0.00000000E+00  0.00000000E+00  0.00000000E+00
  0.00000000E+00  0.00000000E+00  0.00000000E+00
  0.00000000E+00  0.00000000E+00  0.00000000E+00
  0.00000000E+00  0.00000000E+00  0.00000000E+00
  0.00000000E+00  0.00000000E+00  0.00000000E+00
  0.00000000E+00  0.00000000E+00  0.00000000E+00
  0.00000000E+00  0.00000000E+00  0.00000000E+00
  0.00000000E+00  0.00000000E+00  0.00000000E+00
  0.00000000E+00  0.00000000E+00  0.00000000E+00
