1h\(2)                                  
   1.00000000000000     
    12.3312997818000003    0.0000000000000000    0.0000000000000000
     0.0001127485000000   12.8291997905000006    0.0000000000000000
     0.0005937186000000    0.0011528207000000   19.9943999824000009
   C    N    Fe   Ni
    53     3     1     1
Direct
  0.0556475158465094  0.0541199146189469  0.0556853234038440
  0.1560476955928309  0.1103888225858815  0.0557088752641120
  0.1571570199836782  0.2212513069948773  0.0553525622565638
  0.0572906953299095  0.2757127893842863  0.0549279271064629
  0.2565096299787132  0.0563957005555040  0.0562084145486503
  0.3570435299192390  0.1126599127951757  0.0566809571056129
  0.3580824946776572  0.2244776430985165  0.0564947191707781
  0.2572271678135534  0.2778801120151825  0.0556554605903601
  0.4567865408326126  0.0570417671500609  0.0570643166977839
  0.5574936646871315  0.1133643732604157  0.0571153332554795
  0.5589273950248900  0.2259675277032408  0.0570450195993365
  0.4584945541588237  0.2830854304833951  0.0568850703164484
  0.6555635733247057  0.0529349324642527  0.0569973543752440
  0.7556407612300304  0.1089925312099715  0.0565701896788212
  0.7575300803374122  0.2214738780484597  0.0563665664493545
  0.6605503085383061  0.2818529016988499  0.0567524644387027
  0.8548794185682126  0.0522986671559307  0.0562670688097258
  0.9555757842965567  0.1084587526310940  0.0557620921411320
  0.9572722634258566  0.2198013507777044  0.0553659864825367
  0.8580836866304522  0.2756959183282788  0.0556697074205936
  0.0581037248541824  0.3869202758515077  0.0544490870770893
  0.1565890619015490  0.4437678880552743  0.0544073329511629
  0.1564290765549730  0.5551693431362723  0.0543200741604585
  0.0569775669714424  0.6099332091026285  0.0543599009302037
  0.2562563485802753  0.3889276573865773  0.0551524084334147
  0.3547691656064512  0.4458092709887790  0.0558245329665391
  0.3563329127258461  0.5586527029604428  0.0557455098350418
  0.2558430539192057  0.6121061556205784  0.0549380824025196
  0.7621101675100495  0.4439882713588134  0.0561083539637426
  0.8601554543759378  0.3868370315481725  0.0553981008457446
  0.9591897762588693  0.4420323714485573  0.0546446856749197
  0.9580602161989769  0.5526180030024157  0.0546411696536950
  0.8575735946843396  0.6051120891353217  0.0555101086110894
  0.0560144956176317  0.7211947603213072  0.0548203894011651
  0.1546211005972654  0.7778935043749224  0.0551271984447626
  0.1548133447271312  0.8888863274053277  0.0556219936793050
  0.0545495881741825  0.9429331795406106  0.0556788831693136
  0.2541276801609474  0.7228336705963679  0.0552986982375011
  0.3525868942994221  0.7789250160309993  0.0562339144814932
  0.3542081411867224  0.8901956194331151  0.0565456613082892
  0.2549317145656487  0.9453206162892357  0.0561211608058075
  0.4513673217564422  0.7230119105663297  0.0569165917717068
  0.5524571387802170  0.8859877291783846  0.0573472596296270
  0.4546236551670417  0.9452604294426310  0.0570863008810508
  0.7535360047366468  0.8813265498994926  0.0567135224432591
  0.6545462290406974  0.9401836539735143  0.0571193872810534
  0.8568656544415404  0.7175025498169548  0.0557735026178382
  0.9559122812387548  0.7748812278404481  0.0554096241537310
  0.9546538201746122  0.8861923486277676  0.0558026712357612
  0.8535583679372620  0.9399726692137169  0.0563227938660303
  0.4542357227466370  0.3939221670838452  0.0567952873129658
  0.4576870248483754  0.6111541559595194  0.0567794322654444
  0.7559137524571640  0.7681176919870717  0.0565510068511864
  0.6656914291598660  0.3901771145051883  0.0567506101251881
  0.7597887172600828  0.5525496962994525  0.0562253436828811
  0.5473452395370063  0.7794290061679507  0.0575797750862919
  0.6402361334250215  0.6690376625544306  0.0572026169206197
  0.5647446916245089  0.4946924783360244  0.0572016127305724
 
  0.00000000E+00  0.00000000E+00  0.00000000E+00
  0.00000000E+00  0.00000000E+00  0.00000000E+00
  0.00000000E+00  0.00000000E+00  0.00000000E+00
  0.00000000E+00  0.00000000E+00  0.00000000E+00
  0.00000000E+00  0.00000000E+00  0.00000000E+00
  0.00000000E+00  0.00000000E+00  0.00000000E+00
  0.00000000E+00  0.00000000E+00  0.00000000E+00
  0.00000000E+00  0.00000000E+00  0.00000000E+00
  0.00000000E+00  0.00000000E+00  0.00000000E+00
  0.00000000E+00  0.00000000E+00  0.00000000E+00
  0.00000000E+00  0.00000000E+00  0.00000000E+00
  0.00000000E+00  0.00000000E+00  0.00000000E+00
  0.00000000E+00  0.00000000E+00  0.00000000E+00
  0.00000000E+00  0.00000000E+00  0.00000000E+00
  0.00000000E+00  0.00000000E+00  0.00000000E+00
  0.00000000E+00  0.00000000E+00  0.00000000E+00
  0.00000000E+00  0.00000000E+00  0.00000000E+00
  0.00000000E+00  0.00000000E+00  0.00000000E+00
  0.00000000E+00  0.00000000E+00  0.00000000E+00
  0.00000000E+00  0.00000000E+00  0.00000000E+00
  0.00000000E+00  0.00000000E+00  0.00000000E+00
  0.00000000E+00  0.00000000E+00  0.00000000E+00
  0.00000000E+00  0.00000000E+00  0.00000000E+00
  0.00000000E+00  0.00000000E+00  0.00000000E+00
  0.00000000E+00  0.00000000E+00  0.00000000E+00
  0.00000000E+00  0.00000000E+00  0.00000000E+00
  0.00000000E+00  0.00000000E+00  0.00000000E+00
  0.00000000E+00  0.00000000E+00  0.00000000E+00
  0.00000000E+00  0.00000000E+00  0.00000000E+00
  0.00000000E+00  0.00000000E+00  0.00000000E+00
  0.00000000E+00  0.00000000E+00  0.00000000E+00
  0.00000000E+00  0.00000000E+00  0.00000000E+00
  0.00000000E+00  0.00000000E+00  0.00000000E+00
  0.00000000E+00  0.00000000E+00  0.00000000E+00
  0.00000000E+00  0.00000000E+00  0.00000000E+00
  0.00000000E+00  0.00000000E+00  0.00000000E+00
  0.00000000E+00  0.00000000E+00  0.00000000E+00
  0.00000000E+00  0.00000000E+00  0.00000000E+00
  0.00000000E+00  0.00000000E+00  0.00000000E+00
  0.00000000E+00  0.00000000E+00  0.00000000E+00
  0.00000000E+00  0.00000000E+00  0.00000000E+00
  0.00000000E+00  0.00000000E+00  0.00000000E+00
  0.00000000E+00  0.00000000E+00  0.00000000E+00
  0.00000000E+00  0.00000000E+00  0.00000000E+00
  0.00000000E+00  0.00000000E+00  0.00000000E+00
  0.00000000E+00  0.00000000E+00  0.00000000E+00
  0.00000000E+00  0.00000000E+00  0.00000000E+00
  0.00000000E+00  0.00000000E+00  0.00000000E+00
  0.00000000E+00  0.00000000E+00  0.00000000E+00
  0.00000000E+00  0.00000000E+00  0.00000000E+00
  0.00000000E+00  0.00000000E+00  0.00000000E+00
  0.00000000E+00  0.00000000E+00  0.00000000E+00
  0.00000000E+00  0.00000000E+00  0.00000000E+00
  0.00000000E+00  0.00000000E+00  0.00000000E+00
  0.00000000E+00  0.00000000E+00  0.00000000E+00
  0.00000000E+00  0.00000000E+00  0.00000000E+00
  0.00000000E+00  0.00000000E+00  0.00000000E+00
  0.00000000E+00  0.00000000E+00  0.00000000E+00
