CONTCAR\(3)                             
   1.00000000000000     
    12.3312997818000003    0.0000000000000000    0.0000000000000000
     0.0001127485000000   12.8291997905000006    0.0000000000000000
     0.0005937186000000    0.0011528207000000   19.9943999824000009
   C    N    Fe   Ni   O    H 
    53     3     1     1     1     1
Direct
  0.0553817054746257  0.0548311184229063  0.0496505249434829
  0.1559805309110414  0.1105745549947295  0.0498864921070128
  0.1565480367082742  0.2214102773182801  0.0484637884056675
  0.0563992400162049  0.2761912535103929  0.0473715827157005
  0.2566665964134445  0.0563595388359723  0.0523091449623062
  0.3571264186195107  0.1126740764837225  0.0556443285851757
  0.3576511106360649  0.2247157019901909  0.0544788212450949
  0.2564702315033809  0.2777155997029285  0.0494689175173954
  0.4568732244025729  0.0569590827208232  0.0601720048204542
  0.5570898733585288  0.1142124080849103  0.0628994421401808
  0.5581385026118595  0.2273895201085014  0.0635987415209656
  0.4574328247209934  0.2839187410309728  0.0591811868113172
  0.6550853262750456  0.0537282405655591  0.0622731191048562
  0.7550040684185420  0.1101260824708528  0.0584612976740291
  0.7565832910064124  0.2228482164623296  0.0587403699712602
  0.6600809527404746  0.2838263679021336  0.0644051281104401
  0.8545577028179303  0.0538839053615995  0.0541966171992792
  0.9551676179441715  0.1095778178555605  0.0512274962989429
  0.9563533796315429  0.2208011405731259  0.0503167074786341
  0.8569919125520656  0.2768683755344951  0.0533542245389321
  0.0565585012411641  0.3873226094639793  0.0450971124656981
  0.1551336794905503  0.4439507826744862  0.0444120749299533
  0.1549770079824236  0.5554972876936206  0.0437463719246985
  0.0561925723563956  0.6107482627703487  0.0431658336519413
  0.2545979325194517  0.3886979924853116  0.0473401626041169
  0.3523311208551743  0.4455734726772404  0.0516793151926244
  0.3525370267622386  0.5578864787389338  0.0534243236530611
  0.2539186145852364  0.6124206862076741  0.0472608711815507
  0.7601156753861988  0.4455997967364277  0.0571459154637706
  0.8582872136784300  0.3879846231552074  0.0509391823912007
  0.9575180201177153  0.4426834789483258  0.0458086004179373
  0.9574826385890646  0.5534491823751329  0.0445041651902058
  0.8578349895512889  0.6062281405912744  0.0473508956297221
  0.0560165507055437  0.7220967828545450  0.0442527847128427
  0.1549438544200359  0.7785598132874493  0.0464821319442492
  0.1551248611371126  0.8894550253827893  0.0484655767052641
  0.0547570272025727  0.9437997521993646  0.0485125782257412
  0.2542927487746210  0.7231134344515853  0.0489264660091040
  0.3535705783164471  0.7779681539110268  0.0553426499229230
  0.3548097737959554  0.8894363440997088  0.0561881763312768
  0.2555251647956907  0.9451761477974830  0.0519746888249145
  0.4516274092077093  0.7206035775151945  0.0642461688387509
  0.5528178124968227  0.8844507453242283  0.0660354317429965
  0.4551391127386312  0.9444634866520105  0.0611814627434307
  0.7541518235017223  0.8835995502364544  0.0573268228627589
  0.6542628583699980  0.9405846298915885  0.0630740600005995
  0.8569175053577743  0.7190976649129064  0.0475154830677974
  0.9560481874183652  0.7762438706740752  0.0459066471277928
  0.9546460735719692  0.8874702759583030  0.0485930317531794
  0.8538981921250064  0.9418353674308801  0.0529893322134218
  0.4526822295141689  0.3953632306556470  0.0586634878411544
  0.4523389165998125  0.6083106873896965  0.0656363431191034
  0.7572368080411630  0.7717941896674352  0.0545827394058244
  0.6649705690664869  0.3925107519545310  0.0680731275936115
  0.7609136967539150  0.5540202390145132  0.0531073643199740
  0.5484722913761474  0.7768733102746670  0.0710318950854292
  0.6534115903909802  0.6702961748444786  0.0784367370569422
  0.5553374501907995  0.4939525461325717  0.0841082094686840
  0.6228801994271607  0.5834618919057467  0.1544157565037951
  0.5619291048253425  0.6109675961331424  0.1800660967308193
 
  0.00000000E+00  0.00000000E+00  0.00000000E+00
  0.00000000E+00  0.00000000E+00  0.00000000E+00
  0.00000000E+00  0.00000000E+00  0.00000000E+00
  0.00000000E+00  0.00000000E+00  0.00000000E+00
  0.00000000E+00  0.00000000E+00  0.00000000E+00
  0.00000000E+00  0.00000000E+00  0.00000000E+00
  0.00000000E+00  0.00000000E+00  0.00000000E+00
  0.00000000E+00  0.00000000E+00  0.00000000E+00
  0.00000000E+00  0.00000000E+00  0.00000000E+00
  0.00000000E+00  0.00000000E+00  0.00000000E+00
  0.00000000E+00  0.00000000E+00  0.00000000E+00
  0.00000000E+00  0.00000000E+00  0.00000000E+00
  0.00000000E+00  0.00000000E+00  0.00000000E+00
  0.00000000E+00  0.00000000E+00  0.00000000E+00
  0.00000000E+00  0.00000000E+00  0.00000000E+00
  0.00000000E+00  0.00000000E+00  0.00000000E+00
  0.00000000E+00  0.00000000E+00  0.00000000E+00
  0.00000000E+00  0.00000000E+00  0.00000000E+00
  0.00000000E+00  0.00000000E+00  0.00000000E+00
  0.00000000E+00  0.00000000E+00  0.00000000E+00
  0.00000000E+00  0.00000000E+00  0.00000000E+00
  0.00000000E+00  0.00000000E+00  0.00000000E+00
  0.00000000E+00  0.00000000E+00  0.00000000E+00
  0.00000000E+00  0.00000000E+00  0.00000000E+00
  0.00000000E+00  0.00000000E+00  0.00000000E+00
  0.00000000E+00  0.00000000E+00  0.00000000E+00
  0.00000000E+00  0.00000000E+00  0.00000000E+00
  0.00000000E+00  0.00000000E+00  0.00000000E+00
  0.00000000E+00  0.00000000E+00  0.00000000E+00
  0.00000000E+00  0.00000000E+00  0.00000000E+00
  0.00000000E+00  0.00000000E+00  0.00000000E+00
  0.00000000E+00  0.00000000E+00  0.00000000E+00
  0.00000000E+00  0.00000000E+00  0.00000000E+00
  0.00000000E+00  0.00000000E+00  0.00000000E+00
  0.00000000E+00  0.00000000E+00  0.00000000E+00
  0.00000000E+00  0.00000000E+00  0.00000000E+00
  0.00000000E+00  0.00000000E+00  0.00000000E+00
  0.00000000E+00  0.00000000E+00  0.00000000E+00
  0.00000000E+00  0.00000000E+00  0.00000000E+00
  0.00000000E+00  0.00000000E+00  0.00000000E+00
  0.00000000E+00  0.00000000E+00  0.00000000E+00
  0.00000000E+00  0.00000000E+00  0.00000000E+00
  0.00000000E+00  0.00000000E+00  0.00000000E+00
  0.00000000E+00  0.00000000E+00  0.00000000E+00
  0.00000000E+00  0.00000000E+00  0.00000000E+00
  0.00000000E+00  0.00000000E+00  0.00000000E+00
  0.00000000E+00  0.00000000E+00  0.00000000E+00
  0.00000000E+00  0.00000000E+00  0.00000000E+00
  0.00000000E+00  0.00000000E+00  0.00000000E+00
  0.00000000E+00  0.00000000E+00  0.00000000E+00
  0.00000000E+00  0.00000000E+00  0.00000000E+00
  0.00000000E+00  0.00000000E+00  0.00000000E+00
  0.00000000E+00  0.00000000E+00  0.00000000E+00
  0.00000000E+00  0.00000000E+00  0.00000000E+00
  0.00000000E+00  0.00000000E+00  0.00000000E+00
  0.00000000E+00  0.00000000E+00  0.00000000E+00
  0.00000000E+00  0.00000000E+00  0.00000000E+00
  0.00000000E+00  0.00000000E+00  0.00000000E+00
  0.00000000E+00  0.00000000E+00  0.00000000E+00
  0.00000000E+00  0.00000000E+00  0.00000000E+00
