CONTCAR                                 
   1.00000000000000     
    12.3312997818000003    0.0000000000000000    0.0000000000000000
     0.0001127485000000   12.8291997905000006    0.0000000000000000
     0.0005937186000000    0.0011528207000000   19.9943999824000009
   C    N    Fe   Ni   H 
    53     3     1     1     1
Direct
  0.0558773263265475  0.0546391517025469  0.0512091868810385
  0.1560727604067387  0.1102526349877213  0.0517687985388542
  0.1562416452554451  0.2210083234712190  0.0504070197537286
  0.0564710266668355  0.2760370893342953  0.0489758748601744
  0.2565529577812150  0.0560196127149996  0.0543428605610587
  0.3567890300803924  0.1120298909192969  0.0574599034037394
  0.3565503448378085  0.2238169348308566  0.0564187792488281
  0.2557879679012648  0.2768777705782221  0.0517816445539612
  0.4567080387027836  0.0569177472819779  0.0613740404934680
  0.5562618204913085  0.1145694984267831  0.0633934260927287
  0.5567469414296902  0.2282853846220846  0.0639848243488609
  0.4549333911849041  0.2837175676759858  0.0602467466497258
  0.6547768921562673  0.0537865540236492  0.0624691854718924
  0.7549256759250575  0.1101694222644940  0.0586289370071227
  0.7565689768956003  0.2226869491686703  0.0588294068832260
  0.6592590775117448  0.2840441268682003  0.0646316315708697
  0.8546609633136625  0.0536775752067550  0.0548518045816991
  0.9553207129810574  0.1092995532686114  0.0522483721830510
  0.9564815180269763  0.2205045003713581  0.0512662869572569
  0.8571194567101181  0.2766735428120581  0.0538182007115253
  0.0572696855972362  0.3872972356946781  0.0468312631822979
  0.1558974657082024  0.4435728038367139  0.0468800957914093
  0.1568568058429400  0.5548513565692356  0.0462869994483695
  0.0580716650233049  0.6102762749785027  0.0450024088472062
  0.2549455073426133  0.3876752122408924  0.0500879017536286
  0.3533366070664106  0.4423729442854690  0.0545824198803976
  0.3553556169472044  0.5556354271717887  0.0568922105900895
  0.2559529874980671  0.6106788877095692  0.0505532065302791
  0.7608563704209448  0.4447250885661006  0.0584692491814299
  0.8588663011790502  0.3878231486536607  0.0516876976660304
  0.9582655903838226  0.4429382252061257  0.0469785663960519
  0.9594767676201118  0.5535608137147134  0.0458505859277371
  0.8604037129189246  0.6084003204293866  0.0488566829727811
  0.0576184894471132  0.7218923119686100  0.0462212905366951
  0.1561860140288940  0.7775946143377951  0.0488246167946529
  0.1559289289703929  0.8889080562932981  0.0506326117922372
  0.0557323942270819  0.9437880330959413  0.0502317679487154
  0.2555164515607660  0.7216558937518676  0.0517872496438748
  0.3539109659312615  0.7774954683487664  0.0581061448878541
  0.3550848096508871  0.8892658812058279  0.0584369723721903
  0.2556990064672922  0.9447778494346450  0.0541751011503962
  0.4519922480026697  0.7213838083887769  0.0670063369996488
  0.5527572995026500  0.8846460861529352  0.0671786413790402
  0.4551211364957790  0.9444902596179600  0.0627025997638031
  0.7546095628594145  0.8827826534313374  0.0575412801061838
  0.6543539309416885  0.9404640437806542  0.0633100578603875
  0.8599484398334358  0.7210374786202487  0.0490951468403667
  0.9579534169768883  0.7773486434059109  0.0475738762984288
  0.9557320138581068  0.8881438224580244  0.0500263589018262
  0.8543536214313684  0.9415925498133890  0.0538999707460522
  0.4542903746160616  0.6083870757910532  0.0679465292728977
  0.7606455169718731  0.5567805813929412  0.0559281361812629
  0.7587428739672529  0.7707811938142657  0.0544675921819847
  0.4498097239018326  0.3915445677313137  0.0594778582877852
  0.6651314894162664  0.3910465401667917  0.0688559422555734
  0.5478583874427982  0.7776725922302369  0.0732475830615820
  0.6495917954394969  0.6635700889825920  0.0728055702424330
  0.5573854115641466  0.4964606468290597  0.0790899427277192
  0.6118841143603297  0.5683376803691340  0.1304646168458718
 
  0.00000000E+00  0.00000000E+00  0.00000000E+00
  0.00000000E+00  0.00000000E+00  0.00000000E+00
  0.00000000E+00  0.00000000E+00  0.00000000E+00
  0.00000000E+00  0.00000000E+00  0.00000000E+00
  0.00000000E+00  0.00000000E+00  0.00000000E+00
  0.00000000E+00  0.00000000E+00  0.00000000E+00
  0.00000000E+00  0.00000000E+00  0.00000000E+00
  0.00000000E+00  0.00000000E+00  0.00000000E+00
  0.00000000E+00  0.00000000E+00  0.00000000E+00
  0.00000000E+00  0.00000000E+00  0.00000000E+00
  0.00000000E+00  0.00000000E+00  0.00000000E+00
  0.00000000E+00  0.00000000E+00  0.00000000E+00
  0.00000000E+00  0.00000000E+00  0.00000000E+00
  0.00000000E+00  0.00000000E+00  0.00000000E+00
  0.00000000E+00  0.00000000E+00  0.00000000E+00
  0.00000000E+00  0.00000000E+00  0.00000000E+00
  0.00000000E+00  0.00000000E+00  0.00000000E+00
  0.00000000E+00  0.00000000E+00  0.00000000E+00
  0.00000000E+00  0.00000000E+00  0.00000000E+00
  0.00000000E+00  0.00000000E+00  0.00000000E+00
  0.00000000E+00  0.00000000E+00  0.00000000E+00
  0.00000000E+00  0.00000000E+00  0.00000000E+00
  0.00000000E+00  0.00000000E+00  0.00000000E+00
  0.00000000E+00  0.00000000E+00  0.00000000E+00
  0.00000000E+00  0.00000000E+00  0.00000000E+00
  0.00000000E+00  0.00000000E+00  0.00000000E+00
  0.00000000E+00  0.00000000E+00  0.00000000E+00
  0.00000000E+00  0.00000000E+00  0.00000000E+00
  0.00000000E+00  0.00000000E+00  0.00000000E+00
  0.00000000E+00  0.00000000E+00  0.00000000E+00
  0.00000000E+00  0.00000000E+00  0.00000000E+00
  0.00000000E+00  0.00000000E+00  0.00000000E+00
  0.00000000E+00  0.00000000E+00  0.00000000E+00
  0.00000000E+00  0.00000000E+00  0.00000000E+00
  0.00000000E+00  0.00000000E+00  0.00000000E+00
  0.00000000E+00  0.00000000E+00  0.00000000E+00
  0.00000000E+00  0.00000000E+00  0.00000000E+00
  0.00000000E+00  0.00000000E+00  0.00000000E+00
  0.00000000E+00  0.00000000E+00  0.00000000E+00
  0.00000000E+00  0.00000000E+00  0.00000000E+00
  0.00000000E+00  0.00000000E+00  0.00000000E+00
  0.00000000E+00  0.00000000E+00  0.00000000E+00
  0.00000000E+00  0.00000000E+00  0.00000000E+00
  0.00000000E+00  0.00000000E+00  0.00000000E+00
  0.00000000E+00  0.00000000E+00  0.00000000E+00
  0.00000000E+00  0.00000000E+00  0.00000000E+00
  0.00000000E+00  0.00000000E+00  0.00000000E+00
  0.00000000E+00  0.00000000E+00  0.00000000E+00
  0.00000000E+00  0.00000000E+00  0.00000000E+00
  0.00000000E+00  0.00000000E+00  0.00000000E+00
  0.00000000E+00  0.00000000E+00  0.00000000E+00
  0.00000000E+00  0.00000000E+00  0.00000000E+00
  0.00000000E+00  0.00000000E+00  0.00000000E+00
  0.00000000E+00  0.00000000E+00  0.00000000E+00
  0.00000000E+00  0.00000000E+00  0.00000000E+00
  0.00000000E+00  0.00000000E+00  0.00000000E+00
  0.00000000E+00  0.00000000E+00  0.00000000E+00
  0.00000000E+00  0.00000000E+00  0.00000000E+00
  0.00000000E+00  0.00000000E+00  0.00000000E+00
