CONTCAR\(4)                             
   1.00000000000000     
    12.3312997818000003    0.0000000000000000    0.0000000000000000
     0.0001127485000000   12.8291997905000006    0.0000000000000000
     0.0005937186000000    0.0011528207000000   19.9943999824000009
   C    N    Fe   Ni   O 
    52     4     1     1     1
Direct
  0.0559733702418316  0.0541700185736473  0.0502349358559233
  0.1565233556168341  0.1097031055377172  0.0499297517862941
  0.1566740029046417  0.2204296858814249  0.0484246950659199
  0.0563552833212643  0.2754877557296110  0.0477248650567467
  0.2573409229110536  0.0551889500975027  0.0519034578246649
  0.3578246183085601  0.1110895576310266  0.0555630765123565
  0.3579845083557759  0.2231116434516449  0.0543891786770612
  0.2566739429144331  0.2762923320032479  0.0489348143725317
  0.4578612474281722  0.0550408892953756  0.0604099483000751
  0.5580890361604179  0.1120708632131367  0.0643276373324447
  0.5587619041460219  0.2260549470354107  0.0651006322671604
  0.4576456988961611  0.2824297733628757  0.0595803184689910
  0.6562890807356407  0.0512721034908886  0.0646188307280998
  0.7553740329427567  0.1089262279252385  0.0612446082263845
  0.7567007459258043  0.2220836110090768  0.0614807635027723
  0.6599848413035202  0.2831341667189619  0.0667194707348603
  0.8551878427866956  0.0528914941920208  0.0566176579266059
  0.9555505859902714  0.1087173717326632  0.0527366655927867
  0.9564120876118229  0.2202293646634443  0.0517512392916248
  0.8570351351047879  0.2764278302768076  0.0556979235794563
  0.0563746359094332  0.3867390884347552  0.0448063683455088
  0.1550624682676227  0.4428757190706427  0.0426052278761083
  0.1549976619753744  0.5543397034817155  0.0411527830310357
  0.0562491431348278  0.6101370269868215  0.0416273857853855
  0.2545299297611064  0.3872174590627193  0.0455932385674561
  0.3521620911045057  0.4437961832269941  0.0490104160991324
  0.3520603220517532  0.5560422182595605  0.0489815088519802
  0.2535347620439237  0.6110918796500214  0.0436413623679641
  0.7605086834799796  0.4458519883158692  0.0611500208372115
  0.8584589822002850  0.3879163537429268  0.0536130216141949
  0.9573637026310222  0.4426411995544354  0.0468427490499148
  0.9576634063023969  0.5538026132844291  0.0449761831102222
  0.8583495574467113  0.6074294941578042  0.0505650406020746
  0.0565159424555897  0.7211812384675200  0.0429473658362587
  0.1554845904316866  0.7776309542089709  0.0442531202395576
  0.1561123527919950  0.8884671770353868  0.0472367942008061
  0.0557958666826959  0.9432465439257505  0.0487189216637355
  0.2546265117784480  0.7218802611458832  0.0456409334642482
  0.3539686054634403  0.7764245655080385  0.0526474576690252
  0.3557659504093983  0.8877785443258611  0.0546032432574359
  0.2563577336022623  0.9438876276361974  0.0507724467642810
  0.4518133332844702  0.7186269185734224  0.0612974188603084
  0.5536029872274639  0.8813691137288796  0.0666329586581177
  0.4562102384654689  0.9424344528154167  0.0606109651740526
  0.7570250450930456  0.8808611454303090  0.0607425774987703
  0.6557801965497571  0.9367664087303674  0.0655128958785894
  0.8583249061834312  0.7204574896467157  0.0508791093177712
  0.9569899146644166  0.7759976097159388  0.0469212813059100
  0.9561890260270134  0.8872495874297602  0.0500329430838077
  0.8554331442229052  0.9407586182810009  0.0556725243802242
  0.4523492899262008  0.3936198378552681  0.0577120571052842
  0.4511809500435131  0.6066040184856727  0.0599466124673421
  0.6648474449764162  0.3926947065172602  0.0705449697096429
  0.7624516196118692  0.5547292032086744  0.0592194297961687
  0.5477207062320295  0.7738769682848460  0.0710013308979373
  0.7612895953284173  0.7721944387715108  0.0591374091859988
  0.6549115838886613  0.6676071276155858  0.0832001247634107
  0.5539396144152383  0.4953888209417573  0.0821352789350670
  0.6056050533287237  0.5900540196635949  0.1455640416452751
 
  0.00000000E+00  0.00000000E+00  0.00000000E+00
  0.00000000E+00  0.00000000E+00  0.00000000E+00
  0.00000000E+00  0.00000000E+00  0.00000000E+00
  0.00000000E+00  0.00000000E+00  0.00000000E+00
  0.00000000E+00  0.00000000E+00  0.00000000E+00
  0.00000000E+00  0.00000000E+00  0.00000000E+00
  0.00000000E+00  0.00000000E+00  0.00000000E+00
  0.00000000E+00  0.00000000E+00  0.00000000E+00
  0.00000000E+00  0.00000000E+00  0.00000000E+00
  0.00000000E+00  0.00000000E+00  0.00000000E+00
  0.00000000E+00  0.00000000E+00  0.00000000E+00
  0.00000000E+00  0.00000000E+00  0.00000000E+00
  0.00000000E+00  0.00000000E+00  0.00000000E+00
  0.00000000E+00  0.00000000E+00  0.00000000E+00
  0.00000000E+00  0.00000000E+00  0.00000000E+00
  0.00000000E+00  0.00000000E+00  0.00000000E+00
  0.00000000E+00  0.00000000E+00  0.00000000E+00
  0.00000000E+00  0.00000000E+00  0.00000000E+00
  0.00000000E+00  0.00000000E+00  0.00000000E+00
  0.00000000E+00  0.00000000E+00  0.00000000E+00
  0.00000000E+00  0.00000000E+00  0.00000000E+00
  0.00000000E+00  0.00000000E+00  0.00000000E+00
  0.00000000E+00  0.00000000E+00  0.00000000E+00
  0.00000000E+00  0.00000000E+00  0.00000000E+00
  0.00000000E+00  0.00000000E+00  0.00000000E+00
  0.00000000E+00  0.00000000E+00  0.00000000E+00
  0.00000000E+00  0.00000000E+00  0.00000000E+00
  0.00000000E+00  0.00000000E+00  0.00000000E+00
  0.00000000E+00  0.00000000E+00  0.00000000E+00
  0.00000000E+00  0.00000000E+00  0.00000000E+00
  0.00000000E+00  0.00000000E+00  0.00000000E+00
  0.00000000E+00  0.00000000E+00  0.00000000E+00
  0.00000000E+00  0.00000000E+00  0.00000000E+00
  0.00000000E+00  0.00000000E+00  0.00000000E+00
  0.00000000E+00  0.00000000E+00  0.00000000E+00
  0.00000000E+00  0.00000000E+00  0.00000000E+00
  0.00000000E+00  0.00000000E+00  0.00000000E+00
  0.00000000E+00  0.00000000E+00  0.00000000E+00
  0.00000000E+00  0.00000000E+00  0.00000000E+00
  0.00000000E+00  0.00000000E+00  0.00000000E+00
  0.00000000E+00  0.00000000E+00  0.00000000E+00
  0.00000000E+00  0.00000000E+00  0.00000000E+00
  0.00000000E+00  0.00000000E+00  0.00000000E+00
  0.00000000E+00  0.00000000E+00  0.00000000E+00
  0.00000000E+00  0.00000000E+00  0.00000000E+00
  0.00000000E+00  0.00000000E+00  0.00000000E+00
  0.00000000E+00  0.00000000E+00  0.00000000E+00
  0.00000000E+00  0.00000000E+00  0.00000000E+00
  0.00000000E+00  0.00000000E+00  0.00000000E+00
  0.00000000E+00  0.00000000E+00  0.00000000E+00
  0.00000000E+00  0.00000000E+00  0.00000000E+00
  0.00000000E+00  0.00000000E+00  0.00000000E+00
  0.00000000E+00  0.00000000E+00  0.00000000E+00
  0.00000000E+00  0.00000000E+00  0.00000000E+00
  0.00000000E+00  0.00000000E+00  0.00000000E+00
  0.00000000E+00  0.00000000E+00  0.00000000E+00
  0.00000000E+00  0.00000000E+00  0.00000000E+00
  0.00000000E+00  0.00000000E+00  0.00000000E+00
  0.00000000E+00  0.00000000E+00  0.00000000E+00
