CONTCAR                                 
   1.00000000000000     
    12.3312997818000003    0.0000000000000000    0.0000000000000000
     0.0001127485000000   12.8291997905000006    0.0000000000000000
     0.0005937186000000    0.0011528207000000   19.9943999824000009
   C    N    Fe   Ni   O    H 
    53     3     1     1     1     1
Direct
  0.0554951269523609  0.0544840127810248  0.0494055674387463
  0.1559407321661648  0.1098584183280752  0.0501478514182489
  0.1557563063067898  0.2206753159376192  0.0484489685545392
  0.0560705140518923  0.2762507158643754  0.0465365557416529
  0.2567489334910253  0.0558024894829482  0.0532548752871764
  0.3567408042196465  0.1126591597660691  0.0565285530613802
  0.3563164266761848  0.2246216323845061  0.0553751205630660
  0.2550341313989059  0.2768422122943770  0.0501966090206659
  0.4567659792128134  0.0577926085294975  0.0608145452038924
  0.5561703452344332  0.1164294701501882  0.0622224494409164
  0.5568668218046272  0.2303929815787234  0.0626905858507626
  0.4545955307168786  0.2852560540733261  0.0598384881416377
  0.6550243413685816  0.0567653298755771  0.0606879705029056
  0.7550410246415338  0.1121529354422258  0.0561791496846186
  0.7561925001671045  0.2243669956993542  0.0558954296055158
  0.6594181944040699  0.2858794437014000  0.0616943401766039
  0.8546421566161388  0.0551332968757799  0.0525004012227315
  0.9553526662573879  0.1099061148665261  0.0499585637563701
  0.9561646533451077  0.2210773942224594  0.0487573108856107
  0.8569849607499116  0.2774861959653376  0.0509088508062742
  0.0564801067489724  0.3874028401487302  0.0443002682046126
  0.1548013861037982  0.4439786332819067  0.0447839331850879
  0.1548468923666351  0.5552189177702270  0.0446979428083515
  0.0559978986922222  0.6110289524408232  0.0437585480785930
  0.2535244181718082  0.3874475125179059  0.0483511151135644
  0.3512529492612111  0.4424354378660930  0.0539685747487924
  0.3520374640774753  0.5543754129318913  0.0563055045326453
  0.2539935536097815  0.6108003394012370  0.0493946632630194
  0.7609433451177225  0.4457554622790095  0.0537252647961138
  0.8588211560020440  0.3882297925624033  0.0484296837725226
  0.9576299862138589  0.4432617389576796  0.0443448397132928
  0.9573711536451597  0.5540786053629486  0.0438697777793225
  0.8570279957311113  0.6067488330435560  0.0456605125261370
  0.0557963093480751  0.7221429161758188  0.0452521705969538
  0.1554305695789621  0.7777640250192303  0.0481964779556433
  0.1558595260624565  0.8888217648378436  0.0498001664770446
  0.0552506987717901  0.9434563239836423  0.0488851495542045
  0.2550394327109084  0.7218963120157474  0.0513141189051363
  0.3549600011182668  0.7762672791482109  0.0579041357678672
  0.3562074721776036  0.8885249230897652  0.0580516012046669
  0.2564166907289236  0.9442153559123574  0.0534537350373109
  0.4535353085590983  0.7176696275901339  0.0671925119733235
  0.5550371921913880  0.8870875307951533  0.0668764675417644
  0.4560938460765546  0.9451160735255754  0.0625002097368579
  0.7544212565810122  0.8861735711345415  0.0563776399987113
  0.6548464263689644  0.9441021982059404  0.0622501895481473
  0.8554064751845337  0.7201211903233399  0.0470917202456775
  0.9553241256684700  0.7764844939767144  0.0462720715700942
  0.9547543502624197  0.8879076005391225  0.0485549468425814
  0.8542754304393244  0.9431940687670289  0.0519127267579057
  0.4509712704909283  0.6048587317227428  0.0692079529858071
  0.5528074199843880  0.7760655358302927  0.0725020017824656
  0.7556491365906096  0.7745581966012030  0.0543999979125587
  0.4486057101228895  0.3930840871972304  0.0603884056267305
  0.6653211821905016  0.3940147959739352  0.0647475279007427
  0.7612543844537371  0.5529380081514795  0.0489858146033577
  0.6551981084371350  0.6707684789085554  0.0800287905148116
  0.5535421087712846  0.4957239511128774  0.0840173472717368
  0.6242939882051758  0.5782782829771352  0.1529101232012552
  0.5658911464012453  0.6067195591005855  0.1803832036012535
 
  0.00000000E+00  0.00000000E+00  0.00000000E+00
  0.00000000E+00  0.00000000E+00  0.00000000E+00
  0.00000000E+00  0.00000000E+00  0.00000000E+00
  0.00000000E+00  0.00000000E+00  0.00000000E+00
  0.00000000E+00  0.00000000E+00  0.00000000E+00
  0.00000000E+00  0.00000000E+00  0.00000000E+00
  0.00000000E+00  0.00000000E+00  0.00000000E+00
  0.00000000E+00  0.00000000E+00  0.00000000E+00
  0.00000000E+00  0.00000000E+00  0.00000000E+00
  0.00000000E+00  0.00000000E+00  0.00000000E+00
  0.00000000E+00  0.00000000E+00  0.00000000E+00
  0.00000000E+00  0.00000000E+00  0.00000000E+00
  0.00000000E+00  0.00000000E+00  0.00000000E+00
  0.00000000E+00  0.00000000E+00  0.00000000E+00
  0.00000000E+00  0.00000000E+00  0.00000000E+00
  0.00000000E+00  0.00000000E+00  0.00000000E+00
  0.00000000E+00  0.00000000E+00  0.00000000E+00
  0.00000000E+00  0.00000000E+00  0.00000000E+00
  0.00000000E+00  0.00000000E+00  0.00000000E+00
  0.00000000E+00  0.00000000E+00  0.00000000E+00
  0.00000000E+00  0.00000000E+00  0.00000000E+00
  0.00000000E+00  0.00000000E+00  0.00000000E+00
  0.00000000E+00  0.00000000E+00  0.00000000E+00
  0.00000000E+00  0.00000000E+00  0.00000000E+00
  0.00000000E+00  0.00000000E+00  0.00000000E+00
  0.00000000E+00  0.00000000E+00  0.00000000E+00
  0.00000000E+00  0.00000000E+00  0.00000000E+00
  0.00000000E+00  0.00000000E+00  0.00000000E+00
  0.00000000E+00  0.00000000E+00  0.00000000E+00
  0.00000000E+00  0.00000000E+00  0.00000000E+00
  0.00000000E+00  0.00000000E+00  0.00000000E+00
  0.00000000E+00  0.00000000E+00  0.00000000E+00
  0.00000000E+00  0.00000000E+00  0.00000000E+00
  0.00000000E+00  0.00000000E+00  0.00000000E+00
  0.00000000E+00  0.00000000E+00  0.00000000E+00
  0.00000000E+00  0.00000000E+00  0.00000000E+00
  0.00000000E+00  0.00000000E+00  0.00000000E+00
  0.00000000E+00  0.00000000E+00  0.00000000E+00
  0.00000000E+00  0.00000000E+00  0.00000000E+00
  0.00000000E+00  0.00000000E+00  0.00000000E+00
  0.00000000E+00  0.00000000E+00  0.00000000E+00
  0.00000000E+00  0.00000000E+00  0.00000000E+00
  0.00000000E+00  0.00000000E+00  0.00000000E+00
  0.00000000E+00  0.00000000E+00  0.00000000E+00
  0.00000000E+00  0.00000000E+00  0.00000000E+00
  0.00000000E+00  0.00000000E+00  0.00000000E+00
  0.00000000E+00  0.00000000E+00  0.00000000E+00
  0.00000000E+00  0.00000000E+00  0.00000000E+00
  0.00000000E+00  0.00000000E+00  0.00000000E+00
  0.00000000E+00  0.00000000E+00  0.00000000E+00
  0.00000000E+00  0.00000000E+00  0.00000000E+00
  0.00000000E+00  0.00000000E+00  0.00000000E+00
  0.00000000E+00  0.00000000E+00  0.00000000E+00
  0.00000000E+00  0.00000000E+00  0.00000000E+00
  0.00000000E+00  0.00000000E+00  0.00000000E+00
  0.00000000E+00  0.00000000E+00  0.00000000E+00
  0.00000000E+00  0.00000000E+00  0.00000000E+00
  0.00000000E+00  0.00000000E+00  0.00000000E+00
  0.00000000E+00  0.00000000E+00  0.00000000E+00
  0.00000000E+00  0.00000000E+00  0.00000000E+00
