CONTCAR                                 
   1.00000000000000     
    12.3312997818000003    0.0000000000000000    0.0000000000000000
     0.0001127485000000   12.8291997905000006    0.0000000000000000
     0.0005937186000000    0.0011528207000000   19.9943999824000009
   C    N    Fe   Ni
    54     2     1     1
Direct
  0.0563294674253848  0.0549953058739059  0.0557927662465880
  0.1563666793009794  0.1109998409613051  0.0558037009516450
  0.1573164876896231  0.2220155539433119  0.0557830881375257
  0.0572372591649273  0.2763714525012306  0.0557647622218379
  0.2563568549087435  0.0561892070432578  0.0558141665440338
  0.3567664259258012  0.1120810237864475  0.0557820737440858
  0.3579563929455696  0.2240013837578376  0.0557435755243780
  0.2575554763047263  0.2783340496199131  0.0557668286848617
  0.4558697287982560  0.0555003092785753  0.0557478188682819
  0.5569080249372753  0.1104610847860920  0.0557059431864170
  0.5574477569994701  0.2218483058912749  0.0556967855704150
  0.4583444403810454  0.2811074516921798  0.0556910475542605
  0.6567417571718812  0.0515142855590856  0.0556524672066436
  0.7564331137210957  0.1084091518858030  0.0556721498991857
  0.7574996330803077  0.2202372887554850  0.0556846732258416
  0.6582628159131750  0.2777354226793227  0.0556792877177031
  0.8556120238714159  0.0524293611570474  0.0556937885076062
  0.9560993802261746  0.1088753154350917  0.0557427174169944
  0.9572873867603610  0.2200424413979404  0.0557349817875913
  0.8578081044745101  0.2755242154132329  0.0556966687682383
  0.0580078291598429  0.3877038579086240  0.0557587932012968
  0.1571007413144361  0.4436936033492471  0.0557753152234515
  0.1563528416838199  0.5548057916842219  0.0557859695230879
  0.0566516233790453  0.6099713509788568  0.0557806043026392
  0.2573712840580620  0.3894653952992370  0.0557598742546913
  0.3573711789769148  0.4456835427708662  0.0557135254778538
  0.3564585428678765  0.5587834415074265  0.0557038208334926
  0.2552268735288229  0.6118366018594177  0.0557650518158690
  0.7608977369577536  0.4433450589193008  0.0556527449720316
  0.8598855629065671  0.3866269307815260  0.0556885462555124
  0.9584735817784031  0.4429923487204143  0.0557293085020264
  0.9571227953544663  0.5542640296136411  0.0557396991349964
  0.8565451861540235  0.6089875838496381  0.0556920556892961
  0.0555422424294550  0.7211444042012058  0.0557891670059914
  0.1537598856426147  0.7778871359592443  0.0558064170034989
  0.1550949207053384  0.8890717319682996  0.0558222335676146
  0.0555308581894397  0.9440372483264539  0.0558026522282270
  0.2526995457273742  0.7225383162742686  0.0557780578156158
  0.3510644114816666  0.7779581152822542  0.0557444579140563
  0.3543304434785057  0.8892279249491500  0.0557734459835697
  0.2550627768832185  0.9449867279000294  0.0558181854702407
  0.4487889116865072  0.7210024331330178  0.0556709747610092
  0.5531093490477357  0.8855217033747124  0.0556414070378520
  0.4545463829252377  0.9442850376591986  0.0557299900037023
  0.7556939116660284  0.8811823917190545  0.0556229188640343
  0.6559399825729263  0.9392581652398753  0.0556138069149743
  0.8572153824368111  0.7216402067267522  0.0556878326260827
  0.9560294262079672  0.7768630367644102  0.0557508395662715
  0.9560461062563190  0.8877356165935532  0.0557487347777310
  0.8548769508189444  0.9403599631494193  0.0556818009476709
  0.4574946942052993  0.3929639232789257  0.0556634778701314
  0.6621647056360094  0.3872006723733277  0.0556507288661255
  0.7560531993005017  0.5553806321206758  0.0556517429815556
  0.5473852884337065  0.7766844838365999  0.0556198947697145
  0.4521878628944377  0.6121409609709103  0.0556411854777789
  0.7586229037210238  0.7713225685914047  0.0556073653719548
  0.6428565581312116  0.6676250104451227  0.0555884581810381
  0.5676082454009587  0.4937495595013725  0.0556196260431290
 
  0.00000000E+00  0.00000000E+00  0.00000000E+00
  0.00000000E+00  0.00000000E+00  0.00000000E+00
  0.00000000E+00  0.00000000E+00  0.00000000E+00
  0.00000000E+00  0.00000000E+00  0.00000000E+00
  0.00000000E+00  0.00000000E+00  0.00000000E+00
  0.00000000E+00  0.00000000E+00  0.00000000E+00
  0.00000000E+00  0.00000000E+00  0.00000000E+00
  0.00000000E+00  0.00000000E+00  0.00000000E+00
  0.00000000E+00  0.00000000E+00  0.00000000E+00
  0.00000000E+00  0.00000000E+00  0.00000000E+00
  0.00000000E+00  0.00000000E+00  0.00000000E+00
  0.00000000E+00  0.00000000E+00  0.00000000E+00
  0.00000000E+00  0.00000000E+00  0.00000000E+00
  0.00000000E+00  0.00000000E+00  0.00000000E+00
  0.00000000E+00  0.00000000E+00  0.00000000E+00
  0.00000000E+00  0.00000000E+00  0.00000000E+00
  0.00000000E+00  0.00000000E+00  0.00000000E+00
  0.00000000E+00  0.00000000E+00  0.00000000E+00
  0.00000000E+00  0.00000000E+00  0.00000000E+00
  0.00000000E+00  0.00000000E+00  0.00000000E+00
  0.00000000E+00  0.00000000E+00  0.00000000E+00
  0.00000000E+00  0.00000000E+00  0.00000000E+00
  0.00000000E+00  0.00000000E+00  0.00000000E+00
  0.00000000E+00  0.00000000E+00  0.00000000E+00
  0.00000000E+00  0.00000000E+00  0.00000000E+00
  0.00000000E+00  0.00000000E+00  0.00000000E+00
  0.00000000E+00  0.00000000E+00  0.00000000E+00
  0.00000000E+00  0.00000000E+00  0.00000000E+00
  0.00000000E+00  0.00000000E+00  0.00000000E+00
  0.00000000E+00  0.00000000E+00  0.00000000E+00
  0.00000000E+00  0.00000000E+00  0.00000000E+00
  0.00000000E+00  0.00000000E+00  0.00000000E+00
  0.00000000E+00  0.00000000E+00  0.00000000E+00
  0.00000000E+00  0.00000000E+00  0.00000000E+00
  0.00000000E+00  0.00000000E+00  0.00000000E+00
  0.00000000E+00  0.00000000E+00  0.00000000E+00
  0.00000000E+00  0.00000000E+00  0.00000000E+00
  0.00000000E+00  0.00000000E+00  0.00000000E+00
  0.00000000E+00  0.00000000E+00  0.00000000E+00
  0.00000000E+00  0.00000000E+00  0.00000000E+00
  0.00000000E+00  0.00000000E+00  0.00000000E+00
  0.00000000E+00  0.00000000E+00  0.00000000E+00
  0.00000000E+00  0.00000000E+00  0.00000000E+00
  0.00000000E+00  0.00000000E+00  0.00000000E+00
  0.00000000E+00  0.00000000E+00  0.00000000E+00
  0.00000000E+00  0.00000000E+00  0.00000000E+00
  0.00000000E+00  0.00000000E+00  0.00000000E+00
  0.00000000E+00  0.00000000E+00  0.00000000E+00
  0.00000000E+00  0.00000000E+00  0.00000000E+00
  0.00000000E+00  0.00000000E+00  0.00000000E+00
  0.00000000E+00  0.00000000E+00  0.00000000E+00
  0.00000000E+00  0.00000000E+00  0.00000000E+00
  0.00000000E+00  0.00000000E+00  0.00000000E+00
  0.00000000E+00  0.00000000E+00  0.00000000E+00
  0.00000000E+00  0.00000000E+00  0.00000000E+00
  0.00000000E+00  0.00000000E+00  0.00000000E+00
  0.00000000E+00  0.00000000E+00  0.00000000E+00
  0.00000000E+00  0.00000000E+00  0.00000000E+00
