CONTCAR\(5)                             
   1.00000000000000     
    12.3312997818000003    0.0000000000000000    0.0000000000000000
     0.0001127485000000   12.8291997905000006    0.0000000000000000
     0.0005937186000000    0.0011528207000000   19.9943999824000009
   C    N    Fe   Ni   O 
    52     4     1     1     2
Direct
  0.0552327944952478  0.0556063389094990  0.0505685820493158
  0.1556747467926923  0.1109181385932023  0.0500287277392638
  0.1554631072136216  0.2219040432003785  0.0492397166778480
  0.0548282246984877  0.2769862945567572  0.0491008504524396
  0.2559888997411418  0.0555950520589533  0.0510678124078042
  0.3564919951847448  0.1106711208387221  0.0536999733664439
  0.3559477154882466  0.2227725945464101  0.0535231806047408
  0.2554297990273730  0.2772539275664102  0.0499491787382606
  0.4561702461277772  0.0536718968087582  0.0567232467917982
  0.5552948528046900  0.1105236533376056  0.0602637963280036
  0.5548405078544142  0.2237848118892674  0.0621275087569292
  0.4548197327591265  0.2812958759747588  0.0578699786124790
  0.6544056581701578  0.0507905417128070  0.0607037592711589
  0.7538572757736572  0.1089776232510569  0.0586265875893856
  0.7545741749836408  0.2215216615891353  0.0593033749827956
  0.6554156318146811  0.2803651281737601  0.0649120243944009
  0.8541158143426479  0.0536348977089848  0.0551778398676638
  0.9542346433177341  0.1101152328940484  0.0522967326447267
  0.9544819946603068  0.2217240283547929  0.0517870118353164
  0.8544338725523748  0.2778836303855459  0.0549312253380855
  0.0554078759723362  0.3880174344587991  0.0476127702571844
  0.1553056111215919  0.4437156181476061  0.0464609088578381
  0.1556615517086036  0.5544560432288201  0.0456983164778435
  0.0565855266364600  0.6107410007402582  0.0465093733128132
  0.2554483484046377  0.3887390273246563  0.0485319125516831
  0.3552591957871686  0.4436518574546145  0.0517209329139528
  0.3555570644422102  0.5566791509856596  0.0522933163267138
  0.2549890774173411  0.6101070990028521  0.0474098164009322
  0.7567021019999450  0.4490108349987622  0.0620612046499098
  0.8557245061848004  0.3898957217364836  0.0540632143593123
  0.9558206856183896  0.4441770238730772  0.0493290475988128
  0.9570812473177255  0.5555317589151135  0.0490701699858627
  0.8585010427359910  0.6120150539681746  0.0540435868019707
  0.0566745360366908  0.7216500530808764  0.0471022918975575
  0.1553214549434349  0.7775968503037919  0.0472857221304118
  0.1557052091063422  0.8888845167250887  0.0487363688565122
  0.0558044228240601  0.9447869828665089  0.0500281070944565
  0.2540960387475280  0.7211949260255466  0.0481371016266002
  0.3529940816932618  0.7762546912661263  0.0511808296679447
  0.3549080767522964  0.8875025539282484  0.0519545795298159
  0.2555924290588513  0.9440851965909651  0.0502294907234135
  0.4505190757745072  0.7181553244798990  0.0564303198454805
  0.5529136286600438  0.8801139057368937  0.0590797036677856
  0.4555695759249081  0.9412690379541329  0.0558632031765208
  0.7566597494590004  0.8812817954042900  0.0606518757475688
  0.6543013651316808  0.9363365030862975  0.0611494245653165
  0.8600870674062050  0.7237320633598341  0.0552593774833809
  0.9577364459148199  0.7783773667265673  0.0503207817975467
  0.9563614259010403  0.8890725971994349  0.0518377850931383
  0.8549758807816963  0.9416964144451155  0.0555820436842399
  0.6608900739254807  0.3900017731272786  0.0709556054624198
  0.7580147745476906  0.5618397756170175  0.0617312686768229
  0.4521789354568643  0.3898890948321592  0.0575007741276558
  0.4514435358017086  0.6108993684075426  0.0598920234941091
  0.5479018835011628  0.7708829346305407  0.0592709043756393
  0.7624415499160790  0.7734211261400580  0.0636496255774609
  0.6549654771816188  0.6693705295879263  0.0853100416043432
  0.5548305697782939  0.4866589071010310  0.0870276165859629
  0.6046580711296302  0.5288477979841418  0.1700727303212140
  0.6472090814951501  0.6303538222069456  0.1673847052429629
 
  0.00000000E+00  0.00000000E+00  0.00000000E+00
  0.00000000E+00  0.00000000E+00  0.00000000E+00
  0.00000000E+00  0.00000000E+00  0.00000000E+00
  0.00000000E+00  0.00000000E+00  0.00000000E+00
  0.00000000E+00  0.00000000E+00  0.00000000E+00
  0.00000000E+00  0.00000000E+00  0.00000000E+00
  0.00000000E+00  0.00000000E+00  0.00000000E+00
  0.00000000E+00  0.00000000E+00  0.00000000E+00
  0.00000000E+00  0.00000000E+00  0.00000000E+00
  0.00000000E+00  0.00000000E+00  0.00000000E+00
  0.00000000E+00  0.00000000E+00  0.00000000E+00
  0.00000000E+00  0.00000000E+00  0.00000000E+00
  0.00000000E+00  0.00000000E+00  0.00000000E+00
  0.00000000E+00  0.00000000E+00  0.00000000E+00
  0.00000000E+00  0.00000000E+00  0.00000000E+00
  0.00000000E+00  0.00000000E+00  0.00000000E+00
  0.00000000E+00  0.00000000E+00  0.00000000E+00
  0.00000000E+00  0.00000000E+00  0.00000000E+00
  0.00000000E+00  0.00000000E+00  0.00000000E+00
  0.00000000E+00  0.00000000E+00  0.00000000E+00
  0.00000000E+00  0.00000000E+00  0.00000000E+00
  0.00000000E+00  0.00000000E+00  0.00000000E+00
  0.00000000E+00  0.00000000E+00  0.00000000E+00
  0.00000000E+00  0.00000000E+00  0.00000000E+00
  0.00000000E+00  0.00000000E+00  0.00000000E+00
  0.00000000E+00  0.00000000E+00  0.00000000E+00
  0.00000000E+00  0.00000000E+00  0.00000000E+00
  0.00000000E+00  0.00000000E+00  0.00000000E+00
  0.00000000E+00  0.00000000E+00  0.00000000E+00
  0.00000000E+00  0.00000000E+00  0.00000000E+00
  0.00000000E+00  0.00000000E+00  0.00000000E+00
  0.00000000E+00  0.00000000E+00  0.00000000E+00
  0.00000000E+00  0.00000000E+00  0.00000000E+00
  0.00000000E+00  0.00000000E+00  0.00000000E+00
  0.00000000E+00  0.00000000E+00  0.00000000E+00
  0.00000000E+00  0.00000000E+00  0.00000000E+00
  0.00000000E+00  0.00000000E+00  0.00000000E+00
  0.00000000E+00  0.00000000E+00  0.00000000E+00
  0.00000000E+00  0.00000000E+00  0.00000000E+00
  0.00000000E+00  0.00000000E+00  0.00000000E+00
  0.00000000E+00  0.00000000E+00  0.00000000E+00
  0.00000000E+00  0.00000000E+00  0.00000000E+00
  0.00000000E+00  0.00000000E+00  0.00000000E+00
  0.00000000E+00  0.00000000E+00  0.00000000E+00
  0.00000000E+00  0.00000000E+00  0.00000000E+00
  0.00000000E+00  0.00000000E+00  0.00000000E+00
  0.00000000E+00  0.00000000E+00  0.00000000E+00
  0.00000000E+00  0.00000000E+00  0.00000000E+00
  0.00000000E+00  0.00000000E+00  0.00000000E+00
  0.00000000E+00  0.00000000E+00  0.00000000E+00
  0.00000000E+00  0.00000000E+00  0.00000000E+00
  0.00000000E+00  0.00000000E+00  0.00000000E+00
  0.00000000E+00  0.00000000E+00  0.00000000E+00
  0.00000000E+00  0.00000000E+00  0.00000000E+00
  0.00000000E+00  0.00000000E+00  0.00000000E+00
  0.00000000E+00  0.00000000E+00  0.00000000E+00
  0.00000000E+00  0.00000000E+00  0.00000000E+00
  0.00000000E+00  0.00000000E+00  0.00000000E+00
  0.00000000E+00  0.00000000E+00  0.00000000E+00
  0.00000000E+00  0.00000000E+00  0.00000000E+00
