12                                      
   1.00000000000000     
    12.3312997818000003    0.0000000000000000    0.0000000000000000
     0.0001127485000000   12.8291997905000006    0.0000000000000000
     0.0005937186000000    0.0011528207000000   19.9943999824000009
   C    N    Fe   Ni   H 
    54     2     1     1     2
Direct
  0.0573159209800706  0.0534837115994383  0.0528774504473156
  0.1574293261963662  0.1091673370454353  0.0528152787129156
  0.1579670563566090  0.2202322249972799  0.0524356510578130
  0.0581483705069284  0.2751411749727493  0.0515220554574084
  0.2574993523936978  0.0545891322148053  0.0534734697274537
  0.3576906513830430  0.1108809307882108  0.0545721620701431
  0.3580852363231795  0.2230471288093786  0.0546939984151830
  0.2574707134643175  0.2764666983067031  0.0533042334776523
  0.4568078235669354  0.0546155115981279  0.0557683210872778
  0.5561916404649250  0.1118732595050772  0.0567367073227355
  0.5566027568348139  0.2237484507925039  0.0563582690670713
  0.4571993190532510  0.2819237672615632  0.0555309472725576
  0.6561120016559160  0.0533379372817856  0.0575092845529317
  0.7569061242276529  0.1090273907806266  0.0555607673134053
  0.7579319934634395  0.2203357722055152  0.0545186970687741
  0.6582144449701565  0.2785100218534198  0.0562632107245770
  0.8565513417210062  0.0529058332473939  0.0545257400065228
  0.9571659383508572  0.1082446524171378  0.0530025999896820
  0.9582162993204151  0.2191514542566164  0.0519385934101216
  0.8586834363161243  0.2746602100020095  0.0520396972327327
  0.0592875934575949  0.3863373042987358  0.0510183748730346
  0.1578961372444471  0.4426833679921006  0.0517675522423163
  0.1568588622961763  0.5536700835572453  0.0515659022235731
  0.0568925980391797  0.6089366932360200  0.0514597986119477
  0.2577774131032671  0.3876837181190756  0.0530277973213776
  0.3574336963406704  0.4425510599025823  0.0540580951874066
  0.3571549591075356  0.5558029795972858  0.0543133902971983
  0.2560827728157436  0.6095256367574584  0.0525139825712077
  0.7629497105659352  0.4415603230424840  0.0534594626710233
  0.8615106224582414  0.3853228877730861  0.0507219779717144
  0.9597326564304475  0.4416972129601407  0.0504450948852995
  0.9576299510958136  0.5526222157897659  0.0513629245530362
  0.8561456933876426  0.6070731062196750  0.0526143121038456
  0.0565423010673560  0.7204020875786902  0.0518187439318451
  0.1555934653734226  0.7762229551052197  0.0518560961831251
  0.1565437482933774  0.8875840801277678  0.0523961825546480
  0.0566257170242714  0.9425605236735703  0.0528848522783429
  0.2550676116101356  0.7205480749004425  0.0523805831289579
  0.3544775907972973  0.7754210640433907  0.0539554386861052
  0.3562822268333387  0.8871614672205083  0.0543231299450161
  0.2566274452859892  0.9431051519305584  0.0531374019915613
  0.4527891984402073  0.7171872065821336  0.0568711580845805
  0.5548447525923027  0.8845999846850700  0.0596701371401650
  0.4560642004468916  0.9427932640750631  0.0561242652563842
  0.7555225234770369  0.8845178246822851  0.0589118100710486
  0.6556495776957255  0.9418909151479901  0.0596524595327957
  0.8572192233510182  0.7203679506614941  0.0547090272739331
  0.9565605725551158  0.7758246969538898  0.0530963305773128
  0.9563564929453388  0.8869329842254269  0.0538125762167093
  0.8558380636464767  0.9413930016752510  0.0555672958433748
  0.6641775685122207  0.3871075588464953  0.0572237505659800
  0.7570811703849365  0.5519700452440364  0.0545493442653204
  0.5516467523985467  0.7746141429444019  0.0632986923363821
  0.7576857081705500  0.7734287569052006  0.0603686869269808
  0.4549815615899726  0.3910887939438155  0.0548107302662929
  0.4535244699639341  0.6081253818121736  0.0569253192342878
  0.6515050736841391  0.6689485571162039  0.0805535151553259
  0.5667695215467101  0.4923001709020296  0.0583349104893513
  0.6186171969820298  0.6124807304136725  0.1630998577104391
  0.6072838164392907  0.6742433274218087  0.1679518824264755
 
  0.00000000E+00  0.00000000E+00  0.00000000E+00
  0.00000000E+00  0.00000000E+00  0.00000000E+00
  0.00000000E+00  0.00000000E+00  0.00000000E+00
  0.00000000E+00  0.00000000E+00  0.00000000E+00
  0.00000000E+00  0.00000000E+00  0.00000000E+00
  0.00000000E+00  0.00000000E+00  0.00000000E+00
  0.00000000E+00  0.00000000E+00  0.00000000E+00
  0.00000000E+00  0.00000000E+00  0.00000000E+00
  0.00000000E+00  0.00000000E+00  0.00000000E+00
  0.00000000E+00  0.00000000E+00  0.00000000E+00
  0.00000000E+00  0.00000000E+00  0.00000000E+00
  0.00000000E+00  0.00000000E+00  0.00000000E+00
  0.00000000E+00  0.00000000E+00  0.00000000E+00
  0.00000000E+00  0.00000000E+00  0.00000000E+00
  0.00000000E+00  0.00000000E+00  0.00000000E+00
  0.00000000E+00  0.00000000E+00  0.00000000E+00
  0.00000000E+00  0.00000000E+00  0.00000000E+00
  0.00000000E+00  0.00000000E+00  0.00000000E+00
  0.00000000E+00  0.00000000E+00  0.00000000E+00
  0.00000000E+00  0.00000000E+00  0.00000000E+00
  0.00000000E+00  0.00000000E+00  0.00000000E+00
  0.00000000E+00  0.00000000E+00  0.00000000E+00
  0.00000000E+00  0.00000000E+00  0.00000000E+00
  0.00000000E+00  0.00000000E+00  0.00000000E+00
  0.00000000E+00  0.00000000E+00  0.00000000E+00
  0.00000000E+00  0.00000000E+00  0.00000000E+00
  0.00000000E+00  0.00000000E+00  0.00000000E+00
  0.00000000E+00  0.00000000E+00  0.00000000E+00
  0.00000000E+00  0.00000000E+00  0.00000000E+00
  0.00000000E+00  0.00000000E+00  0.00000000E+00
  0.00000000E+00  0.00000000E+00  0.00000000E+00
  0.00000000E+00  0.00000000E+00  0.00000000E+00
  0.00000000E+00  0.00000000E+00  0.00000000E+00
  0.00000000E+00  0.00000000E+00  0.00000000E+00
  0.00000000E+00  0.00000000E+00  0.00000000E+00
  0.00000000E+00  0.00000000E+00  0.00000000E+00
  0.00000000E+00  0.00000000E+00  0.00000000E+00
  0.00000000E+00  0.00000000E+00  0.00000000E+00
  0.00000000E+00  0.00000000E+00  0.00000000E+00
  0.00000000E+00  0.00000000E+00  0.00000000E+00
  0.00000000E+00  0.00000000E+00  0.00000000E+00
  0.00000000E+00  0.00000000E+00  0.00000000E+00
  0.00000000E+00  0.00000000E+00  0.00000000E+00
  0.00000000E+00  0.00000000E+00  0.00000000E+00
  0.00000000E+00  0.00000000E+00  0.00000000E+00
  0.00000000E+00  0.00000000E+00  0.00000000E+00
  0.00000000E+00  0.00000000E+00  0.00000000E+00
  0.00000000E+00  0.00000000E+00  0.00000000E+00
  0.00000000E+00  0.00000000E+00  0.00000000E+00
  0.00000000E+00  0.00000000E+00  0.00000000E+00
  0.00000000E+00  0.00000000E+00  0.00000000E+00
  0.00000000E+00  0.00000000E+00  0.00000000E+00
  0.00000000E+00  0.00000000E+00  0.00000000E+00
  0.00000000E+00  0.00000000E+00  0.00000000E+00
  0.00000000E+00  0.00000000E+00  0.00000000E+00
  0.00000000E+00  0.00000000E+00  0.00000000E+00
  0.00000000E+00  0.00000000E+00  0.00000000E+00
  0.00000000E+00  0.00000000E+00  0.00000000E+00
  0.00000000E+00  0.00000000E+00  0.00000000E+00
  0.00000000E+00  0.00000000E+00  0.00000000E+00
