CONTCAR\(2)\(3)                         
   1.00000000000000     
    12.3312997818000003    0.0000000000000000    0.0000000000000000
     0.0001127485000000   12.8291997905000006    0.0000000000000000
     0.0005937186000000    0.0011528207000000   19.9943999824000009
   C    N    Fe   Ni   H 
    53     3     1     1     1
Direct
  0.0551720095885309  0.0546064397811043  0.0514216304732275
  0.1554263837470026  0.1100661212888703  0.0508523152507903
  0.1558550203973021  0.2207638142313404  0.0494320948449108
  0.0562373300573866  0.2758834145623881  0.0488898927269226
  0.2559425070913569  0.0558431347534966  0.0524407259561394
  0.3564201074981159  0.1115380347330749  0.0550854812187334
  0.3564755188498895  0.2233634082144718  0.0542259292828751
  0.2557232776958050  0.2766356597950999  0.0500444656327962
  0.4561346855290261  0.0561223114615110  0.0588372652131657
  0.5556124386885104  0.1138351096183491  0.0624126636219930
  0.5562683537326797  0.2267699069402345  0.0639288726948820
  0.4549568822611912  0.2826700346234986  0.0584839724902560
  0.6546288695501594  0.0534456439233341  0.0626802065000891
  0.7548338197574572  0.1103883187649707  0.0599320900096579
  0.7558894974773200  0.2230755790548964  0.0605824104404303
  0.6581304057487513  0.2838853868401714  0.0669404734036522
  0.8542225163485679  0.0535978003563770  0.0563448066594612
  0.9547703135126386  0.1095274380546959  0.0530763137611500
  0.9556781814433444  0.2208925595286710  0.0520076833592188
  0.8563390051129915  0.2774428933809727  0.0553526012268202
  0.0580384670795322  0.3869857525220534  0.0470096416718050
  0.1566035773442365  0.4434727381399085  0.0460672689186824
  0.1571777392148498  0.5547867161792742  0.0456568542083257
  0.0583287713714667  0.6103924413436491  0.0461797187966651
  0.2557742762145240  0.3874699776900242  0.0482947923571518
  0.3547614347687381  0.4422970719017421  0.0515190079154815
  0.3566045108289139  0.5561607967569275  0.0523557284411668
  0.2563458232057511  0.6107216060268625  0.0479899816797927
  0.7628798579704021  0.4484414270562599  0.0619691109412341
  0.8593532706002420  0.3890978425077031  0.0538002622939169
  0.9592787223589229  0.4427590986831287  0.0486593512866095
  0.9602738092165030  0.5532396313959876  0.0483176120687671
  0.8613255631038096  0.6076797361946349  0.0532027582269672
  0.0570472336965259  0.7217792389245141  0.0475098755218045
  0.1555600834997583  0.7776971973742726  0.0481886337874012
  0.1551550935236529  0.8888949607172791  0.0499120838526420
  0.0548963631626205  0.9435665792620779  0.0509105174041645
  0.2550600711030995  0.7217988875856941  0.0491987255342257
  0.3532881409672264  0.7781867962876619  0.0537925185544893
  0.3544229164870130  0.8894682728771676  0.0547562482204899
  0.2549651089503264  0.9449293053431056  0.0519794458302256
  0.4513107161688071  0.7219916878612471  0.0605636276682998
  0.5525969137820633  0.8839132388702253  0.0638824696400031
  0.4547257154463601  0.9439189763147177  0.0591284665341102
  0.7541759458506668  0.8824117043834664  0.0600292738095059
  0.6543777103950450  0.9403940102941081  0.0631776411179338
  0.8588028225728082  0.7199076178977739  0.0534882592275269
  0.9570866534891952  0.7765766068558736  0.0504180275104016
  0.9550499041936714  0.8875203591990788  0.0522121281807840
  0.8537886271046821  0.9411924933570074  0.0561874600532524
  0.6636671095339218  0.3947200131870022  0.0734360787660119
  0.7574884902156073  0.7695839656045759  0.0593209780132103
  0.4554567807208530  0.6102174273082543  0.0611552016991420
  0.4511804166171223  0.3909485005744447  0.0568512675553152
  0.7658184946837494  0.5575171273849325  0.0601925790856238
  0.5479140661863494  0.7769764076157181  0.0670978251845707
  0.6472522537227182  0.6640181127962090  0.0718045005251101
  0.5561855801611730  0.4943385208971105  0.0795718662478942
  0.6169838053990513  0.5616741129208006  0.1299603349021164
 
  0.00000000E+00  0.00000000E+00  0.00000000E+00
  0.00000000E+00  0.00000000E+00  0.00000000E+00
  0.00000000E+00  0.00000000E+00  0.00000000E+00
  0.00000000E+00  0.00000000E+00  0.00000000E+00
  0.00000000E+00  0.00000000E+00  0.00000000E+00
  0.00000000E+00  0.00000000E+00  0.00000000E+00
  0.00000000E+00  0.00000000E+00  0.00000000E+00
  0.00000000E+00  0.00000000E+00  0.00000000E+00
  0.00000000E+00  0.00000000E+00  0.00000000E+00
  0.00000000E+00  0.00000000E+00  0.00000000E+00
  0.00000000E+00  0.00000000E+00  0.00000000E+00
  0.00000000E+00  0.00000000E+00  0.00000000E+00
  0.00000000E+00  0.00000000E+00  0.00000000E+00
  0.00000000E+00  0.00000000E+00  0.00000000E+00
  0.00000000E+00  0.00000000E+00  0.00000000E+00
  0.00000000E+00  0.00000000E+00  0.00000000E+00
  0.00000000E+00  0.00000000E+00  0.00000000E+00
  0.00000000E+00  0.00000000E+00  0.00000000E+00
  0.00000000E+00  0.00000000E+00  0.00000000E+00
  0.00000000E+00  0.00000000E+00  0.00000000E+00
  0.00000000E+00  0.00000000E+00  0.00000000E+00
  0.00000000E+00  0.00000000E+00  0.00000000E+00
  0.00000000E+00  0.00000000E+00  0.00000000E+00
  0.00000000E+00  0.00000000E+00  0.00000000E+00
  0.00000000E+00  0.00000000E+00  0.00000000E+00
  0.00000000E+00  0.00000000E+00  0.00000000E+00
  0.00000000E+00  0.00000000E+00  0.00000000E+00
  0.00000000E+00  0.00000000E+00  0.00000000E+00
  0.00000000E+00  0.00000000E+00  0.00000000E+00
  0.00000000E+00  0.00000000E+00  0.00000000E+00
  0.00000000E+00  0.00000000E+00  0.00000000E+00
  0.00000000E+00  0.00000000E+00  0.00000000E+00
  0.00000000E+00  0.00000000E+00  0.00000000E+00
  0.00000000E+00  0.00000000E+00  0.00000000E+00
  0.00000000E+00  0.00000000E+00  0.00000000E+00
  0.00000000E+00  0.00000000E+00  0.00000000E+00
  0.00000000E+00  0.00000000E+00  0.00000000E+00
  0.00000000E+00  0.00000000E+00  0.00000000E+00
  0.00000000E+00  0.00000000E+00  0.00000000E+00
  0.00000000E+00  0.00000000E+00  0.00000000E+00
  0.00000000E+00  0.00000000E+00  0.00000000E+00
  0.00000000E+00  0.00000000E+00  0.00000000E+00
  0.00000000E+00  0.00000000E+00  0.00000000E+00
  0.00000000E+00  0.00000000E+00  0.00000000E+00
  0.00000000E+00  0.00000000E+00  0.00000000E+00
  0.00000000E+00  0.00000000E+00  0.00000000E+00
  0.00000000E+00  0.00000000E+00  0.00000000E+00
  0.00000000E+00  0.00000000E+00  0.00000000E+00
  0.00000000E+00  0.00000000E+00  0.00000000E+00
  0.00000000E+00  0.00000000E+00  0.00000000E+00
  0.00000000E+00  0.00000000E+00  0.00000000E+00
  0.00000000E+00  0.00000000E+00  0.00000000E+00
  0.00000000E+00  0.00000000E+00  0.00000000E+00
  0.00000000E+00  0.00000000E+00  0.00000000E+00
  0.00000000E+00  0.00000000E+00  0.00000000E+00
  0.00000000E+00  0.00000000E+00  0.00000000E+00
  0.00000000E+00  0.00000000E+00  0.00000000E+00
  0.00000000E+00  0.00000000E+00  0.00000000E+00
  0.00000000E+00  0.00000000E+00  0.00000000E+00
