CONTCAR\(9)                             
   1.00000000000000     
    12.3312997818000003    0.0000000000000000    0.0000000000000000
     0.0001127485000000   12.8291997905000006    0.0000000000000000
     0.0005937186000000    0.0011528207000000   19.9943999824000009
   C    N    Fe   Ni   O 
    52     4     1     1     2
Direct
  0.0559479199750259  0.0556130961685022  0.0509739488720474
  0.1563689316056258  0.1115379522418343  0.0512283577359016
  0.1567172629051809  0.2225160388113937  0.0500711469568399
  0.0566608661915466  0.2771781427053597  0.0484934758396110
  0.2566300995015702  0.0570327692143970  0.0529432583040232
  0.3570228877526807  0.1130012518608347  0.0555930534535612
  0.3568475071055170  0.2248697224538808  0.0552975943895866
  0.2564463270144140  0.2787419323906567  0.0512611320092599
  0.4569010255969482  0.0572864756251000  0.0584526995235296
  0.5563860083316959  0.1144477161390560  0.0605716945183171
  0.5569836876102368  0.2284290504177768  0.0614982085562094
  0.4555411667997443  0.2844064361156313  0.0594697606665121
  0.6544834987115765  0.0539547859116062  0.0601191864260473
  0.7548280292413667  0.1104138647005422  0.0572767408268029
  0.7565625786271120  0.2227618152319185  0.0567580984270143
  0.6590018985368740  0.2835466646277776  0.0610978378386071
  0.8547068411514137  0.0541146826784825  0.0543709504385190
  0.9553086078333783  0.1100924003136890  0.0518084544431317
  0.9564439031036599  0.2213675987374180  0.0505286786928950
  0.8571437935773371  0.2773043189656131  0.0523982342441935
  0.0575030901788772  0.3880690717887392  0.0463855989764806
  0.1567185061072380  0.4445977205553602  0.0462287398718329
  0.1572657671435883  0.5555722467380783  0.0460268148609090
  0.0581367825070445  0.6111093874209397  0.0453727547949925
  0.2562068324024148  0.3900262086723093  0.0491636722445647
  0.3557175993099970  0.4454481300806719  0.0533640009538727
  0.3571971821633569  0.5586720165079208  0.0533547005486652
  0.2566895180280592  0.6116882194912832  0.0489893915184544
  0.7605230516437026  0.4459334107982618  0.0559023694201331
  0.8588934723881402  0.3885326418098180  0.0506168621008373
  0.9583796403219740  0.4435952179191980  0.0466286184060763
  0.9589168224929595  0.5544709073627202  0.0459622246853246
  0.8596376946773813  0.6087874944746848  0.0494938764431525
  0.0574188535989033  0.7223309470682086  0.0466156877452088
  0.1559959048303391  0.7785274276736992  0.0482660758492077
  0.1559068138738192  0.8897970697784957  0.0499339166550763
  0.0556371062594489  0.9447297628177945  0.0503547865776642
  0.2550242610756893  0.7228927182649143  0.0497400465758191
  0.3535192495118359  0.7785611154807982  0.0534493211191828
  0.3551249460881324  0.8899584454111356  0.0544772168094073
  0.2557174747110704  0.9456302664247049  0.0522906658327773
  0.4515122986833504  0.7214155095274146  0.0582574601135533
  0.5523601733440930  0.8844233749000875  0.0611170574250061
  0.4554664315564921  0.9447269835964045  0.0581137357070329
  0.7543350178270392  0.8830583657357750  0.0586889357141644
  0.6537312359001534  0.9402636392514333  0.0610242879282877
  0.8599362515850446  0.7208630977234499  0.0510917156896998
  0.9577602181574696  0.7775792269149776  0.0486657379598200
  0.9556509593936238  0.8885975748978038  0.0509180784271860
  0.8543061253679697  0.9419729939341659  0.0544073818768572
  0.7585181827900692  0.5577183955164144  0.0556717745473657
  0.7593857929072099  0.7712756933037676  0.0588801081836930
  0.4511238936417022  0.3922230061689420  0.0607575727388303
  0.4540743033050484  0.6128532711153869  0.0587715219820399
  0.6647867594131134  0.3906853757954315  0.0630826399356011
  0.5474275203380534  0.7757295814188410  0.0625588283060327
  0.6515823869792379  0.6683971412295487  0.0797183308859815
  0.5605898949092250  0.4901906291686100  0.0833604802781658
  0.6342942042708909  0.6400140947663155  0.1685155684008194
  0.5947650061433590  0.5403747201840347  0.1693989287475923
 
  0.00000000E+00  0.00000000E+00  0.00000000E+00
  0.00000000E+00  0.00000000E+00  0.00000000E+00
  0.00000000E+00  0.00000000E+00  0.00000000E+00
  0.00000000E+00  0.00000000E+00  0.00000000E+00
  0.00000000E+00  0.00000000E+00  0.00000000E+00
  0.00000000E+00  0.00000000E+00  0.00000000E+00
  0.00000000E+00  0.00000000E+00  0.00000000E+00
  0.00000000E+00  0.00000000E+00  0.00000000E+00
  0.00000000E+00  0.00000000E+00  0.00000000E+00
  0.00000000E+00  0.00000000E+00  0.00000000E+00
  0.00000000E+00  0.00000000E+00  0.00000000E+00
  0.00000000E+00  0.00000000E+00  0.00000000E+00
  0.00000000E+00  0.00000000E+00  0.00000000E+00
  0.00000000E+00  0.00000000E+00  0.00000000E+00
  0.00000000E+00  0.00000000E+00  0.00000000E+00
  0.00000000E+00  0.00000000E+00  0.00000000E+00
  0.00000000E+00  0.00000000E+00  0.00000000E+00
  0.00000000E+00  0.00000000E+00  0.00000000E+00
  0.00000000E+00  0.00000000E+00  0.00000000E+00
  0.00000000E+00  0.00000000E+00  0.00000000E+00
  0.00000000E+00  0.00000000E+00  0.00000000E+00
  0.00000000E+00  0.00000000E+00  0.00000000E+00
  0.00000000E+00  0.00000000E+00  0.00000000E+00
  0.00000000E+00  0.00000000E+00  0.00000000E+00
  0.00000000E+00  0.00000000E+00  0.00000000E+00
  0.00000000E+00  0.00000000E+00  0.00000000E+00
  0.00000000E+00  0.00000000E+00  0.00000000E+00
  0.00000000E+00  0.00000000E+00  0.00000000E+00
  0.00000000E+00  0.00000000E+00  0.00000000E+00
  0.00000000E+00  0.00000000E+00  0.00000000E+00
  0.00000000E+00  0.00000000E+00  0.00000000E+00
  0.00000000E+00  0.00000000E+00  0.00000000E+00
  0.00000000E+00  0.00000000E+00  0.00000000E+00
  0.00000000E+00  0.00000000E+00  0.00000000E+00
  0.00000000E+00  0.00000000E+00  0.00000000E+00
  0.00000000E+00  0.00000000E+00  0.00000000E+00
  0.00000000E+00  0.00000000E+00  0.00000000E+00
  0.00000000E+00  0.00000000E+00  0.00000000E+00
  0.00000000E+00  0.00000000E+00  0.00000000E+00
  0.00000000E+00  0.00000000E+00  0.00000000E+00
  0.00000000E+00  0.00000000E+00  0.00000000E+00
  0.00000000E+00  0.00000000E+00  0.00000000E+00
  0.00000000E+00  0.00000000E+00  0.00000000E+00
  0.00000000E+00  0.00000000E+00  0.00000000E+00
  0.00000000E+00  0.00000000E+00  0.00000000E+00
  0.00000000E+00  0.00000000E+00  0.00000000E+00
  0.00000000E+00  0.00000000E+00  0.00000000E+00
  0.00000000E+00  0.00000000E+00  0.00000000E+00
  0.00000000E+00  0.00000000E+00  0.00000000E+00
  0.00000000E+00  0.00000000E+00  0.00000000E+00
  0.00000000E+00  0.00000000E+00  0.00000000E+00
  0.00000000E+00  0.00000000E+00  0.00000000E+00
  0.00000000E+00  0.00000000E+00  0.00000000E+00
  0.00000000E+00  0.00000000E+00  0.00000000E+00
  0.00000000E+00  0.00000000E+00  0.00000000E+00
  0.00000000E+00  0.00000000E+00  0.00000000E+00
  0.00000000E+00  0.00000000E+00  0.00000000E+00
  0.00000000E+00  0.00000000E+00  0.00000000E+00
  0.00000000E+00  0.00000000E+00  0.00000000E+00
  0.00000000E+00  0.00000000E+00  0.00000000E+00
