CONTCAR\(6)                             
   1.00000000000000     
    12.3312997818000003    0.0000000000000000    0.0000000000000000
     0.0001127485000000   12.8291997905000006    0.0000000000000000
     0.0005937186000000    0.0011528207000000   19.9943999824000009
   C    N    Fe   Ni   H 
    51     5     1     1     1
Direct
  0.0557429920414693  0.0541840686593887  0.0527032082023995
  0.1561460359557882  0.1097422517068807  0.0528060590131805
  0.1559474362616471  0.2203618127450872  0.0514204413604667
  0.0559605123723524  0.2758475822157398  0.0504831083254679
  0.2570289164799868  0.0553622498570062  0.0544983970730524
  0.3574147630406878  0.1111957388141450  0.0567486981170340
  0.3568454836448703  0.2231660493705619  0.0556873251704361
  0.2556865272012311  0.2761182691050852  0.0518369829104832
  0.4577906819943733  0.0556514747768543  0.0598381965918994
  0.5574394840766772  0.1138065279190199  0.0616623331621237
  0.5578648772818199  0.2286964114457735  0.0621864517185419
  0.4550974008852128  0.2838075032828617  0.0588054922798707
  0.6556209819715678  0.0525849146217032  0.0612154496271634
  0.7547257862864900  0.1100191836783895  0.0588595345107328
  0.7558887997854822  0.2231795329886735  0.0591931455453349
  0.6592969630130301  0.2851911579915612  0.0631813304721714
  0.8546771504403379  0.0532691122431657  0.0559562269390347
  0.9552307168028611  0.1089485318886383  0.0538624778041431
  0.9559630603922660  0.2205526739206711  0.0530044744996495
  0.8566960933456929  0.2772116167272554  0.0551725331743259
  0.0567243641919977  0.3870288159877197  0.0480968254365808
  0.1554366471519937  0.4431764998939602  0.0471183062389443
  0.1557735456748009  0.5540586086386793  0.0463372079210199
  0.0572667959401508  0.6103584033036765  0.0459328617299373
  0.2544348355311064  0.3869151502293766  0.0495767258902273
  0.3526208866158850  0.4417450838108369  0.0527357793435506
  0.3537797647613750  0.5543416923983435  0.0536547402646878
  0.2548835236544916  0.6098791842444659  0.0490591429243898
  0.7614207779747335  0.4468864377899947  0.0583918003835631
  0.8589995406615717  0.3885981996168763  0.0530500041013430
  0.9581537670923432  0.4432202009464759  0.0485702354987815
  0.9583967065647822  0.5543162481881645  0.0472484567642365
  0.8593139985429743  0.6084971758627004  0.0504980461060472
  0.0571487654677506  0.7211514393286204  0.0472578587743322
  0.1560516780067288  0.7773167497030949  0.0490726027665864
  0.1563349360602004  0.8882314984165517  0.0512033978184885
  0.0559490412683583  0.9432457654502726  0.0516170459223528
  0.2551049238073671  0.7210647489023962  0.0504822012461318
  0.3539943629262739  0.7765945667356200  0.0554285092540155
  0.3557606506565533  0.8882362305630517  0.0566283822350332
  0.2563772240554976  0.9440236989680288  0.0539517146727117
  0.4517268655653968  0.7192892085385723  0.0620496511188037
  0.5541762654939312  0.8819895234238461  0.0639735412074262
  0.4564156864643963  0.9429430508247725  0.0605207598152323
  0.7566351898331733  0.8808545821948971  0.0576880991159689
  0.6554681035340901  0.9375650253437535  0.0616367744957718
  0.8589549378693865  0.7206708735885810  0.0508420773826071
  0.9575360858614380  0.7762244958395467  0.0492431785525868
  0.9563164013990677  0.8874710414793469  0.0516453983153264
  0.8551783079485978  0.9410787474517072  0.0549776499515740
  0.4530756463985799  0.6074470275607244  0.0624007133334461
  0.4496838540858235  0.3911718050195694  0.0577910340534585
  0.6655073757532057  0.3948744622775059  0.0666804866604521
  0.7621708051636104  0.5556795720055981  0.0562384938520768
  0.5489133430156090  0.7739528052697570  0.0674886784174266
  0.7611565668695637  0.7722594303170931  0.0556379109002703
  0.6505802885093932  0.6646047824513774  0.0651944262860762
  0.5565047124751692  0.5000154235806024  0.0732681830701453
  0.6061282468787850  0.5830951428953686  0.1232392196808531
 
  0.00000000E+00  0.00000000E+00  0.00000000E+00
  0.00000000E+00  0.00000000E+00  0.00000000E+00
  0.00000000E+00  0.00000000E+00  0.00000000E+00
  0.00000000E+00  0.00000000E+00  0.00000000E+00
  0.00000000E+00  0.00000000E+00  0.00000000E+00
  0.00000000E+00  0.00000000E+00  0.00000000E+00
  0.00000000E+00  0.00000000E+00  0.00000000E+00
  0.00000000E+00  0.00000000E+00  0.00000000E+00
  0.00000000E+00  0.00000000E+00  0.00000000E+00
  0.00000000E+00  0.00000000E+00  0.00000000E+00
  0.00000000E+00  0.00000000E+00  0.00000000E+00
  0.00000000E+00  0.00000000E+00  0.00000000E+00
  0.00000000E+00  0.00000000E+00  0.00000000E+00
  0.00000000E+00  0.00000000E+00  0.00000000E+00
  0.00000000E+00  0.00000000E+00  0.00000000E+00
  0.00000000E+00  0.00000000E+00  0.00000000E+00
  0.00000000E+00  0.00000000E+00  0.00000000E+00
  0.00000000E+00  0.00000000E+00  0.00000000E+00
  0.00000000E+00  0.00000000E+00  0.00000000E+00
  0.00000000E+00  0.00000000E+00  0.00000000E+00
  0.00000000E+00  0.00000000E+00  0.00000000E+00
  0.00000000E+00  0.00000000E+00  0.00000000E+00
  0.00000000E+00  0.00000000E+00  0.00000000E+00
  0.00000000E+00  0.00000000E+00  0.00000000E+00
  0.00000000E+00  0.00000000E+00  0.00000000E+00
  0.00000000E+00  0.00000000E+00  0.00000000E+00
  0.00000000E+00  0.00000000E+00  0.00000000E+00
  0.00000000E+00  0.00000000E+00  0.00000000E+00
  0.00000000E+00  0.00000000E+00  0.00000000E+00
  0.00000000E+00  0.00000000E+00  0.00000000E+00
  0.00000000E+00  0.00000000E+00  0.00000000E+00
  0.00000000E+00  0.00000000E+00  0.00000000E+00
  0.00000000E+00  0.00000000E+00  0.00000000E+00
  0.00000000E+00  0.00000000E+00  0.00000000E+00
  0.00000000E+00  0.00000000E+00  0.00000000E+00
  0.00000000E+00  0.00000000E+00  0.00000000E+00
  0.00000000E+00  0.00000000E+00  0.00000000E+00
  0.00000000E+00  0.00000000E+00  0.00000000E+00
  0.00000000E+00  0.00000000E+00  0.00000000E+00
  0.00000000E+00  0.00000000E+00  0.00000000E+00
  0.00000000E+00  0.00000000E+00  0.00000000E+00
  0.00000000E+00  0.00000000E+00  0.00000000E+00
  0.00000000E+00  0.00000000E+00  0.00000000E+00
  0.00000000E+00  0.00000000E+00  0.00000000E+00
  0.00000000E+00  0.00000000E+00  0.00000000E+00
  0.00000000E+00  0.00000000E+00  0.00000000E+00
  0.00000000E+00  0.00000000E+00  0.00000000E+00
  0.00000000E+00  0.00000000E+00  0.00000000E+00
  0.00000000E+00  0.00000000E+00  0.00000000E+00
  0.00000000E+00  0.00000000E+00  0.00000000E+00
  0.00000000E+00  0.00000000E+00  0.00000000E+00
  0.00000000E+00  0.00000000E+00  0.00000000E+00
  0.00000000E+00  0.00000000E+00  0.00000000E+00
  0.00000000E+00  0.00000000E+00  0.00000000E+00
  0.00000000E+00  0.00000000E+00  0.00000000E+00
  0.00000000E+00  0.00000000E+00  0.00000000E+00
  0.00000000E+00  0.00000000E+00  0.00000000E+00
  0.00000000E+00  0.00000000E+00  0.00000000E+00
  0.00000000E+00  0.00000000E+00  0.00000000E+00
