CONTCAR\(6)                             
   1.00000000000000     
    12.3312997818000003    0.0000000000000000    0.0000000000000000
     0.0001127485000000   12.8291997905000006    0.0000000000000000
     0.0005937186000000    0.0011528207000000   19.9943999824000009
   C    N    Fe   Ni   O 
    51     5     1     1     2
Direct
  0.0551211366341408  0.0541781213885374  0.0511589597372179
  0.1556815863634204  0.1101202207146308  0.0508914992180315
  0.1561768643475707  0.2210682041210184  0.0497837454775934
  0.0561447255296912  0.2758254749040001  0.0492980833091130
  0.2561000048792863  0.0558642251783977  0.0523403182657058
  0.3565340259674359  0.1119284444902217  0.0547706579936111
  0.3564159231556328  0.2237926180689236  0.0541089837580500
  0.2558998302196734  0.2775123420457320  0.0503623226694366
  0.4566164831673414  0.0565780482717735  0.0580082721588349
  0.5561218433046399  0.1142447692701885  0.0603611968587880
  0.5571132051276597  0.2287144376921881  0.0612503744047780
  0.4549072729951555  0.2838191935394954  0.0582484046665326
  0.6538757040410441  0.0533739237228698  0.0604616889029405
  0.7542103923745441  0.1096830734940662  0.0582273567988231
  0.7559858682602677  0.2222910007571005  0.0584743864932446
  0.6593160765038258  0.2840112656705404  0.0624068887676505
  0.8540929991986783  0.0531596451581062  0.0552224040323010
  0.9547078981873178  0.1088857420566254  0.0526509731152940
  0.9559192657905745  0.2202989787121025  0.0520068873191828
  0.8567960885584084  0.2764011613090448  0.0547527719950647
  0.0571499784728174  0.3866522954328392  0.0474352888415056
  0.1560829310900073  0.4435229957195310  0.0464511021866557
  0.1564217015675201  0.5543607275759326  0.0464841146285608
  0.0574067268228294  0.6100793712552449  0.0463426862291561
  0.2553693451859591  0.3888564459269750  0.0485130994002757
  0.3546173182011322  0.4443244278881198  0.0525792259964809
  0.3557899594952968  0.5575399281374011  0.0540450676983596
  0.2556554406078844  0.6106300432976917  0.0495161133687363
  0.7615497230892637  0.4457547469924266  0.0588169162447065
  0.8591354333107903  0.3876176322946907  0.0533803221338496
  0.9585200828742771  0.4420920524207184  0.0487733714218308
  0.9586997022723326  0.5528746944644194  0.0479541275508945
  0.8594398343176899  0.6059139834672704  0.0516086395657795
  0.0564779215380811  0.7209669130759060  0.0471824585621777
  0.1551894269214988  0.7774715818445739  0.0486281734897680
  0.1551663761509936  0.8885358295185924  0.0499826623170585
  0.0545998360849137  0.9431343784661113  0.0504670578863763
  0.2540665255301620  0.7219198510488253  0.0505399739884802
  0.3525351914148375  0.7776407722746544  0.0545482218713459
  0.3544561854279078  0.8890005270284972  0.0547571694209138
  0.2550895036679126  0.9444866360734115  0.0521195053727259
  0.4500462894345202  0.7200542645743406  0.0600614425422734
  0.5518075443661269  0.8834707162613934  0.0615081784748624
  0.4550383507767116  0.9438820603955776  0.0581819325682447
  0.7537985250843279  0.8824364947764958  0.0591953478020320
  0.6530908311296728  0.9393269525488133  0.0613027169864055
  0.8584977576744034  0.7180490759535358  0.0521134245544438
  0.9565883799541712  0.7752970044538731  0.0492024793849661
  0.9546384251576479  0.8868180359556689  0.0512850592386527
  0.8536226246325491  0.9409464539512999  0.0549860637119244
  0.7583689761599017  0.7705196634284842  0.0596617984982427
  0.4500590940740611  0.3912069004877756  0.0593161484482218
  0.4523532821404177  0.6116483953618265  0.0612918277479494
  0.6658635195500446  0.3924974304844566  0.0658954542648214
  0.7620610353057030  0.5539090500261884  0.0567965154058256
  0.5464924796637032  0.7742326536635583  0.0635636839324661
  0.6520881770955602  0.6713033879450964  0.0776775513262291
  0.5557307952010473  0.4885795522907009  0.0878384688575655
  0.6125292052042381  0.5395303009528593  0.1675700591791970
  0.6418483507447648  0.6439149247186609  0.1672403599578329
 
  0.00000000E+00  0.00000000E+00  0.00000000E+00
  0.00000000E+00  0.00000000E+00  0.00000000E+00
  0.00000000E+00  0.00000000E+00  0.00000000E+00
  0.00000000E+00  0.00000000E+00  0.00000000E+00
  0.00000000E+00  0.00000000E+00  0.00000000E+00
  0.00000000E+00  0.00000000E+00  0.00000000E+00
  0.00000000E+00  0.00000000E+00  0.00000000E+00
  0.00000000E+00  0.00000000E+00  0.00000000E+00
  0.00000000E+00  0.00000000E+00  0.00000000E+00
  0.00000000E+00  0.00000000E+00  0.00000000E+00
  0.00000000E+00  0.00000000E+00  0.00000000E+00
  0.00000000E+00  0.00000000E+00  0.00000000E+00
  0.00000000E+00  0.00000000E+00  0.00000000E+00
  0.00000000E+00  0.00000000E+00  0.00000000E+00
  0.00000000E+00  0.00000000E+00  0.00000000E+00
  0.00000000E+00  0.00000000E+00  0.00000000E+00
  0.00000000E+00  0.00000000E+00  0.00000000E+00
  0.00000000E+00  0.00000000E+00  0.00000000E+00
  0.00000000E+00  0.00000000E+00  0.00000000E+00
  0.00000000E+00  0.00000000E+00  0.00000000E+00
  0.00000000E+00  0.00000000E+00  0.00000000E+00
  0.00000000E+00  0.00000000E+00  0.00000000E+00
  0.00000000E+00  0.00000000E+00  0.00000000E+00
  0.00000000E+00  0.00000000E+00  0.00000000E+00
  0.00000000E+00  0.00000000E+00  0.00000000E+00
  0.00000000E+00  0.00000000E+00  0.00000000E+00
  0.00000000E+00  0.00000000E+00  0.00000000E+00
  0.00000000E+00  0.00000000E+00  0.00000000E+00
  0.00000000E+00  0.00000000E+00  0.00000000E+00
  0.00000000E+00  0.00000000E+00  0.00000000E+00
  0.00000000E+00  0.00000000E+00  0.00000000E+00
  0.00000000E+00  0.00000000E+00  0.00000000E+00
  0.00000000E+00  0.00000000E+00  0.00000000E+00
  0.00000000E+00  0.00000000E+00  0.00000000E+00
  0.00000000E+00  0.00000000E+00  0.00000000E+00
  0.00000000E+00  0.00000000E+00  0.00000000E+00
  0.00000000E+00  0.00000000E+00  0.00000000E+00
  0.00000000E+00  0.00000000E+00  0.00000000E+00
  0.00000000E+00  0.00000000E+00  0.00000000E+00
  0.00000000E+00  0.00000000E+00  0.00000000E+00
  0.00000000E+00  0.00000000E+00  0.00000000E+00
  0.00000000E+00  0.00000000E+00  0.00000000E+00
  0.00000000E+00  0.00000000E+00  0.00000000E+00
  0.00000000E+00  0.00000000E+00  0.00000000E+00
  0.00000000E+00  0.00000000E+00  0.00000000E+00
  0.00000000E+00  0.00000000E+00  0.00000000E+00
  0.00000000E+00  0.00000000E+00  0.00000000E+00
  0.00000000E+00  0.00000000E+00  0.00000000E+00
  0.00000000E+00  0.00000000E+00  0.00000000E+00
  0.00000000E+00  0.00000000E+00  0.00000000E+00
  0.00000000E+00  0.00000000E+00  0.00000000E+00
  0.00000000E+00  0.00000000E+00  0.00000000E+00
  0.00000000E+00  0.00000000E+00  0.00000000E+00
  0.00000000E+00  0.00000000E+00  0.00000000E+00
  0.00000000E+00  0.00000000E+00  0.00000000E+00
  0.00000000E+00  0.00000000E+00  0.00000000E+00
  0.00000000E+00  0.00000000E+00  0.00000000E+00
  0.00000000E+00  0.00000000E+00  0.00000000E+00
  0.00000000E+00  0.00000000E+00  0.00000000E+00
  0.00000000E+00  0.00000000E+00  0.00000000E+00
