POSCAR\(2)                              
   1.00000000000000     
    12.3312997818000003    0.0000000000000000    0.0000000000000000
     0.0001127485000000   12.8291997905000006    0.0000000000000000
     0.0005937186000000    0.0011528207000000   19.9943999824000009
   C    N    Fe   Ni
    54     2     1     1
Direct
  0.0558636828325489  0.0545439391102616  0.0557772312563678
  0.1559917457919682  0.1104633065347464  0.0557885588393914
  0.1568428659116177  0.2213453436486555  0.0557735832236088
  0.0569597676407174  0.2760875492410032  0.0557550468080794
  0.2561353037250203  0.0559365872627251  0.0558001670026222
  0.3566957177671494  0.1116647299787034  0.0557718151069398
  0.3576273861177567  0.2232486994662053  0.0557442154187948
  0.2570618874579901  0.2772573562730138  0.0557611943819578
  0.4561802473303505  0.0556131467402426  0.0557428451122681
  0.5572266783849700  0.1109865732867449  0.0557007495172098
  0.5578753174825904  0.2224910731619385  0.0556881093101579
  0.4581707178580783  0.2805085280398659  0.0556955282593908
  0.6570580940182851  0.0521754689672293  0.0556646738711769
  0.7565242848583971  0.1090827780301185  0.0556839197796136
  0.7574316996471183  0.2210147391380958  0.0556967329790120
  0.6588323418140902  0.2794744006075894  0.0556673110529619
  0.8554391926136803  0.0525537252300234  0.0557018891230435
  0.9557941104411073  0.1089261814477593  0.0557418732607716
  0.9569253257946621  0.2203866671755715  0.0557397432843826
  0.8574296955841902  0.2763390423148853  0.0557175206603150
  0.0579343106625995  0.3875027574732034  0.0557495167596071
  0.1569310262488728  0.4435133289049673  0.0557701441782638
  0.1565552567136207  0.5549617608243081  0.0557816544001363
  0.0566878731414816  0.6101430789142271  0.0557706055936270
  0.2568000684995472  0.3883060040598979  0.0557604573569165
  0.3561848646290884  0.4441115559740620  0.0557274508648974
  0.3570404343988760  0.5573040141240607  0.0557330352811164
  0.2559071640501153  0.6113751391847206  0.0557747063646430
  0.7610607391553299  0.4457026593474968  0.0556463125202723
  0.8595170565532639  0.3878672096889481  0.0557000039949786
  0.9586669827197587  0.4429232063653534  0.0557227585610494
  0.9575531624016723  0.5541008434722456  0.0557224945630119
  0.8567025248193124  0.6076524556236915  0.0556640661703732
  0.0553505059854462  0.7211348477483306  0.0557785435748718
  0.1537980682782641  0.7775954858072888  0.0558011276431570
  0.1549665158460470  0.8887341362435044  0.0558118006350788
  0.0551615043496258  0.9434774021475871  0.0557863502718259
  0.2530865608080790  0.7224294501732941  0.0557801444969847
  0.3509162144109797  0.7787484428569710  0.0557406508370735
  0.3542040459850273  0.8895001222147833  0.0557671693873670
  0.2549085541717763  0.9449451266593887  0.0558087379028242
  0.4493962904469106  0.7226153586722407  0.0556803517872291
  0.5542801363356014  0.8865115490236960  0.0556587971908443
  0.4550065412417493  0.9444067752502111  0.0557311284588562
  0.7556988775990537  0.8810687412149480  0.0556380545452326
  0.6564225086291837  0.9400238113691204  0.0556386114338733
  0.8561489144003733  0.7207768214215898  0.0556718347760644
  0.9555665019392764  0.7759283842591437  0.0557383843679885
  0.9556736501032248  0.8871117694856429  0.0557421362532525
  0.8547715311757963  0.9401604841212797  0.0556848238995201
  0.4560821909210175  0.3917102943999298  0.0556782957322384
  0.6616645511273622  0.3895397672082725  0.0556337175973547
  0.5481254924808485  0.7776059301383516  0.0556376716467373
  0.4567165004985307  0.6118247414117556  0.0556865305407438
  0.7600920971474154  0.5552061364619750  0.0556182742996318
  0.7576402029909896  0.7708474569226512  0.0556206007366483
  0.6412086638771861  0.6669053037336898  0.0556140771048568
  0.5648757861844023  0.4942277704417896  0.0556362730227359
 
  0.00000000E+00  0.00000000E+00  0.00000000E+00
  0.00000000E+00  0.00000000E+00  0.00000000E+00
  0.00000000E+00  0.00000000E+00  0.00000000E+00
  0.00000000E+00  0.00000000E+00  0.00000000E+00
  0.00000000E+00  0.00000000E+00  0.00000000E+00
  0.00000000E+00  0.00000000E+00  0.00000000E+00
  0.00000000E+00  0.00000000E+00  0.00000000E+00
  0.00000000E+00  0.00000000E+00  0.00000000E+00
  0.00000000E+00  0.00000000E+00  0.00000000E+00
  0.00000000E+00  0.00000000E+00  0.00000000E+00
  0.00000000E+00  0.00000000E+00  0.00000000E+00
  0.00000000E+00  0.00000000E+00  0.00000000E+00
  0.00000000E+00  0.00000000E+00  0.00000000E+00
  0.00000000E+00  0.00000000E+00  0.00000000E+00
  0.00000000E+00  0.00000000E+00  0.00000000E+00
  0.00000000E+00  0.00000000E+00  0.00000000E+00
  0.00000000E+00  0.00000000E+00  0.00000000E+00
  0.00000000E+00  0.00000000E+00  0.00000000E+00
  0.00000000E+00  0.00000000E+00  0.00000000E+00
  0.00000000E+00  0.00000000E+00  0.00000000E+00
  0.00000000E+00  0.00000000E+00  0.00000000E+00
  0.00000000E+00  0.00000000E+00  0.00000000E+00
  0.00000000E+00  0.00000000E+00  0.00000000E+00
  0.00000000E+00  0.00000000E+00  0.00000000E+00
  0.00000000E+00  0.00000000E+00  0.00000000E+00
  0.00000000E+00  0.00000000E+00  0.00000000E+00
  0.00000000E+00  0.00000000E+00  0.00000000E+00
  0.00000000E+00  0.00000000E+00  0.00000000E+00
  0.00000000E+00  0.00000000E+00  0.00000000E+00
  0.00000000E+00  0.00000000E+00  0.00000000E+00
  0.00000000E+00  0.00000000E+00  0.00000000E+00
  0.00000000E+00  0.00000000E+00  0.00000000E+00
  0.00000000E+00  0.00000000E+00  0.00000000E+00
  0.00000000E+00  0.00000000E+00  0.00000000E+00
  0.00000000E+00  0.00000000E+00  0.00000000E+00
  0.00000000E+00  0.00000000E+00  0.00000000E+00
  0.00000000E+00  0.00000000E+00  0.00000000E+00
  0.00000000E+00  0.00000000E+00  0.00000000E+00
  0.00000000E+00  0.00000000E+00  0.00000000E+00
  0.00000000E+00  0.00000000E+00  0.00000000E+00
  0.00000000E+00  0.00000000E+00  0.00000000E+00
  0.00000000E+00  0.00000000E+00  0.00000000E+00
  0.00000000E+00  0.00000000E+00  0.00000000E+00
  0.00000000E+00  0.00000000E+00  0.00000000E+00
  0.00000000E+00  0.00000000E+00  0.00000000E+00
  0.00000000E+00  0.00000000E+00  0.00000000E+00
  0.00000000E+00  0.00000000E+00  0.00000000E+00
  0.00000000E+00  0.00000000E+00  0.00000000E+00
  0.00000000E+00  0.00000000E+00  0.00000000E+00
  0.00000000E+00  0.00000000E+00  0.00000000E+00
  0.00000000E+00  0.00000000E+00  0.00000000E+00
  0.00000000E+00  0.00000000E+00  0.00000000E+00
  0.00000000E+00  0.00000000E+00  0.00000000E+00
  0.00000000E+00  0.00000000E+00  0.00000000E+00
  0.00000000E+00  0.00000000E+00  0.00000000E+00
  0.00000000E+00  0.00000000E+00  0.00000000E+00
  0.00000000E+00  0.00000000E+00  0.00000000E+00
  0.00000000E+00  0.00000000E+00  0.00000000E+00
