CONTCAR\(4)                             
   1.00000000000000     
    12.3312997818000003    0.0000000000000000    0.0000000000000000
     0.0001127485000000   12.8291997905000006    0.0000000000000000
     0.0005937186000000    0.0011528207000000   19.9943999824000009
   C    N    Fe   Ni   H 
    53     3     1     1     2
Direct
  0.0570622994988414  0.0542094966632001  0.0505648306680769
  0.1573497517685412  0.1097322955110079  0.0506362178470034
  0.1573582290487427  0.2207555543259977  0.0504617899104268
  0.0570630516370496  0.2757447741849420  0.0501440252471281
  0.2578661387879232  0.0546326841133519  0.0516266663169451
  0.3581883165133841  0.1107511170965493  0.0535822551910709
  0.3584179907481701  0.2230476998954378  0.0533918114106726
  0.2573364861774692  0.2769225777722435  0.0511923023247312
  0.4578718891164463  0.0541157998120185  0.0562566386296903
  0.5580146761781446  0.1109610219876439  0.0585614140195803
  0.5582869653844713  0.2234717647380323  0.0585136835157032
  0.4584226300266612  0.2815791119989483  0.0557817129735061
  0.6571449310003457  0.0513559930597689  0.0592758122756796
  0.7564068203700124  0.1086574899276098  0.0567017744937663
  0.7573747272716402  0.2207607142922834  0.0565742212400875
  0.6590295342640992  0.2799964491223826  0.0594557634057816
  0.8562694547235616  0.0531015158992669  0.0539406509869423
  0.9567316145572013  0.1087288213114011  0.0517356211226218
  0.9573146187284453  0.2197696510505894  0.0514166309504679
  0.8576760115170621  0.2753008515951854  0.0533203257588727
  0.0565040581027002  0.3870416158623081  0.0496069819517831
  0.1553921663311272  0.4428699225064824  0.0495516363795960
  0.1546248353235631  0.5539885433667346  0.0492175862041620
  0.0553970504704415  0.6095614732892581  0.0491101984872038
  0.2555051375437107  0.3879289543727113  0.0505735878039410
  0.3543368694432582  0.4443974322923898  0.0517986849779143
  0.3535073098364611  0.5564629096593356  0.0519564754244141
  0.2539880102645914  0.6106239800986929  0.0500701147937995
  0.7591911049306290  0.4423294381852436  0.0573951085610404
  0.8581516671990453  0.3864513799926835  0.0526354812198997
  0.9567656261010890  0.4429812620885721  0.0502303996075032
  0.9552720623098545  0.5540748693857159  0.0501354503067625
  0.8539227769464948  0.6084195396829234  0.0525402074160767
  0.0562542798755111  0.7206915823372315  0.0490748593299693
  0.1553231530295773  0.7769704017785387  0.0491134848527740
  0.1567867540092612  0.8880156584325575  0.0497087696976916
  0.0568373669650844  0.9432974491814711  0.0500953041781742
  0.2544255725107216  0.7211777113830221  0.0498930598498982
  0.3546902166052434  0.7747432117356629  0.0524493997659897
  0.3569591004259601  0.8866040766611470  0.0534318974635458
  0.2573211535481689  0.9430504087450614  0.0512171783485694
  0.4522611027491915  0.7151491784042363  0.0573524745505899
  0.5553567353724981  0.8819228230078425  0.0623824968475940
  0.4571007113819344  0.9417876257815783  0.0568956131418991
  0.7576034863703007  0.8829220766560827  0.0580055975162208
  0.6567825851839056  0.9387008195384297  0.0611669097508225
  0.8573862557260837  0.7218465090351277  0.0527627525912558
  0.9568188272235292  0.7764470397077033  0.0503236880794672
  0.9570844726273818  0.8875823092563438  0.0510947271864357
  0.8563691726644252  0.9414334786872545  0.0538787897544757
  0.4546117671942714  0.3929041010314830  0.0543784302838690
  0.7533804903220805  0.5538355982290527  0.0583166782835521
  0.5504259395792426  0.7714291943887541  0.0676443445361745
  0.6629558575407256  0.3870617675981290  0.0615940772657651
  0.7609540597472366  0.7745991974723716  0.0583904207400067
  0.4511364206700967  0.6061541541342420  0.0553787264260213
  0.6576685369439352  0.6741263242448897  0.0896362562632348
  0.5636594834777252  0.4933423949333645  0.0603253667607908
  0.6002159664085018  0.6586092765551482  0.1612384844064132
  0.6026758297262153  0.5925989319423841  0.1438241397059553
 
  0.00000000E+00  0.00000000E+00  0.00000000E+00
  0.00000000E+00  0.00000000E+00  0.00000000E+00
  0.00000000E+00  0.00000000E+00  0.00000000E+00
  0.00000000E+00  0.00000000E+00  0.00000000E+00
  0.00000000E+00  0.00000000E+00  0.00000000E+00
  0.00000000E+00  0.00000000E+00  0.00000000E+00
  0.00000000E+00  0.00000000E+00  0.00000000E+00
  0.00000000E+00  0.00000000E+00  0.00000000E+00
  0.00000000E+00  0.00000000E+00  0.00000000E+00
  0.00000000E+00  0.00000000E+00  0.00000000E+00
  0.00000000E+00  0.00000000E+00  0.00000000E+00
  0.00000000E+00  0.00000000E+00  0.00000000E+00
  0.00000000E+00  0.00000000E+00  0.00000000E+00
  0.00000000E+00  0.00000000E+00  0.00000000E+00
  0.00000000E+00  0.00000000E+00  0.00000000E+00
  0.00000000E+00  0.00000000E+00  0.00000000E+00
  0.00000000E+00  0.00000000E+00  0.00000000E+00
  0.00000000E+00  0.00000000E+00  0.00000000E+00
  0.00000000E+00  0.00000000E+00  0.00000000E+00
  0.00000000E+00  0.00000000E+00  0.00000000E+00
  0.00000000E+00  0.00000000E+00  0.00000000E+00
  0.00000000E+00  0.00000000E+00  0.00000000E+00
  0.00000000E+00  0.00000000E+00  0.00000000E+00
  0.00000000E+00  0.00000000E+00  0.00000000E+00
  0.00000000E+00  0.00000000E+00  0.00000000E+00
  0.00000000E+00  0.00000000E+00  0.00000000E+00
  0.00000000E+00  0.00000000E+00  0.00000000E+00
  0.00000000E+00  0.00000000E+00  0.00000000E+00
  0.00000000E+00  0.00000000E+00  0.00000000E+00
  0.00000000E+00  0.00000000E+00  0.00000000E+00
  0.00000000E+00  0.00000000E+00  0.00000000E+00
  0.00000000E+00  0.00000000E+00  0.00000000E+00
  0.00000000E+00  0.00000000E+00  0.00000000E+00
  0.00000000E+00  0.00000000E+00  0.00000000E+00
  0.00000000E+00  0.00000000E+00  0.00000000E+00
  0.00000000E+00  0.00000000E+00  0.00000000E+00
  0.00000000E+00  0.00000000E+00  0.00000000E+00
  0.00000000E+00  0.00000000E+00  0.00000000E+00
  0.00000000E+00  0.00000000E+00  0.00000000E+00
  0.00000000E+00  0.00000000E+00  0.00000000E+00
  0.00000000E+00  0.00000000E+00  0.00000000E+00
  0.00000000E+00  0.00000000E+00  0.00000000E+00
  0.00000000E+00  0.00000000E+00  0.00000000E+00
  0.00000000E+00  0.00000000E+00  0.00000000E+00
  0.00000000E+00  0.00000000E+00  0.00000000E+00
  0.00000000E+00  0.00000000E+00  0.00000000E+00
  0.00000000E+00  0.00000000E+00  0.00000000E+00
  0.00000000E+00  0.00000000E+00  0.00000000E+00
  0.00000000E+00  0.00000000E+00  0.00000000E+00
  0.00000000E+00  0.00000000E+00  0.00000000E+00
  0.00000000E+00  0.00000000E+00  0.00000000E+00
  0.00000000E+00  0.00000000E+00  0.00000000E+00
  0.00000000E+00  0.00000000E+00  0.00000000E+00
  0.00000000E+00  0.00000000E+00  0.00000000E+00
  0.00000000E+00  0.00000000E+00  0.00000000E+00
  0.00000000E+00  0.00000000E+00  0.00000000E+00
  0.00000000E+00  0.00000000E+00  0.00000000E+00
  0.00000000E+00  0.00000000E+00  0.00000000E+00
  0.00000000E+00  0.00000000E+00  0.00000000E+00
  0.00000000E+00  0.00000000E+00  0.00000000E+00
