CONTCAR\(3)                             
   1.00000000000000     
    12.3312997818000003    0.0000000000000000    0.0000000000000000
     0.0001127485000000   12.8291997905000006    0.0000000000000000
     0.0005937186000000    0.0011528207000000   19.9943999824000009
   C    N    Fe   Ni   O    H 
    54     2     1     1     1     1
Direct
  0.0554978665013556  0.0545911481248158  0.0491689283387992
  0.1559774829840727  0.1101793402816719  0.0492991897461948
  0.1563722400183247  0.2210005716350935  0.0475534730511809
  0.0563348252412194  0.2761391904599117  0.0461864063463929
  0.2567032565958025  0.0560307245724992  0.0519975066011852
  0.3568090927448669  0.1128423990490742  0.0549122582366487
  0.3572238190583064  0.2247180900660376  0.0537095454808956
  0.2559263803967862  0.2773467163547447  0.0488316469254032
  0.4567013686086887  0.0573802888556505  0.0592897058265314
  0.5569868281046115  0.1150011663716481  0.0613338935219462
  0.5579132087068934  0.2277836326616480  0.0620162840287236
  0.4569298012495643  0.2841780805185666  0.0584094142465163
  0.6556707685557555  0.0555012806824503  0.0604269954287067
  0.7555022050114686  0.1112070510060260  0.0565299058749354
  0.7568168045588602  0.2233321082384514  0.0564692471414858
  0.6599541533751540  0.2840106338670472  0.0620785717397799
  0.8549158890715375  0.0544390357386739  0.0529059327709482
  0.9554698839689352  0.1096099960691830  0.0500736621785661
  0.9565588320606185  0.2207585253069053  0.0488356408655726
  0.8573132106813736  0.2768590877204241  0.0513870915468483
  0.0562240861446857  0.3872967158529830  0.0442619930137760
  0.1545232694502812  0.4439474004080284  0.0444022278765582
  0.1542144738538078  0.5554871180895714  0.0445567153637180
  0.0552292734093987  0.6109014817866452  0.0441144998462414
  0.2536972422752036  0.3882221968929933  0.0472354533855084
  0.3509855022651625  0.4447967248714226  0.0521144114729950
  0.3509424424893065  0.5564892785912856  0.0544455568125343
  0.2529838045308747  0.6121352321220079  0.0485884744851281
  0.7602963463091231  0.4447231339438339  0.0544965335918161
  0.8585195773140745  0.3876076786443155  0.0490138634119337
  0.9572711346174396  0.4428393531905639  0.0448383240955549
  0.9567311531109747  0.5536866576906988  0.0445257475397274
  0.8563052778648633  0.6059759055289643  0.0468368362338705
  0.0550799053265561  0.7221278709270993  0.0455987033560224
  0.1545064859067230  0.7782952788829508  0.0479386409294610
  0.1552618575337565  0.8892171297962183  0.0493606116949740
  0.0548081563787165  0.9435965960482362  0.0488606764481932
  0.2539633270030023  0.7229523583252462  0.0505027819613885
  0.3539248978135634  0.7769757283535199  0.0565272527875683
  0.3555843511046431  0.8888640331532941  0.0566896829128290
  0.2559386866913517  0.9446570788304511  0.0523767498225065
  0.4524240422418623  0.7182366139910742  0.0653542268271624
  0.5546216009546751  0.8868100475874540  0.0656125728860594
  0.4556229341162967  0.9452118066530990  0.0609241716868641
  0.7542494847629140  0.8853339360632383  0.0566462270282536
  0.6550401098416918  0.9433412085183175  0.0617603623450665
  0.8548973105052144  0.7194662517713550  0.0483956466077109
  0.9548114838157298  0.7762070363761209  0.0471057344435921
  0.9545051629464849  0.8876002056768428  0.0490586233102427
  0.8541444635646313  0.9425118358720405  0.0524193132118424
  0.4520052327936765  0.3953515350384232  0.0587365042510774
  0.5512439380087877  0.7765280420167932  0.0715410460197132
  0.7552164198050473  0.7735643934761779  0.0553011859901902
  0.4508578092953695  0.6055528649966123  0.0668622003751072
  0.6649474034082026  0.3922462000754289  0.0653467405558918
  0.7605408079125442  0.5522028542797806  0.0505484187035954
  0.6533549412675989  0.6701809680202230  0.0809752226342960
  0.5556759746353712  0.4941732309827724  0.0829261430725923
  0.6264474043507312  0.5795939678183736  0.1550077600635017
  0.5670743438854764  0.6058830672750208  0.1824968680476583
 
  0.00000000E+00  0.00000000E+00  0.00000000E+00
  0.00000000E+00  0.00000000E+00  0.00000000E+00
  0.00000000E+00  0.00000000E+00  0.00000000E+00
  0.00000000E+00  0.00000000E+00  0.00000000E+00
  0.00000000E+00  0.00000000E+00  0.00000000E+00
  0.00000000E+00  0.00000000E+00  0.00000000E+00
  0.00000000E+00  0.00000000E+00  0.00000000E+00
  0.00000000E+00  0.00000000E+00  0.00000000E+00
  0.00000000E+00  0.00000000E+00  0.00000000E+00
  0.00000000E+00  0.00000000E+00  0.00000000E+00
  0.00000000E+00  0.00000000E+00  0.00000000E+00
  0.00000000E+00  0.00000000E+00  0.00000000E+00
  0.00000000E+00  0.00000000E+00  0.00000000E+00
  0.00000000E+00  0.00000000E+00  0.00000000E+00
  0.00000000E+00  0.00000000E+00  0.00000000E+00
  0.00000000E+00  0.00000000E+00  0.00000000E+00
  0.00000000E+00  0.00000000E+00  0.00000000E+00
  0.00000000E+00  0.00000000E+00  0.00000000E+00
  0.00000000E+00  0.00000000E+00  0.00000000E+00
  0.00000000E+00  0.00000000E+00  0.00000000E+00
  0.00000000E+00  0.00000000E+00  0.00000000E+00
  0.00000000E+00  0.00000000E+00  0.00000000E+00
  0.00000000E+00  0.00000000E+00  0.00000000E+00
  0.00000000E+00  0.00000000E+00  0.00000000E+00
  0.00000000E+00  0.00000000E+00  0.00000000E+00
  0.00000000E+00  0.00000000E+00  0.00000000E+00
  0.00000000E+00  0.00000000E+00  0.00000000E+00
  0.00000000E+00  0.00000000E+00  0.00000000E+00
  0.00000000E+00  0.00000000E+00  0.00000000E+00
  0.00000000E+00  0.00000000E+00  0.00000000E+00
  0.00000000E+00  0.00000000E+00  0.00000000E+00
  0.00000000E+00  0.00000000E+00  0.00000000E+00
  0.00000000E+00  0.00000000E+00  0.00000000E+00
  0.00000000E+00  0.00000000E+00  0.00000000E+00
  0.00000000E+00  0.00000000E+00  0.00000000E+00
  0.00000000E+00  0.00000000E+00  0.00000000E+00
  0.00000000E+00  0.00000000E+00  0.00000000E+00
  0.00000000E+00  0.00000000E+00  0.00000000E+00
  0.00000000E+00  0.00000000E+00  0.00000000E+00
  0.00000000E+00  0.00000000E+00  0.00000000E+00
  0.00000000E+00  0.00000000E+00  0.00000000E+00
  0.00000000E+00  0.00000000E+00  0.00000000E+00
  0.00000000E+00  0.00000000E+00  0.00000000E+00
  0.00000000E+00  0.00000000E+00  0.00000000E+00
  0.00000000E+00  0.00000000E+00  0.00000000E+00
  0.00000000E+00  0.00000000E+00  0.00000000E+00
  0.00000000E+00  0.00000000E+00  0.00000000E+00
  0.00000000E+00  0.00000000E+00  0.00000000E+00
  0.00000000E+00  0.00000000E+00  0.00000000E+00
  0.00000000E+00  0.00000000E+00  0.00000000E+00
  0.00000000E+00  0.00000000E+00  0.00000000E+00
  0.00000000E+00  0.00000000E+00  0.00000000E+00
  0.00000000E+00  0.00000000E+00  0.00000000E+00
  0.00000000E+00  0.00000000E+00  0.00000000E+00
  0.00000000E+00  0.00000000E+00  0.00000000E+00
  0.00000000E+00  0.00000000E+00  0.00000000E+00
  0.00000000E+00  0.00000000E+00  0.00000000E+00
  0.00000000E+00  0.00000000E+00  0.00000000E+00
  0.00000000E+00  0.00000000E+00  0.00000000E+00
  0.00000000E+00  0.00000000E+00  0.00000000E+00
