CONTCAR\(6)                             
   1.00000000000000     
    12.3312997818000003    0.0000000000000000    0.0000000000000000
     0.0001127485000000   12.8291997905000006    0.0000000000000000
     0.0005937186000000    0.0011528207000000   19.9943999824000009
   C    N    Fe   Ni   O    H 
    50     6     1     1     2     2
Direct
  0.0568325664194436  0.0521356809719500  0.0470206715117718
  0.1572597246079190  0.1081467996074998  0.0466477518876875
  0.1572074438128179  0.2190321369730603  0.0458350721075818
  0.0570075868280290  0.2741871658466295  0.0455166520347788
  0.2577061316911693  0.0532984206319632  0.0480219783905215
  0.3580842163597241  0.1089775579926362  0.0506813749019194
  0.3574647498507869  0.2207096482774535  0.0503683643823106
  0.2571100998221730  0.2750940392772163  0.0467750017491898
  0.4584352025806639  0.0532443235198232  0.0542069990223273
  0.5581497642584023  0.1107547977889706  0.0573097565377502
  0.5586422065632735  0.2254593927778371  0.0583535513975806
  0.4558284823154548  0.2807157584524260  0.0549489802685597
  0.6560429975033903  0.0494582851492410  0.0577122619077947
  0.7556492149346660  0.1070263768024355  0.0550907596090312
  0.7569466283798775  0.2196002488910513  0.0551669289607360
  0.6602686499000129  0.2813761750003897  0.0595650466293038
  0.8560002479792852  0.0511771241324419  0.0518285847011859
  0.9563607457558302  0.1069321272692177  0.0487275450676272
  0.9570539377854684  0.2184130849918012  0.0480336811077479
  0.8576702243989078  0.2742614541982282  0.0510588006623503
  0.0577067971464987  0.3851788668759898  0.0443584366634732
  0.1570481817941689  0.4414428558695783  0.0434160410435435
  0.1572041115599551  0.5521115287746583  0.0431734180837705
  0.0576817972344060  0.6080849889315241  0.0437371074185822
  0.2565317711340163  0.3865619063192061  0.0453914719120051
  0.3564433509863647  0.4412567285836646  0.0493380782125878
  0.3578925280428423  0.5549653130232189  0.0502797979593052
  0.2570514186493876  0.6078884614789503  0.0453895040518936
  0.7617321895415552  0.4430959021670450  0.0575281218365497
  0.8597995521030819  0.3855658013547225  0.0504977893325254
  0.9587230381960647  0.4408751736888925  0.0464712724103504
  0.9579369884305449  0.5522827212017765  0.0465144244033289
  0.8575545892149259  0.6053186355336164  0.0519502273163267
  0.0573950329157169  0.7187319644429921  0.0444319789851193
  0.1565328536969594  0.7750603655688958  0.0445704992005200
  0.1570769724628990  0.8860192252529505  0.0457285526616008
  0.0568817454472744  0.9412146737730174  0.0466112286878384
  0.2555124486161208  0.7192961059509737  0.0456800209444024
  0.3540135935679581  0.7748830449873804  0.0490742762467469
  0.3563980106945973  0.8861167096241050  0.0499666473525261
  0.2569965049778498  0.9418756800869061  0.0475044008411156
  0.4519469192593096  0.7174570978532062  0.0555994369208416
  0.5537923876546572  0.8790287675113222  0.0587661582586016
  0.4571260342327966  0.9408201597731869  0.0541922482573446
  0.7582540478954070  0.8791796536627682  0.0562961799808075
  0.6555447024979038  0.9346727614971028  0.0587713197323991
  0.8581486884404296  0.7189770791474980  0.0513245924285189
  0.9579526632726413  0.7736258514299247  0.0471811648309412
  0.9571191985845015  0.8850650727279775  0.0482824370821819
  0.8565986661486354  0.9393579372079839  0.0518740627395345
  0.6665781401878650  0.3900050126865495  0.0638239694520350
  0.7611937374896951  0.5510361152444341  0.0596516117059503
  0.4511402614282012  0.3873417673930297  0.0556960395864598
  0.4538891567473921  0.6096925248102980  0.0576827367194257
  0.5471244318388865  0.7705478345696479  0.0617988964860068
  0.7629453866683976  0.7723837769464652  0.0571660043299160
  0.6549212022796174  0.6653667459696493  0.0981122304425776
  0.5542982968734533  0.4855117871049252  0.0969510461902553
  0.5522764069828805  0.5064117342190821  0.1864644136431650
  0.6685678810480614  0.6887863649083109  0.1893842847322185
  0.7381016235503312  0.6815786982059926  0.2118074559103016
  0.5840658517584515  0.5718459220883195  0.2036206461686588
 
  0.00000000E+00  0.00000000E+00  0.00000000E+00
  0.00000000E+00  0.00000000E+00  0.00000000E+00
  0.00000000E+00  0.00000000E+00  0.00000000E+00
  0.00000000E+00  0.00000000E+00  0.00000000E+00
  0.00000000E+00  0.00000000E+00  0.00000000E+00
  0.00000000E+00  0.00000000E+00  0.00000000E+00
  0.00000000E+00  0.00000000E+00  0.00000000E+00
  0.00000000E+00  0.00000000E+00  0.00000000E+00
  0.00000000E+00  0.00000000E+00  0.00000000E+00
  0.00000000E+00  0.00000000E+00  0.00000000E+00
  0.00000000E+00  0.00000000E+00  0.00000000E+00
  0.00000000E+00  0.00000000E+00  0.00000000E+00
  0.00000000E+00  0.00000000E+00  0.00000000E+00
  0.00000000E+00  0.00000000E+00  0.00000000E+00
  0.00000000E+00  0.00000000E+00  0.00000000E+00
  0.00000000E+00  0.00000000E+00  0.00000000E+00
  0.00000000E+00  0.00000000E+00  0.00000000E+00
  0.00000000E+00  0.00000000E+00  0.00000000E+00
  0.00000000E+00  0.00000000E+00  0.00000000E+00
  0.00000000E+00  0.00000000E+00  0.00000000E+00
  0.00000000E+00  0.00000000E+00  0.00000000E+00
  0.00000000E+00  0.00000000E+00  0.00000000E+00
  0.00000000E+00  0.00000000E+00  0.00000000E+00
  0.00000000E+00  0.00000000E+00  0.00000000E+00
  0.00000000E+00  0.00000000E+00  0.00000000E+00
  0.00000000E+00  0.00000000E+00  0.00000000E+00
  0.00000000E+00  0.00000000E+00  0.00000000E+00
  0.00000000E+00  0.00000000E+00  0.00000000E+00
  0.00000000E+00  0.00000000E+00  0.00000000E+00
  0.00000000E+00  0.00000000E+00  0.00000000E+00
  0.00000000E+00  0.00000000E+00  0.00000000E+00
  0.00000000E+00  0.00000000E+00  0.00000000E+00
  0.00000000E+00  0.00000000E+00  0.00000000E+00
  0.00000000E+00  0.00000000E+00  0.00000000E+00
  0.00000000E+00  0.00000000E+00  0.00000000E+00
  0.00000000E+00  0.00000000E+00  0.00000000E+00
  0.00000000E+00  0.00000000E+00  0.00000000E+00
  0.00000000E+00  0.00000000E+00  0.00000000E+00
  0.00000000E+00  0.00000000E+00  0.00000000E+00
  0.00000000E+00  0.00000000E+00  0.00000000E+00
  0.00000000E+00  0.00000000E+00  0.00000000E+00
  0.00000000E+00  0.00000000E+00  0.00000000E+00
  0.00000000E+00  0.00000000E+00  0.00000000E+00
  0.00000000E+00  0.00000000E+00  0.00000000E+00
  0.00000000E+00  0.00000000E+00  0.00000000E+00
  0.00000000E+00  0.00000000E+00  0.00000000E+00
  0.00000000E+00  0.00000000E+00  0.00000000E+00
  0.00000000E+00  0.00000000E+00  0.00000000E+00
  0.00000000E+00  0.00000000E+00  0.00000000E+00
  0.00000000E+00  0.00000000E+00  0.00000000E+00
  0.00000000E+00  0.00000000E+00  0.00000000E+00
  0.00000000E+00  0.00000000E+00  0.00000000E+00
  0.00000000E+00  0.00000000E+00  0.00000000E+00
  0.00000000E+00  0.00000000E+00  0.00000000E+00
  0.00000000E+00  0.00000000E+00  0.00000000E+00
  0.00000000E+00  0.00000000E+00  0.00000000E+00
  0.00000000E+00  0.00000000E+00  0.00000000E+00
  0.00000000E+00  0.00000000E+00  0.00000000E+00
  0.00000000E+00  0.00000000E+00  0.00000000E+00
  0.00000000E+00  0.00000000E+00  0.00000000E+00
  0.00000000E+00  0.00000000E+00  0.00000000E+00
  0.00000000E+00  0.00000000E+00  0.00000000E+00
