an6                                     
   1.00000000000000     
    12.3312997818000003    0.0000000000000000    0.0000000000000000
     0.0001127485000000   12.8291997905000006    0.0000000000000000
     0.0005937186000000    0.0011528207000000   19.9943999824000009
   C    N    Fe   Ni
    52     4     1     1
Direct
  0.0562723517067980  0.0551380460875487  0.0557790488389993
  0.1563998064811606  0.1108586409699923  0.0557862095165246
  0.1565146335954370  0.2217159367564508  0.0557712363213582
  0.0564380470656822  0.2765759087888511  0.0557523940358576
  0.2565191247126071  0.0559961393372949  0.0557951574751936
  0.3569528290979339  0.1113689783215710  0.0557695956623777
  0.3566708778520440  0.2232676203379458  0.0557441803865496
  0.2561664002420642  0.2774274411779368  0.0557630602067423
  0.4566238949666596  0.0548492546194334  0.0557421196470820
  0.5561993283959573  0.1116704572664089  0.0556988356717880
  0.5562929185775749  0.2250225269277546  0.0556696680774868
  0.4553175468631867  0.2824870835555869  0.0556796134861315
  0.6551287934582138  0.0511830573333840  0.0556756209535531
  0.7547829215796019  0.1091859794259543  0.0556958739298373
  0.7556292795399454  0.2216900633472294  0.0557007341357205
  0.6568030702577358  0.2815689205767298  0.0556556621509618
  0.8551409586450043  0.0536402160831882  0.0557151115033477
  0.9556312739454336  0.1094067329215065  0.0557475710993101
  0.9564565214323253  0.2205943578945692  0.0557383073309788
  0.8569897235806594  0.2761853970322123  0.0557208872915262
  0.0576476647313352  0.3876543887659415  0.0557538341107807
  0.1566082415332915  0.4438243669459148  0.0557714465658013
  0.1565097314888018  0.5544578695592378  0.0557700334883554
  0.0577262075236647  0.6106138522701436  0.0557573691903738
  0.2560341069393891  0.3888078959608148  0.0557603085521926
  0.3554575563466363  0.4436825218162924  0.0557171572227203
  0.3554997682863060  0.5569142367209420  0.0557179107191592
  0.2553487547013850  0.6104628650204851  0.0557574315476615
  0.7627755693364661  0.4450098576034183  0.0556683178393061
  0.8603937158718006  0.3872605344706361  0.0557085321946616
  0.9589049293698693  0.4434371043929622  0.0557276285817954
  0.9587494864007757  0.5550350582563159  0.0557223095268504
  0.8597778246078587  0.6111232019060991  0.0556764995924618
  0.0571163650508424  0.7215154306453900  0.0557730592899798
  0.1554163643458876  0.7777653586354467  0.0557993758564263
  0.1560454986317168  0.8889209653211358  0.0558065017132834
  0.0564251736923259  0.9444924643153676  0.0557881070689426
  0.2537261542319662  0.7216100198783820  0.0557731151223843
  0.3518740559696930  0.7774105729512488  0.0557450658187639
  0.3547408559956495  0.8885293814515262  0.0557681745036429
  0.2556690901050856  0.9446704992260325  0.0558034004105193
  0.4493591214670043  0.7204185344051415  0.0556818523062519
  0.5525170958031552  0.8814904181736000  0.0556632399132370
  0.4554793503883063  0.9427836697383304  0.0557313417487787
  0.7574607857147860  0.8813343888524500  0.0556461807803949
  0.6547923274838664  0.9368096945125531  0.0556465431879044
  0.8599760531238927  0.7235300360714589  0.0556738767695370
  0.9583495015601785  0.7780562737151085  0.0557378944797936
  0.9569218403703146  0.8887709042013543  0.0557485143263086
  0.8557022651726445  0.9418555974698891  0.0557005397237453
  0.6622058153389733  0.3928452751313021  0.0556346201003322
  0.7605298098270392  0.5564359385291427  0.0556445160673210
  0.4520738783147933  0.3904476942819589  0.0556550634391279
  0.4519294733625698  0.6120589973787947  0.0556649021608902
  0.5455436551102503  0.7733220434666741  0.0556338577534879
  0.7625585216012406  0.7738633183463665  0.0556181262978395
  0.6461655145200768  0.6549565733810377  0.0556135556831785
  0.5603876166841519  0.4965293854695359  0.0556289206244478
 
  0.00000000E+00  0.00000000E+00  0.00000000E+00
  0.00000000E+00  0.00000000E+00  0.00000000E+00
  0.00000000E+00  0.00000000E+00  0.00000000E+00
  0.00000000E+00  0.00000000E+00  0.00000000E+00
  0.00000000E+00  0.00000000E+00  0.00000000E+00
  0.00000000E+00  0.00000000E+00  0.00000000E+00
  0.00000000E+00  0.00000000E+00  0.00000000E+00
  0.00000000E+00  0.00000000E+00  0.00000000E+00
  0.00000000E+00  0.00000000E+00  0.00000000E+00
  0.00000000E+00  0.00000000E+00  0.00000000E+00
  0.00000000E+00  0.00000000E+00  0.00000000E+00
  0.00000000E+00  0.00000000E+00  0.00000000E+00
  0.00000000E+00  0.00000000E+00  0.00000000E+00
  0.00000000E+00  0.00000000E+00  0.00000000E+00
  0.00000000E+00  0.00000000E+00  0.00000000E+00
  0.00000000E+00  0.00000000E+00  0.00000000E+00
  0.00000000E+00  0.00000000E+00  0.00000000E+00
  0.00000000E+00  0.00000000E+00  0.00000000E+00
  0.00000000E+00  0.00000000E+00  0.00000000E+00
  0.00000000E+00  0.00000000E+00  0.00000000E+00
  0.00000000E+00  0.00000000E+00  0.00000000E+00
  0.00000000E+00  0.00000000E+00  0.00000000E+00
  0.00000000E+00  0.00000000E+00  0.00000000E+00
  0.00000000E+00  0.00000000E+00  0.00000000E+00
  0.00000000E+00  0.00000000E+00  0.00000000E+00
  0.00000000E+00  0.00000000E+00  0.00000000E+00
  0.00000000E+00  0.00000000E+00  0.00000000E+00
  0.00000000E+00  0.00000000E+00  0.00000000E+00
  0.00000000E+00  0.00000000E+00  0.00000000E+00
  0.00000000E+00  0.00000000E+00  0.00000000E+00
  0.00000000E+00  0.00000000E+00  0.00000000E+00
  0.00000000E+00  0.00000000E+00  0.00000000E+00
  0.00000000E+00  0.00000000E+00  0.00000000E+00
  0.00000000E+00  0.00000000E+00  0.00000000E+00
  0.00000000E+00  0.00000000E+00  0.00000000E+00
  0.00000000E+00  0.00000000E+00  0.00000000E+00
  0.00000000E+00  0.00000000E+00  0.00000000E+00
  0.00000000E+00  0.00000000E+00  0.00000000E+00
  0.00000000E+00  0.00000000E+00  0.00000000E+00
  0.00000000E+00  0.00000000E+00  0.00000000E+00
  0.00000000E+00  0.00000000E+00  0.00000000E+00
  0.00000000E+00  0.00000000E+00  0.00000000E+00
  0.00000000E+00  0.00000000E+00  0.00000000E+00
  0.00000000E+00  0.00000000E+00  0.00000000E+00
  0.00000000E+00  0.00000000E+00  0.00000000E+00
  0.00000000E+00  0.00000000E+00  0.00000000E+00
  0.00000000E+00  0.00000000E+00  0.00000000E+00
  0.00000000E+00  0.00000000E+00  0.00000000E+00
  0.00000000E+00  0.00000000E+00  0.00000000E+00
  0.00000000E+00  0.00000000E+00  0.00000000E+00
  0.00000000E+00  0.00000000E+00  0.00000000E+00
  0.00000000E+00  0.00000000E+00  0.00000000E+00
  0.00000000E+00  0.00000000E+00  0.00000000E+00
  0.00000000E+00  0.00000000E+00  0.00000000E+00
  0.00000000E+00  0.00000000E+00  0.00000000E+00
  0.00000000E+00  0.00000000E+00  0.00000000E+00
  0.00000000E+00  0.00000000E+00  0.00000000E+00
  0.00000000E+00  0.00000000E+00  0.00000000E+00
