CONTCAR                                 
   1.00000000000000     
    12.3312997818000003    0.0000000000000000    0.0000000000000000
     0.0001127485000000   12.8291997905000006    0.0000000000000000
     0.0005937186000000    0.0011528207000000   19.9943999824000009
   C    N    Fe   Ni   O 
    53     3     1     1     2
Direct
  0.0559235828801716  0.0551834644508972  0.0487174744866931
  0.1563422291262864  0.1105085430552083  0.0487214030051859
  0.1567440770047387  0.2215310656651331  0.0482388717005104
  0.0563898882704197  0.2762958678188192  0.0473472292693145
  0.2566315601753818  0.0554152677609031  0.0500980591724192
  0.3570651514438953  0.1110017735362308  0.0531183452469302
  0.3575300662812173  0.2228503689332472  0.0535998635905079
  0.2569474441286435  0.2774510349011400  0.0499375718489869
  0.4566613626289821  0.0545711957277716  0.0561552525975671
  0.5570685018433694  0.1106441219180880  0.0592016760971826
  0.5573961886999682  0.2228250593205254  0.0610320353227168
  0.4574756246524824  0.2801197587470733  0.0583755669961494
  0.6565404381410035  0.0516237979949556  0.0590604216972929
  0.7556607597209201  0.1095856735936734  0.0561742428789704
  0.7561517267706327  0.2220659784170001  0.0562662217530532
  0.6576986605470710  0.2811104833416790  0.0620147812503478
  0.8551553099809502  0.0535559840442279  0.0530528975428429
  0.9554477855362236  0.1097368072657417  0.0501206552785760
  0.9559345022315195  0.2211369769080336  0.0492850700871376
  0.8561402093479807  0.2772521112289709  0.0517819677967989
  0.0570022042947459  0.3874160837058691  0.0460850266503520
  0.1561896820297378  0.4433751685647199  0.0463536908095075
  0.1556312981832235  0.5545793174692096  0.0456048193202714
  0.0567353364688820  0.6104733190773710  0.0447776858280592
  0.2563945424595839  0.3886845698639465  0.0492716177678045
  0.3557297799723732  0.4449147730279860  0.0536053294193262
  0.3538931427109785  0.5577065331649322  0.0548641410486692
  0.2540114978650005  0.6114611437490458  0.0485087747782935
  0.7596076393351506  0.4481938043332446  0.0573370847673406
  0.8574995445775191  0.3889531202769714  0.0506853734982905
  0.9574949591224463  0.4432704222965446  0.0468639039495423
  0.9578630406019540  0.5543173557705420  0.0463593029521175
  0.8582660231540333  0.6084369451434121  0.0507660433125062
  0.0560045053242078  0.7214141878163906  0.0453438041719009
  0.1543213102646037  0.7779876915967762  0.0460581210991250
  0.1555967855848410  0.8890358217815343  0.0472318750786427
  0.0556751986021981  0.9441820024468373  0.0480389446687352
  0.2531645559496191  0.7221135878764972  0.0482111629736738
  0.3523215686910512  0.7766267039082664  0.0521073718354200
  0.3553950764512566  0.8879466416229166  0.0520309965883850
  0.2558868750256660  0.9441895033638353  0.0493040614136702
  0.4489193406535408  0.7179067403797939  0.0603898444669577
  0.5541692434999389  0.8830471377557735  0.0608510407125245
  0.4558299547460000  0.9426082208483442  0.0560731587556491
  0.7567036755122916  0.8821593796603283  0.0577983020232986
  0.6560693321815924  0.9387782901285825  0.0602578180565154
  0.8579303303471371  0.7216925961098722  0.0514494527305530
  0.9563782062823475  0.7768780474176394  0.0478736937465203
  0.9561696296692987  0.8880658953905504  0.0494991176557291
  0.8553192116533866  0.9413726973596338  0.0533358232267267
  0.4555680818989025  0.3916031432789535  0.0595981846155527
  0.6602727518667001  0.3919843185754712  0.0670745849012426
  0.5487241826197733  0.7727500241925435  0.0655916584454741
  0.4482492278792866  0.6097739064025172  0.0639261414930477
  0.7627609788103741  0.5566592548320085  0.0572578824216556
  0.7601984634565846  0.7729130259355981  0.0584472132123957
  0.6536283613196674  0.6723903009993336  0.0786850137746726
  0.5562199455429336  0.4881100751815581  0.0885935423138069
  0.6130738634039883  0.5448534171170669  0.1678483810508198
  0.6405655785753347  0.6506195229482444  0.1651203968460149
 
  0.00000000E+00  0.00000000E+00  0.00000000E+00
  0.00000000E+00  0.00000000E+00  0.00000000E+00
  0.00000000E+00  0.00000000E+00  0.00000000E+00
  0.00000000E+00  0.00000000E+00  0.00000000E+00
  0.00000000E+00  0.00000000E+00  0.00000000E+00
  0.00000000E+00  0.00000000E+00  0.00000000E+00
  0.00000000E+00  0.00000000E+00  0.00000000E+00
  0.00000000E+00  0.00000000E+00  0.00000000E+00
  0.00000000E+00  0.00000000E+00  0.00000000E+00
  0.00000000E+00  0.00000000E+00  0.00000000E+00
  0.00000000E+00  0.00000000E+00  0.00000000E+00
  0.00000000E+00  0.00000000E+00  0.00000000E+00
  0.00000000E+00  0.00000000E+00  0.00000000E+00
  0.00000000E+00  0.00000000E+00  0.00000000E+00
  0.00000000E+00  0.00000000E+00  0.00000000E+00
  0.00000000E+00  0.00000000E+00  0.00000000E+00
  0.00000000E+00  0.00000000E+00  0.00000000E+00
  0.00000000E+00  0.00000000E+00  0.00000000E+00
  0.00000000E+00  0.00000000E+00  0.00000000E+00
  0.00000000E+00  0.00000000E+00  0.00000000E+00
  0.00000000E+00  0.00000000E+00  0.00000000E+00
  0.00000000E+00  0.00000000E+00  0.00000000E+00
  0.00000000E+00  0.00000000E+00  0.00000000E+00
  0.00000000E+00  0.00000000E+00  0.00000000E+00
  0.00000000E+00  0.00000000E+00  0.00000000E+00
  0.00000000E+00  0.00000000E+00  0.00000000E+00
  0.00000000E+00  0.00000000E+00  0.00000000E+00
  0.00000000E+00  0.00000000E+00  0.00000000E+00
  0.00000000E+00  0.00000000E+00  0.00000000E+00
  0.00000000E+00  0.00000000E+00  0.00000000E+00
  0.00000000E+00  0.00000000E+00  0.00000000E+00
  0.00000000E+00  0.00000000E+00  0.00000000E+00
  0.00000000E+00  0.00000000E+00  0.00000000E+00
  0.00000000E+00  0.00000000E+00  0.00000000E+00
  0.00000000E+00  0.00000000E+00  0.00000000E+00
  0.00000000E+00  0.00000000E+00  0.00000000E+00
  0.00000000E+00  0.00000000E+00  0.00000000E+00
  0.00000000E+00  0.00000000E+00  0.00000000E+00
  0.00000000E+00  0.00000000E+00  0.00000000E+00
  0.00000000E+00  0.00000000E+00  0.00000000E+00
  0.00000000E+00  0.00000000E+00  0.00000000E+00
  0.00000000E+00  0.00000000E+00  0.00000000E+00
  0.00000000E+00  0.00000000E+00  0.00000000E+00
  0.00000000E+00  0.00000000E+00  0.00000000E+00
  0.00000000E+00  0.00000000E+00  0.00000000E+00
  0.00000000E+00  0.00000000E+00  0.00000000E+00
  0.00000000E+00  0.00000000E+00  0.00000000E+00
  0.00000000E+00  0.00000000E+00  0.00000000E+00
  0.00000000E+00  0.00000000E+00  0.00000000E+00
  0.00000000E+00  0.00000000E+00  0.00000000E+00
  0.00000000E+00  0.00000000E+00  0.00000000E+00
  0.00000000E+00  0.00000000E+00  0.00000000E+00
  0.00000000E+00  0.00000000E+00  0.00000000E+00
  0.00000000E+00  0.00000000E+00  0.00000000E+00
  0.00000000E+00  0.00000000E+00  0.00000000E+00
  0.00000000E+00  0.00000000E+00  0.00000000E+00
  0.00000000E+00  0.00000000E+00  0.00000000E+00
  0.00000000E+00  0.00000000E+00  0.00000000E+00
  0.00000000E+00  0.00000000E+00  0.00000000E+00
  0.00000000E+00  0.00000000E+00  0.00000000E+00
