an6                                     
   1.00000000000000     
    12.3312997818000003    0.0000000000000000    0.0000000000000000
     0.0001127485000000   12.8291997905000006    0.0000000000000000
     0.0005937186000000    0.0011528207000000   19.9943999824000009
   C    N    Fe   Ni
    53     3     1     1
Direct
  0.0562028962427239  0.0546766146906338  0.0557823495690828
  0.1563921266175604  0.1105325794970502  0.0558012480209531
  0.1568859897170439  0.2215206421214732  0.0557876812742999
  0.0569695050776947  0.2764037990301199  0.0557665456449713
  0.2564930215890691  0.0558802192910850  0.0558081670017631
  0.3568586147023538  0.1119281349724686  0.0557743552770857
  0.3571741698545653  0.2238693613537640  0.0557440116091234
  0.2566438484501191  0.2775828356423436  0.0557706641972715
  0.4562237334018961  0.0556605868146654  0.0557381852708044
  0.5562459392832670  0.1121065137968087  0.0556895091703580
  0.5565112498538189  0.2246304723796475  0.0556666482670196
  0.4564457144362925  0.2826315108206976  0.0556789478992623
  0.6561638079689330  0.0526958534514155  0.0556631836600181
  0.7560022730667629  0.1095572137734059  0.0556840531911680
  0.7569261176220023  0.2215254821533870  0.0556931555889452
  0.6576561813132150  0.2802371526261588  0.0556569736199157
  0.8551649477289268  0.0529478908353977  0.0556978300484678
  0.9558789740076032  0.1089343880231913  0.0557414987505861
  0.9569977836323393  0.2202584568114358  0.0557406791230693
  0.8577028235554814  0.2762358887149662  0.0557094941437794
  0.0582370610198814  0.3876732184047231  0.0557559760439877
  0.1572499305407090  0.4438181529926238  0.0557740509514485
  0.1567665971647271  0.5546070266099823  0.0557854831549107
  0.0570384882342799  0.6102581177393075  0.0557757749934151
  0.2569586521867300  0.3888086719944442  0.0557628350082207
  0.3567950854771701  0.4435342936328235  0.0557218386980552
  0.3569864715462316  0.5565625840596714  0.0557197460561454
  0.2558459288413713  0.6104775066061014  0.0557697355337791
  0.7627138180176349  0.4446649827947954  0.0556600577483731
  0.8607230792540220  0.3872638876774746  0.0556935998429570
  0.9591663540968270  0.4434081876461750  0.0557234674136304
  0.9577958377612820  0.5547262332924776  0.0557326223455833
  0.8572653921409662  0.6099177139164200  0.0556954531842300
  0.0558101780961257  0.7211664723288820  0.0557872087872880
  0.1545733165008219  0.7773832143096931  0.0558083855403510
  0.1556266000617381  0.8886160579934305  0.0558189750175288
  0.0557564061745278  0.9437826096321945  0.0557908553004424
  0.2536781697937060  0.7216030719670671  0.0557822807888455
  0.3522513416132350  0.7770981044877191  0.0557435324246597
  0.3550287629455320  0.8885427122233591  0.0557727459536944
  0.2555845522453005  0.9444115991295926  0.0558176257032763
  0.4502481706214490  0.7195362315522911  0.0556589602267335
  0.5537528069565946  0.8853977974975410  0.0556373423358749
  0.4552592847779089  0.9441034122911202  0.0557233134339329
  0.7554793297921992  0.8812553551278756  0.0556367764254050
  0.6557881562030964  0.9399806768354653  0.0556322238493264
  0.8570441155110843  0.7221235623145646  0.0556905324401177
  0.9560488595109236  0.7770902784652849  0.0557464181961267
  0.9560322420182401  0.8879173619535148  0.0557426565799800
  0.8546630253631839  0.9406695878432482  0.0556835119121466
  0.6635737007284445  0.3899030011743261  0.0556422042544204
  0.7574564619965423  0.5560816232635573  0.0556536141874630
  0.5488897131401228  0.7760518117938017  0.0556007965724210
  0.4540256978326322  0.3912588631488225  0.0556667057028226
  0.4532294410358058  0.6104065879638847  0.0556478934261820
  0.7580253861252395  0.7713966342641303  0.0556213215494810
  0.6392766985536430  0.6628079989613124  0.0555945318953007
  0.5651452109984184  0.4944191473101677  0.0556237771934644
 
  0.00000000E+00  0.00000000E+00  0.00000000E+00
  0.00000000E+00  0.00000000E+00  0.00000000E+00
  0.00000000E+00  0.00000000E+00  0.00000000E+00
  0.00000000E+00  0.00000000E+00  0.00000000E+00
  0.00000000E+00  0.00000000E+00  0.00000000E+00
  0.00000000E+00  0.00000000E+00  0.00000000E+00
  0.00000000E+00  0.00000000E+00  0.00000000E+00
  0.00000000E+00  0.00000000E+00  0.00000000E+00
  0.00000000E+00  0.00000000E+00  0.00000000E+00
  0.00000000E+00  0.00000000E+00  0.00000000E+00
  0.00000000E+00  0.00000000E+00  0.00000000E+00
  0.00000000E+00  0.00000000E+00  0.00000000E+00
  0.00000000E+00  0.00000000E+00  0.00000000E+00
  0.00000000E+00  0.00000000E+00  0.00000000E+00
  0.00000000E+00  0.00000000E+00  0.00000000E+00
  0.00000000E+00  0.00000000E+00  0.00000000E+00
  0.00000000E+00  0.00000000E+00  0.00000000E+00
  0.00000000E+00  0.00000000E+00  0.00000000E+00
  0.00000000E+00  0.00000000E+00  0.00000000E+00
  0.00000000E+00  0.00000000E+00  0.00000000E+00
  0.00000000E+00  0.00000000E+00  0.00000000E+00
  0.00000000E+00  0.00000000E+00  0.00000000E+00
  0.00000000E+00  0.00000000E+00  0.00000000E+00
  0.00000000E+00  0.00000000E+00  0.00000000E+00
  0.00000000E+00  0.00000000E+00  0.00000000E+00
  0.00000000E+00  0.00000000E+00  0.00000000E+00
  0.00000000E+00  0.00000000E+00  0.00000000E+00
  0.00000000E+00  0.00000000E+00  0.00000000E+00
  0.00000000E+00  0.00000000E+00  0.00000000E+00
  0.00000000E+00  0.00000000E+00  0.00000000E+00
  0.00000000E+00  0.00000000E+00  0.00000000E+00
  0.00000000E+00  0.00000000E+00  0.00000000E+00
  0.00000000E+00  0.00000000E+00  0.00000000E+00
  0.00000000E+00  0.00000000E+00  0.00000000E+00
  0.00000000E+00  0.00000000E+00  0.00000000E+00
  0.00000000E+00  0.00000000E+00  0.00000000E+00
  0.00000000E+00  0.00000000E+00  0.00000000E+00
  0.00000000E+00  0.00000000E+00  0.00000000E+00
  0.00000000E+00  0.00000000E+00  0.00000000E+00
  0.00000000E+00  0.00000000E+00  0.00000000E+00
  0.00000000E+00  0.00000000E+00  0.00000000E+00
  0.00000000E+00  0.00000000E+00  0.00000000E+00
  0.00000000E+00  0.00000000E+00  0.00000000E+00
  0.00000000E+00  0.00000000E+00  0.00000000E+00
  0.00000000E+00  0.00000000E+00  0.00000000E+00
  0.00000000E+00  0.00000000E+00  0.00000000E+00
  0.00000000E+00  0.00000000E+00  0.00000000E+00
  0.00000000E+00  0.00000000E+00  0.00000000E+00
  0.00000000E+00  0.00000000E+00  0.00000000E+00
  0.00000000E+00  0.00000000E+00  0.00000000E+00
  0.00000000E+00  0.00000000E+00  0.00000000E+00
  0.00000000E+00  0.00000000E+00  0.00000000E+00
  0.00000000E+00  0.00000000E+00  0.00000000E+00
  0.00000000E+00  0.00000000E+00  0.00000000E+00
  0.00000000E+00  0.00000000E+00  0.00000000E+00
  0.00000000E+00  0.00000000E+00  0.00000000E+00
  0.00000000E+00  0.00000000E+00  0.00000000E+00
  0.00000000E+00  0.00000000E+00  0.00000000E+00
