POSCAR\(3)                              
   1.00000000000000     
    12.3312997818000003    0.0000000000000000    0.0000000000000000
     0.0001127485000000   12.8291997905000006    0.0000000000000000
     0.0005937186000000    0.0011528207000000   19.9943999824000009
   C    N    Fe   Ni   H 
    54     2     1     1     1
Direct
  0.0555380948868095  0.0550230118955834  0.0551400931079412
  0.1555775507452163  0.1111304812409406  0.0552230785670298
  0.1566533429681172  0.2220359698144453  0.0548729603154952
  0.0565262016435219  0.2765200472513716  0.0538564568742796
  0.2556454117057428  0.0563811963348298  0.0553824959903416
  0.3563107831048309  0.1116224182099584  0.0564203817027395
  0.3574688431239346  0.2233243937109922  0.0570795146729694
  0.2571213526479903  0.2778740595013632  0.0555437883559932
  0.4556321323207767  0.0550600608449533  0.0568653964658953
  0.5565555080158374  0.1096964694833100  0.0580869835862388
  0.5570817320581328  0.2211955298908796  0.0592659019992139
  0.4579176722158417  0.2800873342738022  0.0589931500455612
  0.6559250563193861  0.0504540176721632  0.0578001855467907
  0.7555162395460628  0.1077147150894077  0.0568627257524831
  0.7568207943429042  0.2198524831888423  0.0565004068133551
  0.6578145931750234  0.2773464256275160  0.0589209999364102
  0.8548081658344022  0.0519799680519252  0.0560951632378103
  0.9551383111167816  0.1089379222683940  0.0551769493258463
  0.9563753308973622  0.2203940119550632  0.0543030790561061
  0.8566521370071832  0.2760014482580856  0.0544610455549326
  0.0576169220005246  0.3879569443623780  0.0530184991902592
  0.1570994357853932  0.4436890189443101  0.0531368027060031
  0.1572131948824241  0.5550961375692359  0.0526744771887675
  0.0570352742386671  0.6099961947581679  0.0527287848437210
  0.2574354079782574  0.3889909519177838  0.0544849925594621
  0.3574371400246039  0.4448789198332838  0.0556851468907095
  0.3589177175008750  0.5585505674555703  0.0538656538620713
  0.2566562525802726  0.6118053822646283  0.0526708931039612
  0.7588982198455122  0.4448799317607999  0.0552987338015455
  0.8583388051677622  0.3876507424869484  0.0532741636006555
  0.9577795284953445  0.4432891744256108  0.0525698000721484
  0.9574129882729845  0.5543761469209056  0.0528251157878395
  0.8570248973175134  0.6098017136357291  0.0538346205187831
  0.0558189411399990  0.7212280581371725  0.0532685783173785
  0.1540228715921965  0.7777807361107399  0.0530348920196332
  0.1545035249340582  0.8889939523411240  0.0539515175564039
  0.0548734739752331  0.9439922380762883  0.0548899542473830
  0.2534546725412255  0.7224906269779213  0.0524105099499698
  0.3509725475931789  0.7796346779571212  0.0527547580321650
  0.3531838837399355  0.8901269613872147  0.0540541053907771
  0.2540867518455914  0.9455244942012476  0.0543665030548733
  0.4495337007085640  0.7249656961992414  0.0541361611930236
  0.5520434533757624  0.8844925415634108  0.0569183128360272
  0.4538700734168569  0.9440235239901220  0.0557648967103940
  0.7552565571659351  0.8797745950598758  0.0578247693951455
  0.6552102940590748  0.9375111869933462  0.0579272852145991
  0.8575250852712898  0.7217358646750128  0.0554924421841899
  0.9562495705771444  0.7769156605794366  0.0546403903341829
  0.9555801497432600  0.8875903232051847  0.0554637937441092
  0.8541492426731304  0.9398071802688002  0.0565755800964065
  0.4570178356369224  0.3917028212072027  0.0594621093678029
  0.4578760227935316  0.6148532403014360  0.0548493796356168
  0.6609915288050318  0.3868255458176656  0.0603702665423065
  0.7561202191871632  0.5578630148433057  0.0547142647465381
  0.5460481343021797  0.7791357736831268  0.0568396803414848
  0.7586516196834637  0.7701495908438065  0.0581142466412166
  0.6395669600540146  0.6631974259944478  0.0605486167114632
  0.5664005286791710  0.4931054312698639  0.0667827635525850
  0.6285473507401104  0.5896051044167114  0.1209457781509709
 
  0.00000000E+00  0.00000000E+00  0.00000000E+00
  0.00000000E+00  0.00000000E+00  0.00000000E+00
  0.00000000E+00  0.00000000E+00  0.00000000E+00
  0.00000000E+00  0.00000000E+00  0.00000000E+00
  0.00000000E+00  0.00000000E+00  0.00000000E+00
  0.00000000E+00  0.00000000E+00  0.00000000E+00
  0.00000000E+00  0.00000000E+00  0.00000000E+00
  0.00000000E+00  0.00000000E+00  0.00000000E+00
  0.00000000E+00  0.00000000E+00  0.00000000E+00
  0.00000000E+00  0.00000000E+00  0.00000000E+00
  0.00000000E+00  0.00000000E+00  0.00000000E+00
  0.00000000E+00  0.00000000E+00  0.00000000E+00
  0.00000000E+00  0.00000000E+00  0.00000000E+00
  0.00000000E+00  0.00000000E+00  0.00000000E+00
  0.00000000E+00  0.00000000E+00  0.00000000E+00
  0.00000000E+00  0.00000000E+00  0.00000000E+00
  0.00000000E+00  0.00000000E+00  0.00000000E+00
  0.00000000E+00  0.00000000E+00  0.00000000E+00
  0.00000000E+00  0.00000000E+00  0.00000000E+00
  0.00000000E+00  0.00000000E+00  0.00000000E+00
  0.00000000E+00  0.00000000E+00  0.00000000E+00
  0.00000000E+00  0.00000000E+00  0.00000000E+00
  0.00000000E+00  0.00000000E+00  0.00000000E+00
  0.00000000E+00  0.00000000E+00  0.00000000E+00
  0.00000000E+00  0.00000000E+00  0.00000000E+00
  0.00000000E+00  0.00000000E+00  0.00000000E+00
  0.00000000E+00  0.00000000E+00  0.00000000E+00
  0.00000000E+00  0.00000000E+00  0.00000000E+00
  0.00000000E+00  0.00000000E+00  0.00000000E+00
  0.00000000E+00  0.00000000E+00  0.00000000E+00
  0.00000000E+00  0.00000000E+00  0.00000000E+00
  0.00000000E+00  0.00000000E+00  0.00000000E+00
  0.00000000E+00  0.00000000E+00  0.00000000E+00
  0.00000000E+00  0.00000000E+00  0.00000000E+00
  0.00000000E+00  0.00000000E+00  0.00000000E+00
  0.00000000E+00  0.00000000E+00  0.00000000E+00
  0.00000000E+00  0.00000000E+00  0.00000000E+00
  0.00000000E+00  0.00000000E+00  0.00000000E+00
  0.00000000E+00  0.00000000E+00  0.00000000E+00
  0.00000000E+00  0.00000000E+00  0.00000000E+00
  0.00000000E+00  0.00000000E+00  0.00000000E+00
  0.00000000E+00  0.00000000E+00  0.00000000E+00
  0.00000000E+00  0.00000000E+00  0.00000000E+00
  0.00000000E+00  0.00000000E+00  0.00000000E+00
  0.00000000E+00  0.00000000E+00  0.00000000E+00
  0.00000000E+00  0.00000000E+00  0.00000000E+00
  0.00000000E+00  0.00000000E+00  0.00000000E+00
  0.00000000E+00  0.00000000E+00  0.00000000E+00
  0.00000000E+00  0.00000000E+00  0.00000000E+00
  0.00000000E+00  0.00000000E+00  0.00000000E+00
  0.00000000E+00  0.00000000E+00  0.00000000E+00
  0.00000000E+00  0.00000000E+00  0.00000000E+00
  0.00000000E+00  0.00000000E+00  0.00000000E+00
  0.00000000E+00  0.00000000E+00  0.00000000E+00
  0.00000000E+00  0.00000000E+00  0.00000000E+00
  0.00000000E+00  0.00000000E+00  0.00000000E+00
  0.00000000E+00  0.00000000E+00  0.00000000E+00
  0.00000000E+00  0.00000000E+00  0.00000000E+00
  0.00000000E+00  0.00000000E+00  0.00000000E+00
