CONTCAR                                 
   1.00000000000000     
    12.3312997818000003    0.0000000000000000    0.0000000000000000
     0.0001127485000000   12.8291997905000006    0.0000000000000000
     0.0005937186000000    0.0011528207000000   19.9943999824000009
   C    N    Fe   Ni   O    H 
    54     2     1     1     1     1
Direct
  0.0565606983969201  0.0559893164797565  0.0487887790094252
  0.1568308683579304  0.1110593186391710  0.0485751474232985
  0.1569537840292057  0.2220773764566770  0.0476331821314104
  0.0565641012593067  0.2769765805801230  0.0470627645601906
  0.2570390257597119  0.0556707489479257  0.0501729402960189
  0.3574498707468967  0.1111177108655530  0.0534740789049729
  0.3577635415429692  0.2231420886263986  0.0532005489903139
  0.2571203140959833  0.2776784516730808  0.0486652838184560
  0.4568302283314559  0.0543504335099591  0.0575214324038123
  0.5569842319497078  0.1104551346557193  0.0613083410635725
  0.5570147639352002  0.2223885599342864  0.0626173063537508
  0.4575010538919119  0.2803946059056548  0.0582032839578364
  0.6568741103227913  0.0517276028744543  0.0619202947802997
  0.7561418186969521  0.1097210689265961  0.0588438093900482
  0.7565423459191492  0.2219515565561027  0.0594377190348274
  0.6573517447173092  0.2798374538256487  0.0648860896913541
  0.8559077058922763  0.0544726637533904  0.0545279312270081
  0.9560721343987157  0.1104716821522160  0.0509741815927098
  0.9563271025577346  0.2216111469094088  0.0502991765257789
  0.8565149391672272  0.2773470733144798  0.0541399646470092
  0.0567112582761984  0.3881349385581649  0.0450327586090139
  0.1559875291023947  0.4435867628782906  0.0438695693602933
  0.1554198721539724  0.5548807676829461  0.0427546983323430
  0.0564448302602721  0.6107240221670797  0.0424897493814135
  0.2563026981524570  0.3887426839523702  0.0467402697943728
  0.3555657186568782  0.4448526336960060  0.0503489016690625
  0.3534990171505732  0.5576833754106565  0.0505146899542334
  0.2537734385059387  0.6116610836787632  0.0452309530462875
  0.7587548251197241  0.4467070790284696  0.0610604797292388
  0.8574961259317937  0.3889077536370454  0.0529611687605620
  0.9568098044643191  0.4441095527636763  0.0467413104985517
  0.9571883125769343  0.5552260854679067  0.0451570852599145
  0.8577272769123931  0.6109755123059919  0.0506715515930266
  0.0565639549830652  0.7220340053867930  0.0433337438012268
  0.1550831889120197  0.7782892045444560  0.0442498454482604
  0.1562368797668203  0.8895033600713881  0.0464032955835578
  0.0565564266862683  0.9451577237206981  0.0475862360252275
  0.2540044718564431  0.7222861974052373  0.0458937099821725
  0.3534571016933814  0.7763452897525774  0.0511549091448535
  0.3560018466257938  0.8877532319542258  0.0525223605112146
  0.2564788557743494  0.9443605721408224  0.0492174666199464
  0.4503913931592855  0.7171984253094462  0.0593236971733469
  0.5545330747490423  0.8824106976242153  0.0645448530721627
  0.4562099381802996  0.9422353613805563  0.0578765619273375
  0.7579007925518725  0.8837944960362213  0.0598610430438187
  0.6566333349370050  0.9390872411722048  0.0636089636152305
  0.8590121119977093  0.7240709738033084  0.0513623401620877
  0.9574965897397907  0.7786176391766940  0.0467178380933194
  0.9570540741793599  0.8894493625067269  0.0491102746749902
  0.8562523101867396  0.9427021321563892  0.0541132487440275
  0.4559088322845157  0.3923273566771541  0.0575947077680572
  0.6596678503091428  0.3900853549945358  0.0694500326652989
  0.7594628881601121  0.5583803803098949  0.0610731921318556
  0.5489003105197445  0.7721455056873973  0.0702083171249418
  0.4482942632154235  0.6087772643911137  0.0585139098291166
  0.7626228230583214  0.7753423893143936  0.0605215438217835
  0.6594115269682250  0.6733071668999477  0.0915566771177693
  0.5577265248207866  0.4918072152578215  0.0786909312879763
  0.6043935819957984  0.5849522403393821  0.1576691045528541
  0.5386898054554858  0.6138363621724255  0.1776857752871346
 
  0.00000000E+00  0.00000000E+00  0.00000000E+00
  0.00000000E+00  0.00000000E+00  0.00000000E+00
  0.00000000E+00  0.00000000E+00  0.00000000E+00
  0.00000000E+00  0.00000000E+00  0.00000000E+00
  0.00000000E+00  0.00000000E+00  0.00000000E+00
  0.00000000E+00  0.00000000E+00  0.00000000E+00
  0.00000000E+00  0.00000000E+00  0.00000000E+00
  0.00000000E+00  0.00000000E+00  0.00000000E+00
  0.00000000E+00  0.00000000E+00  0.00000000E+00
  0.00000000E+00  0.00000000E+00  0.00000000E+00
  0.00000000E+00  0.00000000E+00  0.00000000E+00
  0.00000000E+00  0.00000000E+00  0.00000000E+00
  0.00000000E+00  0.00000000E+00  0.00000000E+00
  0.00000000E+00  0.00000000E+00  0.00000000E+00
  0.00000000E+00  0.00000000E+00  0.00000000E+00
  0.00000000E+00  0.00000000E+00  0.00000000E+00
  0.00000000E+00  0.00000000E+00  0.00000000E+00
  0.00000000E+00  0.00000000E+00  0.00000000E+00
  0.00000000E+00  0.00000000E+00  0.00000000E+00
  0.00000000E+00  0.00000000E+00  0.00000000E+00
  0.00000000E+00  0.00000000E+00  0.00000000E+00
  0.00000000E+00  0.00000000E+00  0.00000000E+00
  0.00000000E+00  0.00000000E+00  0.00000000E+00
  0.00000000E+00  0.00000000E+00  0.00000000E+00
  0.00000000E+00  0.00000000E+00  0.00000000E+00
  0.00000000E+00  0.00000000E+00  0.00000000E+00
  0.00000000E+00  0.00000000E+00  0.00000000E+00
  0.00000000E+00  0.00000000E+00  0.00000000E+00
  0.00000000E+00  0.00000000E+00  0.00000000E+00
  0.00000000E+00  0.00000000E+00  0.00000000E+00
  0.00000000E+00  0.00000000E+00  0.00000000E+00
  0.00000000E+00  0.00000000E+00  0.00000000E+00
  0.00000000E+00  0.00000000E+00  0.00000000E+00
  0.00000000E+00  0.00000000E+00  0.00000000E+00
  0.00000000E+00  0.00000000E+00  0.00000000E+00
  0.00000000E+00  0.00000000E+00  0.00000000E+00
  0.00000000E+00  0.00000000E+00  0.00000000E+00
  0.00000000E+00  0.00000000E+00  0.00000000E+00
  0.00000000E+00  0.00000000E+00  0.00000000E+00
  0.00000000E+00  0.00000000E+00  0.00000000E+00
  0.00000000E+00  0.00000000E+00  0.00000000E+00
  0.00000000E+00  0.00000000E+00  0.00000000E+00
  0.00000000E+00  0.00000000E+00  0.00000000E+00
  0.00000000E+00  0.00000000E+00  0.00000000E+00
  0.00000000E+00  0.00000000E+00  0.00000000E+00
  0.00000000E+00  0.00000000E+00  0.00000000E+00
  0.00000000E+00  0.00000000E+00  0.00000000E+00
  0.00000000E+00  0.00000000E+00  0.00000000E+00
  0.00000000E+00  0.00000000E+00  0.00000000E+00
  0.00000000E+00  0.00000000E+00  0.00000000E+00
  0.00000000E+00  0.00000000E+00  0.00000000E+00
  0.00000000E+00  0.00000000E+00  0.00000000E+00
  0.00000000E+00  0.00000000E+00  0.00000000E+00
  0.00000000E+00  0.00000000E+00  0.00000000E+00
  0.00000000E+00  0.00000000E+00  0.00000000E+00
  0.00000000E+00  0.00000000E+00  0.00000000E+00
  0.00000000E+00  0.00000000E+00  0.00000000E+00
  0.00000000E+00  0.00000000E+00  0.00000000E+00
  0.00000000E+00  0.00000000E+00  0.00000000E+00
  0.00000000E+00  0.00000000E+00  0.00000000E+00
