CONTCAR\(7)                             
   1.00000000000000     
    12.3312997818000003    0.0000000000000000    0.0000000000000000
     0.0001127485000000   12.8291997905000006    0.0000000000000000
     0.0005937186000000    0.0011528207000000   19.9943999824000009
   C    N    Fe   Ni   O    H 
    51     5     1     1     1     1
Direct
  0.0563104025745980  0.0542439930392230  0.0492451105094954
  0.1569865530853142  0.1100300468478227  0.0490784212483756
  0.1572818291857379  0.2208373180051617  0.0477603534791047
  0.0566655751751957  0.2755604179471453  0.0474595095811765
  0.2576044473936760  0.0552118331231110  0.0511478564790164
  0.3581639280438120  0.1107456037402615  0.0541710553786093
  0.3584553469494345  0.2229485295236161  0.0527667097627242
  0.2576276700882477  0.2770822792501775  0.0482047704109497
  0.4582002237896265  0.0542262683075195  0.0584139299556935
  0.5585220010573060  0.1110171802838443  0.0614554754072632
  0.5594086981481934  0.2249129685012018  0.0621163073555810
  0.4584452689832765  0.2816021256599395  0.0566869166418197
  0.6563015694237410  0.0500973231785239  0.0615602056542460
  0.7553509591656037  0.1081427682318396  0.0588458852885391
  0.7565815211966442  0.2212605805472132  0.0598397301591845
  0.6597316591644915  0.2819809385517759  0.0647426516202722
  0.8553742540257649  0.0522415948516540  0.0544716183817293
  0.9557877970347900  0.1084676517062302  0.0513101135718874
  0.9564935972374505  0.2200793345555319  0.0508366238941261
  0.8570301893544374  0.2761209582167170  0.0546822128532761
  0.0565993879271256  0.3866854639747139  0.0454525707499759
  0.1560070009260252  0.4430140556519998  0.0438788220837446
  0.1556771609928875  0.5538269726110929  0.0430488200939756
  0.0569730094561817  0.6098459515201434  0.0429278027961891
  0.2559393259231219  0.3884002795720814  0.0459409985616818
  0.3547629979703133  0.4455477265849193  0.0488801208800315
  0.3533171050497063  0.5578338995613853  0.0506699254461382
  0.2542946279204500  0.6110513670261011  0.0460262491341773
  0.7598731814128175  0.4458136357652744  0.0601144825661586
  0.8580100217365935  0.3875397673280265  0.0529259892127951
  0.9575636539259264  0.4423273651649788  0.0471175485610772
  0.9579321158043589  0.5536360725630352  0.0455930178133261
  0.8590551417437908  0.6075236679344655  0.0504473561241038
  0.0568912528009433  0.7207028511997942  0.0437768084373502
  0.1556489244661236  0.7776379459889442  0.0455187870228934
  0.1564439740233264  0.8882660165986366  0.0476060468153241
  0.0561432818008410  0.9432419669862890  0.0481257709248667
  0.2542907561803514  0.7218470187069038  0.0476828304144289
  0.3533974369552697  0.7762633826891271  0.0534272724794985
  0.3557980154433524  0.8876356318554517  0.0544796001733929
  0.2567570635905449  0.9437356560474335  0.0507999086922088
  0.4503903594727311  0.7175922639112229  0.0603737689126451
  0.5534842685552969  0.8799014909818199  0.0635661744170352
  0.4567459669535095  0.9416265726772715  0.0590999869167369
  0.7571358623818107  0.8798423178062588  0.0579580156602193
  0.6553661615470904  0.9351783267854253  0.0621139332184640
  0.8592003018946195  0.7195978829502581  0.0502623690800089
  0.9576242340485599  0.7755973376620527  0.0464455337434280
  0.9566617029074548  0.8869405741117345  0.0488976732392110
  0.8555586378742189  0.9402567062744153  0.0534405167245625
  0.4541443657132195  0.3921810227115161  0.0549227439384890
  0.4496040752948857  0.6098645025166932  0.0595557207260873
  0.6641794987736828  0.3922510255525470  0.0695132427567960
  0.7616672111174930  0.5548187309732584  0.0584756827334108
  0.5474336605184256  0.7704294016302619  0.0671800744997994
  0.7618647781905934  0.7715467184793920  0.0579083346575714
  0.6565199735263870  0.6685942098030352  0.0774206565436168
  0.5532016859101578  0.4906247541020504  0.0816632751297963
  0.6052811873447399  0.5878600455898964  0.1516891986266014
  0.6664871448477238  0.5549795900815968  0.1742269108590989
 
  0.00000000E+00  0.00000000E+00  0.00000000E+00
  0.00000000E+00  0.00000000E+00  0.00000000E+00
  0.00000000E+00  0.00000000E+00  0.00000000E+00
  0.00000000E+00  0.00000000E+00  0.00000000E+00
  0.00000000E+00  0.00000000E+00  0.00000000E+00
  0.00000000E+00  0.00000000E+00  0.00000000E+00
  0.00000000E+00  0.00000000E+00  0.00000000E+00
  0.00000000E+00  0.00000000E+00  0.00000000E+00
  0.00000000E+00  0.00000000E+00  0.00000000E+00
  0.00000000E+00  0.00000000E+00  0.00000000E+00
  0.00000000E+00  0.00000000E+00  0.00000000E+00
  0.00000000E+00  0.00000000E+00  0.00000000E+00
  0.00000000E+00  0.00000000E+00  0.00000000E+00
  0.00000000E+00  0.00000000E+00  0.00000000E+00
  0.00000000E+00  0.00000000E+00  0.00000000E+00
  0.00000000E+00  0.00000000E+00  0.00000000E+00
  0.00000000E+00  0.00000000E+00  0.00000000E+00
  0.00000000E+00  0.00000000E+00  0.00000000E+00
  0.00000000E+00  0.00000000E+00  0.00000000E+00
  0.00000000E+00  0.00000000E+00  0.00000000E+00
  0.00000000E+00  0.00000000E+00  0.00000000E+00
  0.00000000E+00  0.00000000E+00  0.00000000E+00
  0.00000000E+00  0.00000000E+00  0.00000000E+00
  0.00000000E+00  0.00000000E+00  0.00000000E+00
  0.00000000E+00  0.00000000E+00  0.00000000E+00
  0.00000000E+00  0.00000000E+00  0.00000000E+00
  0.00000000E+00  0.00000000E+00  0.00000000E+00
  0.00000000E+00  0.00000000E+00  0.00000000E+00
  0.00000000E+00  0.00000000E+00  0.00000000E+00
  0.00000000E+00  0.00000000E+00  0.00000000E+00
  0.00000000E+00  0.00000000E+00  0.00000000E+00
  0.00000000E+00  0.00000000E+00  0.00000000E+00
  0.00000000E+00  0.00000000E+00  0.00000000E+00
  0.00000000E+00  0.00000000E+00  0.00000000E+00
  0.00000000E+00  0.00000000E+00  0.00000000E+00
  0.00000000E+00  0.00000000E+00  0.00000000E+00
  0.00000000E+00  0.00000000E+00  0.00000000E+00
  0.00000000E+00  0.00000000E+00  0.00000000E+00
  0.00000000E+00  0.00000000E+00  0.00000000E+00
  0.00000000E+00  0.00000000E+00  0.00000000E+00
  0.00000000E+00  0.00000000E+00  0.00000000E+00
  0.00000000E+00  0.00000000E+00  0.00000000E+00
  0.00000000E+00  0.00000000E+00  0.00000000E+00
  0.00000000E+00  0.00000000E+00  0.00000000E+00
  0.00000000E+00  0.00000000E+00  0.00000000E+00
  0.00000000E+00  0.00000000E+00  0.00000000E+00
  0.00000000E+00  0.00000000E+00  0.00000000E+00
  0.00000000E+00  0.00000000E+00  0.00000000E+00
  0.00000000E+00  0.00000000E+00  0.00000000E+00
  0.00000000E+00  0.00000000E+00  0.00000000E+00
  0.00000000E+00  0.00000000E+00  0.00000000E+00
  0.00000000E+00  0.00000000E+00  0.00000000E+00
  0.00000000E+00  0.00000000E+00  0.00000000E+00
  0.00000000E+00  0.00000000E+00  0.00000000E+00
  0.00000000E+00  0.00000000E+00  0.00000000E+00
  0.00000000E+00  0.00000000E+00  0.00000000E+00
  0.00000000E+00  0.00000000E+00  0.00000000E+00
  0.00000000E+00  0.00000000E+00  0.00000000E+00
  0.00000000E+00  0.00000000E+00  0.00000000E+00
  0.00000000E+00  0.00000000E+00  0.00000000E+00
