CONTCAR\(5)                             
   1.00000000000000     
    12.3312997818000003    0.0000000000000000    0.0000000000000000
     0.0001127485000000   12.8291997905000006    0.0000000000000000
     0.0005937186000000    0.0011528207000000   19.9943999824000009
   C    N    Fe   Ni   O    H 
    52     4     1     1     2     2
Direct
  0.0569850550371551  0.0538365289448771  0.0478158559562964
  0.1571692521060203  0.1094889478879540  0.0476131053047481
  0.1572445910630967  0.2205505687734871  0.0472546176515544
  0.0569744046059661  0.2755002400607058  0.0472780042614500
  0.2572209497843025  0.0542355200521872  0.0486032079809529
  0.3577381912904650  0.1094532118931483  0.0511869937160817
  0.3574799058140086  0.2213726407115767  0.0511827169677277
  0.2571998883625087  0.2761189058214594  0.0481118917898073
  0.4572227024541430  0.0526495303909566  0.0540642480267116
  0.5566038617509558  0.1090769576031349  0.0573802664028638
  0.5564628039288675  0.2220624563896428  0.0589144432588102
  0.4562742330521794  0.2797324560127646  0.0549865385530168
  0.6558107444736903  0.0492181880012110  0.0577526336112702
  0.7556215407429674  0.1072035601692424  0.0555699775098951
  0.7565004439022971  0.2194399037230845  0.0563748906886508
  0.6571886481521567  0.2779236023371724  0.0614712287866429
  0.8560847107120252  0.0524230668329268  0.0522427092777231
  0.9563340864319584  0.1084209517203354  0.0495747156376801
  0.9567878431948801  0.2196315580447988  0.0494425367878637
  0.8569624244975281  0.2749982393071083  0.0526496803498190
  0.0578635835899476  0.3865390103674879  0.0464980156793780
  0.1574095391082228  0.4423334301975029  0.0455379379790669
  0.1571504850441050  0.5531104109112405  0.0447505058462943
  0.0575300827449140  0.6089266044498836  0.0453761156945993
  0.2576268384100701  0.3875069824410308  0.0471806369359786
  0.3577161747255051  0.4423729504695991  0.0497326398050677
  0.3580717226979016  0.5558414028591060  0.0502890444121845
  0.2567364849753313  0.6087736071460297  0.0460191006714320
  0.7612862708109600  0.4441583438595665  0.0612485291535915
  0.8591617641603246  0.3864897214969973  0.0529578357910539
  0.9581957246649708  0.4423668298293700  0.0486354167744350
  0.9577280232935637  0.5536608151561246  0.0485505962290620
  0.8575761002816562  0.6093183186671136  0.0542206883978402
  0.0573791112330666  0.7199811050206967  0.0453533257683195
  0.1561787165422902  0.7759102357505253  0.0450452475226718
  0.1567939389003509  0.8872560681717949  0.0460886205689195
  0.0571824468336065  0.9430088956912839  0.0471215124391848
  0.2550685012948097  0.7198306620981504  0.0460003523991995
  0.3535180427397457  0.7755165067811615  0.0488493103007377
  0.3557399425497741  0.8865682283709075  0.0496865938477489
  0.2565054547705158  0.9428982983861900  0.0476854777803139
  0.4513898152094396  0.7185699971857735  0.0544544460780223
  0.5533927998484905  0.8792363294749523  0.0576591790003449
  0.4562761985929939  0.9404892903021560  0.0535676196790479
  0.7586313781899162  0.8810408641806078  0.0568605837339597
  0.6555859621005856  0.9353867724002115  0.0584895509841869
  0.8592873974490960  0.7226026466748438  0.0528808905384504
  0.9584509286502312  0.7764847400799462  0.0479747811891554
  0.9575375881442296  0.8872401793687343  0.0487985802109053
  0.8567882793967184  0.9408917809090429  0.0522865454430565
  0.6632807641525957  0.3874530789553021  0.0671831004211414
  0.7588820593369040  0.5554530304990943  0.0635387163940266
  0.4541714206101851  0.3880706388877798  0.0538593715516402
  0.4537110105344535  0.6106182696410002  0.0566676163943683
  0.5469994474116601  0.7713777933019289  0.0596265131532910
  0.7638896645126722  0.7744100029670338  0.0587574534563815
  0.6536894747417547  0.6642233167984911  0.0951373959470244
  0.5595561579313263  0.4838226571856621  0.0831686336797378
  0.5610181360207366  0.4888865276973926  0.1751183004340085
  0.6627887828199530  0.6842476150322996  0.1868074069911397
  0.7333130230011905  0.6764836875381128  0.2080616303269062
  0.5944843826160752  0.5538153401200802  0.1917138948765290
 
  0.00000000E+00  0.00000000E+00  0.00000000E+00
  0.00000000E+00  0.00000000E+00  0.00000000E+00
  0.00000000E+00  0.00000000E+00  0.00000000E+00
  0.00000000E+00  0.00000000E+00  0.00000000E+00
  0.00000000E+00  0.00000000E+00  0.00000000E+00
  0.00000000E+00  0.00000000E+00  0.00000000E+00
  0.00000000E+00  0.00000000E+00  0.00000000E+00
  0.00000000E+00  0.00000000E+00  0.00000000E+00
  0.00000000E+00  0.00000000E+00  0.00000000E+00
  0.00000000E+00  0.00000000E+00  0.00000000E+00
  0.00000000E+00  0.00000000E+00  0.00000000E+00
  0.00000000E+00  0.00000000E+00  0.00000000E+00
  0.00000000E+00  0.00000000E+00  0.00000000E+00
  0.00000000E+00  0.00000000E+00  0.00000000E+00
  0.00000000E+00  0.00000000E+00  0.00000000E+00
  0.00000000E+00  0.00000000E+00  0.00000000E+00
  0.00000000E+00  0.00000000E+00  0.00000000E+00
  0.00000000E+00  0.00000000E+00  0.00000000E+00
  0.00000000E+00  0.00000000E+00  0.00000000E+00
  0.00000000E+00  0.00000000E+00  0.00000000E+00
  0.00000000E+00  0.00000000E+00  0.00000000E+00
  0.00000000E+00  0.00000000E+00  0.00000000E+00
  0.00000000E+00  0.00000000E+00  0.00000000E+00
  0.00000000E+00  0.00000000E+00  0.00000000E+00
  0.00000000E+00  0.00000000E+00  0.00000000E+00
  0.00000000E+00  0.00000000E+00  0.00000000E+00
  0.00000000E+00  0.00000000E+00  0.00000000E+00
  0.00000000E+00  0.00000000E+00  0.00000000E+00
  0.00000000E+00  0.00000000E+00  0.00000000E+00
  0.00000000E+00  0.00000000E+00  0.00000000E+00
  0.00000000E+00  0.00000000E+00  0.00000000E+00
  0.00000000E+00  0.00000000E+00  0.00000000E+00
  0.00000000E+00  0.00000000E+00  0.00000000E+00
  0.00000000E+00  0.00000000E+00  0.00000000E+00
  0.00000000E+00  0.00000000E+00  0.00000000E+00
  0.00000000E+00  0.00000000E+00  0.00000000E+00
  0.00000000E+00  0.00000000E+00  0.00000000E+00
  0.00000000E+00  0.00000000E+00  0.00000000E+00
  0.00000000E+00  0.00000000E+00  0.00000000E+00
  0.00000000E+00  0.00000000E+00  0.00000000E+00
  0.00000000E+00  0.00000000E+00  0.00000000E+00
  0.00000000E+00  0.00000000E+00  0.00000000E+00
  0.00000000E+00  0.00000000E+00  0.00000000E+00
  0.00000000E+00  0.00000000E+00  0.00000000E+00
  0.00000000E+00  0.00000000E+00  0.00000000E+00
  0.00000000E+00  0.00000000E+00  0.00000000E+00
  0.00000000E+00  0.00000000E+00  0.00000000E+00
  0.00000000E+00  0.00000000E+00  0.00000000E+00
  0.00000000E+00  0.00000000E+00  0.00000000E+00
  0.00000000E+00  0.00000000E+00  0.00000000E+00
  0.00000000E+00  0.00000000E+00  0.00000000E+00
  0.00000000E+00  0.00000000E+00  0.00000000E+00
  0.00000000E+00  0.00000000E+00  0.00000000E+00
  0.00000000E+00  0.00000000E+00  0.00000000E+00
  0.00000000E+00  0.00000000E+00  0.00000000E+00
  0.00000000E+00  0.00000000E+00  0.00000000E+00
  0.00000000E+00  0.00000000E+00  0.00000000E+00
  0.00000000E+00  0.00000000E+00  0.00000000E+00
  0.00000000E+00  0.00000000E+00  0.00000000E+00
  0.00000000E+00  0.00000000E+00  0.00000000E+00
  0.00000000E+00  0.00000000E+00  0.00000000E+00
  0.00000000E+00  0.00000000E+00  0.00000000E+00
