CONTCAR                                 
   1.00000000000000     
    12.3312997818000003    0.0000000000000000    0.0000000000000000
     0.0001127485000000   12.8291997905000006    0.0000000000000000
     0.0005937186000000    0.0011528207000000   19.9943999824000009
   C    N    Fe   Ni   H 
    52     4     1     1     1
Direct
  0.0558276623200026  0.0546054889176362  0.0533651230932479
  0.1559244290769336  0.1103513332997597  0.0534522589639005
  0.1559996796854990  0.2211503221878858  0.0523641054668287
  0.0561205093268744  0.2763325299474044  0.0511568559989258
  0.2564792428514676  0.0558799394407963  0.0548962056921526
  0.3568645942969724  0.1116850067108940  0.0573200516051278
  0.3565914951069493  0.2235509144739866  0.0568697312989219
  0.2557770763109743  0.2768665062043069  0.0531967322076225
  0.4569260776576822  0.0561439879373277  0.0601260977162663
  0.5568276447174967  0.1133933625853305  0.0622380286921025
  0.5569994445847654  0.2273257833026700  0.0629073802397314
  0.4551545359702237  0.2832455572102911  0.0601389173302642
  0.6555771703550755  0.0522591279196432  0.0618814544621723
  0.7551054432605228  0.1094388699091569  0.0593235323842535
  0.7566167061049589  0.2221379943110085  0.0591453965755536
  0.6592065184730465  0.2832901737295306  0.0632698571509136
  0.8547300136120404  0.0531575204796399  0.0566337434238586
  0.9552822279678507  0.1090704174757465  0.0543487455376723
  0.9563323096472496  0.2204439574664001  0.0532271226296367
  0.8569320172002280  0.2766213506929726  0.0550224035596185
  0.0568029460750413  0.3878045911635751  0.0491414974943696
  0.1557697715619623  0.4436143978356611  0.0487191679860597
  0.1564316310602564  0.5546998595534907  0.0480857014128979
  0.0572965656420359  0.6102813918646304  0.0476080788196572
  0.2550048891034725  0.3876980262109773  0.0512137690930578
  0.3537866507882164  0.4421901825627002  0.0543655003235697
  0.3560931089838237  0.5555159651522361  0.0544223791008298
  0.2558841929513151  0.6104288534543041  0.0503262033481528
  0.7605044699763500  0.4446969532148221  0.0580606161723598
  0.8586928845044522  0.3880596140919686  0.0530109288732482
  0.9577900465114910  0.4437381572825680  0.0492290755352206
  0.9579456338203008  0.5547320988438932  0.0484405968835256
  0.8582885508241850  0.6099103736331564  0.0513121168583978
  0.0568744084658324  0.7214432635879704  0.0487822659408666
  0.1555542970380469  0.7773797492974311  0.0499977352323422
  0.1558646421725184  0.8885894595229734  0.0518276436636677
  0.0558108108276657  0.9437208908274221  0.0525139907113399
  0.2549241217821208  0.7214234170711177  0.0510196276275352
  0.3533622288124191  0.7775715214797112  0.0550994746859935
  0.3550453811405432  0.8890340673583510  0.0563982409005696
  0.2556150128343903  0.9446521716246075  0.0541331371454937
  0.4516699466665016  0.7215341626693594  0.0612326620864122
  0.5529659914456452  0.8832482775753425  0.0639454097587638
  0.4554017419208319  0.9438748925599231  0.0602727046455498
  0.7563096205652040  0.8807574324881463  0.0591246496296994
  0.6554439460036140  0.9380772207926541  0.0624636671642217
  0.8588335530156204  0.7222088773347612  0.0525395563702108
  0.9572984879147499  0.7773110104927092  0.0508083710143739
  0.9562300019555365  0.8880383262061033  0.0529546222552917
  0.8547932734853150  0.9408685026568108  0.0562249829453766
  0.4558200276126796  0.6092092121087298  0.0614082328126573
  0.7577036542998621  0.5577932454494045  0.0564525685028294
  0.4502178325179562  0.3911058251486483  0.0597275738478458
  0.6648893453598300  0.3904265621040508  0.0659042601629637
  0.5476197844392010  0.7767072696176451  0.0672210851803638
  0.7604580197231884  0.7713128986978173  0.0576304205352293
  0.6451294665956665  0.6614069991960786  0.0663238491470808
  0.5597877625687807  0.4977997873497303  0.0726794676413396
  0.6183405325065483  0.5808744727161267  0.1245844344618557
 
  0.00000000E+00  0.00000000E+00  0.00000000E+00
  0.00000000E+00  0.00000000E+00  0.00000000E+00
  0.00000000E+00  0.00000000E+00  0.00000000E+00
  0.00000000E+00  0.00000000E+00  0.00000000E+00
  0.00000000E+00  0.00000000E+00  0.00000000E+00
  0.00000000E+00  0.00000000E+00  0.00000000E+00
  0.00000000E+00  0.00000000E+00  0.00000000E+00
  0.00000000E+00  0.00000000E+00  0.00000000E+00
  0.00000000E+00  0.00000000E+00  0.00000000E+00
  0.00000000E+00  0.00000000E+00  0.00000000E+00
  0.00000000E+00  0.00000000E+00  0.00000000E+00
  0.00000000E+00  0.00000000E+00  0.00000000E+00
  0.00000000E+00  0.00000000E+00  0.00000000E+00
  0.00000000E+00  0.00000000E+00  0.00000000E+00
  0.00000000E+00  0.00000000E+00  0.00000000E+00
  0.00000000E+00  0.00000000E+00  0.00000000E+00
  0.00000000E+00  0.00000000E+00  0.00000000E+00
  0.00000000E+00  0.00000000E+00  0.00000000E+00
  0.00000000E+00  0.00000000E+00  0.00000000E+00
  0.00000000E+00  0.00000000E+00  0.00000000E+00
  0.00000000E+00  0.00000000E+00  0.00000000E+00
  0.00000000E+00  0.00000000E+00  0.00000000E+00
  0.00000000E+00  0.00000000E+00  0.00000000E+00
  0.00000000E+00  0.00000000E+00  0.00000000E+00
  0.00000000E+00  0.00000000E+00  0.00000000E+00
  0.00000000E+00  0.00000000E+00  0.00000000E+00
  0.00000000E+00  0.00000000E+00  0.00000000E+00
  0.00000000E+00  0.00000000E+00  0.00000000E+00
  0.00000000E+00  0.00000000E+00  0.00000000E+00
  0.00000000E+00  0.00000000E+00  0.00000000E+00
  0.00000000E+00  0.00000000E+00  0.00000000E+00
  0.00000000E+00  0.00000000E+00  0.00000000E+00
  0.00000000E+00  0.00000000E+00  0.00000000E+00
  0.00000000E+00  0.00000000E+00  0.00000000E+00
  0.00000000E+00  0.00000000E+00  0.00000000E+00
  0.00000000E+00  0.00000000E+00  0.00000000E+00
  0.00000000E+00  0.00000000E+00  0.00000000E+00
  0.00000000E+00  0.00000000E+00  0.00000000E+00
  0.00000000E+00  0.00000000E+00  0.00000000E+00
  0.00000000E+00  0.00000000E+00  0.00000000E+00
  0.00000000E+00  0.00000000E+00  0.00000000E+00
  0.00000000E+00  0.00000000E+00  0.00000000E+00
  0.00000000E+00  0.00000000E+00  0.00000000E+00
  0.00000000E+00  0.00000000E+00  0.00000000E+00
  0.00000000E+00  0.00000000E+00  0.00000000E+00
  0.00000000E+00  0.00000000E+00  0.00000000E+00
  0.00000000E+00  0.00000000E+00  0.00000000E+00
  0.00000000E+00  0.00000000E+00  0.00000000E+00
  0.00000000E+00  0.00000000E+00  0.00000000E+00
  0.00000000E+00  0.00000000E+00  0.00000000E+00
  0.00000000E+00  0.00000000E+00  0.00000000E+00
  0.00000000E+00  0.00000000E+00  0.00000000E+00
  0.00000000E+00  0.00000000E+00  0.00000000E+00
  0.00000000E+00  0.00000000E+00  0.00000000E+00
  0.00000000E+00  0.00000000E+00  0.00000000E+00
  0.00000000E+00  0.00000000E+00  0.00000000E+00
  0.00000000E+00  0.00000000E+00  0.00000000E+00
  0.00000000E+00  0.00000000E+00  0.00000000E+00
  0.00000000E+00  0.00000000E+00  0.00000000E+00
