CONTCAR                                 
   1.00000000000000     
    12.3312997818000003    0.0000000000000000    0.0000000000000000
     0.0001127485000000   12.8291997905000006    0.0000000000000000
     0.0005937186000000    0.0011528207000000   19.9943999824000009
   C    N    Fe   Ni   H 
    53     3     1     1     2
Direct
  0.0547891600361883  0.0541207540651573  0.0515776904683066
  0.1550207161516433  0.1097502623631999  0.0512873101387310
  0.1552965645889462  0.2204960385997352  0.0500638144094961
  0.0555646918344038  0.2755613257623197  0.0495733038398257
  0.2555207806502633  0.0554622570351539  0.0528008991898207
  0.3558421767555134  0.1114051471799866  0.0555818550184221
  0.3557131150619556  0.2231699759085841  0.0546389486199537
  0.2549925569888321  0.2763212525874988  0.0505400323817956
  0.4557661853510033  0.0562796292835966  0.0592728145542059
  0.5553509842486765  0.1139861024687827  0.0622955915623153
  0.5557714866735697  0.2276515431764742  0.0629324550733717
  0.4541503603473917  0.2829794617801827  0.0581163477373566
  0.6539430137319858  0.0531532250262906  0.0626884509884546
  0.7541936363550812  0.1096921359765000  0.0600152828638492
  0.7558415578700960  0.2222203622226406  0.0604076837271049
  0.6584379160539821  0.2836811766934229  0.0651343638140402
  0.8536770888786454  0.0529559437677054  0.0564742042827051
  0.9543193040069298  0.1087735863504372  0.0534276989346556
  0.9555574975909801  0.2200201655949165  0.0526003612083966
  0.8563107141469704  0.2764149073447923  0.0558317823077702
  0.0564398452671985  0.3867863040311700  0.0474814187458891
  0.1551710931350026  0.4430219702380459  0.0461936050650912
  0.1561124988140737  0.5543212286663032  0.0452519914427061
  0.0571473236740703  0.6097582592335340  0.0453660528585546
  0.2542635422847774  0.3871297510266808  0.0484568775693997
  0.3529717168283718  0.4417931633896594  0.0515357430661200
  0.3552535059415619  0.5552756626636154  0.0526390704857984
  0.2553313054869689  0.6102165731777129  0.0477369262568101
  0.7602287052053920  0.4447990877098524  0.0614198020577336
  0.8582006262845761  0.3876278436283028  0.0543699865215839
  0.9575696116180380  0.4424813556812398  0.0489700471628233
  0.9585912518170497  0.5530817658883143  0.0478709295202056
  0.8597411918184255  0.6079341837283861  0.0524984592117131
  0.0565437642925558  0.7212943551386417  0.0463108289372893
  0.1551296099816772  0.7770909121457212  0.0474053708631356
  0.1548072413924307  0.8883403988696744  0.0494719216915901
  0.0545150682396011  0.9432074660159141  0.0504885137276861
  0.2545942618198764  0.7212352872870935  0.0488382807025182
  0.3530159831362468  0.7772792070725796  0.0539548607390603
  0.3541010393811131  0.8888516372698536  0.0550988449313587
  0.2545831387608697  0.9443063776943302  0.0520604619161695
  0.4514247756226813  0.7212068948634807  0.0611401906166486
  0.5516824454827330  0.8840009458529811  0.0644155607787758
  0.4541588872036796  0.9439346867895041  0.0596674417861277
  0.7535714382144248  0.8816502061769681  0.0601700715244799
  0.6536718232833982  0.9398464161386262  0.0635244317206919
  0.8592119991647158  0.7201460395344549  0.0526635937337614
  0.9567716174914439  0.7766378019293821  0.0491137175691592
  0.9546424832218037  0.8875127230257698  0.0514482518378571
  0.8532269154328727  0.9407125929127244  0.0559120384019356
  0.4546746888536574  0.6084218159882372  0.0615291714965685
  0.7595273663647935  0.5572502687977082  0.0601136725017729
  0.7573464019097139  0.7686991079050097  0.0592034859712385
  0.4493201332781661  0.3907974338480282  0.0563326573476341
  0.6642171022785328  0.3904659320317474  0.0696185166843629
  0.5472017452757070  0.7771086987588387  0.0679175398255260
  0.6461402079365877  0.6632659272825323  0.0725007684584878
  0.5569190752713143  0.4970378583139650  0.0745099606297897
  0.6932350253798001  0.6767047260581254  0.1395175448201752
  0.6078340738310405  0.5734018430479176  0.1269805067011703
 
  0.00000000E+00  0.00000000E+00  0.00000000E+00
  0.00000000E+00  0.00000000E+00  0.00000000E+00
  0.00000000E+00  0.00000000E+00  0.00000000E+00
  0.00000000E+00  0.00000000E+00  0.00000000E+00
  0.00000000E+00  0.00000000E+00  0.00000000E+00
  0.00000000E+00  0.00000000E+00  0.00000000E+00
  0.00000000E+00  0.00000000E+00  0.00000000E+00
  0.00000000E+00  0.00000000E+00  0.00000000E+00
  0.00000000E+00  0.00000000E+00  0.00000000E+00
  0.00000000E+00  0.00000000E+00  0.00000000E+00
  0.00000000E+00  0.00000000E+00  0.00000000E+00
  0.00000000E+00  0.00000000E+00  0.00000000E+00
  0.00000000E+00  0.00000000E+00  0.00000000E+00
  0.00000000E+00  0.00000000E+00  0.00000000E+00
  0.00000000E+00  0.00000000E+00  0.00000000E+00
  0.00000000E+00  0.00000000E+00  0.00000000E+00
  0.00000000E+00  0.00000000E+00  0.00000000E+00
  0.00000000E+00  0.00000000E+00  0.00000000E+00
  0.00000000E+00  0.00000000E+00  0.00000000E+00
  0.00000000E+00  0.00000000E+00  0.00000000E+00
  0.00000000E+00  0.00000000E+00  0.00000000E+00
  0.00000000E+00  0.00000000E+00  0.00000000E+00
  0.00000000E+00  0.00000000E+00  0.00000000E+00
  0.00000000E+00  0.00000000E+00  0.00000000E+00
  0.00000000E+00  0.00000000E+00  0.00000000E+00
  0.00000000E+00  0.00000000E+00  0.00000000E+00
  0.00000000E+00  0.00000000E+00  0.00000000E+00
  0.00000000E+00  0.00000000E+00  0.00000000E+00
  0.00000000E+00  0.00000000E+00  0.00000000E+00
  0.00000000E+00  0.00000000E+00  0.00000000E+00
  0.00000000E+00  0.00000000E+00  0.00000000E+00
  0.00000000E+00  0.00000000E+00  0.00000000E+00
  0.00000000E+00  0.00000000E+00  0.00000000E+00
  0.00000000E+00  0.00000000E+00  0.00000000E+00
  0.00000000E+00  0.00000000E+00  0.00000000E+00
  0.00000000E+00  0.00000000E+00  0.00000000E+00
  0.00000000E+00  0.00000000E+00  0.00000000E+00
  0.00000000E+00  0.00000000E+00  0.00000000E+00
  0.00000000E+00  0.00000000E+00  0.00000000E+00
  0.00000000E+00  0.00000000E+00  0.00000000E+00
  0.00000000E+00  0.00000000E+00  0.00000000E+00
  0.00000000E+00  0.00000000E+00  0.00000000E+00
  0.00000000E+00  0.00000000E+00  0.00000000E+00
  0.00000000E+00  0.00000000E+00  0.00000000E+00
  0.00000000E+00  0.00000000E+00  0.00000000E+00
  0.00000000E+00  0.00000000E+00  0.00000000E+00
  0.00000000E+00  0.00000000E+00  0.00000000E+00
  0.00000000E+00  0.00000000E+00  0.00000000E+00
  0.00000000E+00  0.00000000E+00  0.00000000E+00
  0.00000000E+00  0.00000000E+00  0.00000000E+00
  0.00000000E+00  0.00000000E+00  0.00000000E+00
  0.00000000E+00  0.00000000E+00  0.00000000E+00
  0.00000000E+00  0.00000000E+00  0.00000000E+00
  0.00000000E+00  0.00000000E+00  0.00000000E+00
  0.00000000E+00  0.00000000E+00  0.00000000E+00
  0.00000000E+00  0.00000000E+00  0.00000000E+00
  0.00000000E+00  0.00000000E+00  0.00000000E+00
  0.00000000E+00  0.00000000E+00  0.00000000E+00
  0.00000000E+00  0.00000000E+00  0.00000000E+00
  0.00000000E+00  0.00000000E+00  0.00000000E+00
