CONTCAR\(5)                             
   1.00000000000000     
    12.3312997818000003    0.0000000000000000    0.0000000000000000
     0.0001127485000000   12.8291997905000006    0.0000000000000000
     0.0005937186000000    0.0011528207000000   19.9943999824000009
   C    N    Fe   Ni   H 
    54     2     1     1     2
Direct
  0.0551379556413995  0.0533134272100155  0.0546832060403168
  0.1553837735958014  0.1097196597146000  0.0543068132315893
  0.1566988928736232  0.2205832408867845  0.0539352792454513
  0.0565908079485061  0.2750585062798203  0.0533682998898377
  0.2557090267229156  0.0554721790648446  0.0543102433958750
  0.3561416922136398  0.1117013042167952  0.0551756519504632
  0.3574342469639809  0.2234412492460132  0.0555196295758361
  0.2567064570605453  0.2770594611839623  0.0542920128952306
  0.4557708970925007  0.0556971411159301  0.0557334737446822
  0.5564059093902625  0.1116208759385176  0.0573350373554183
  0.5575566445884572  0.2237748500877479  0.0581165017652668
  0.4578866629197894  0.2817057163534024  0.0569986419339757
  0.6547938702123548  0.0515456166165755  0.0578621143931927
  0.7549827598958263  0.1078111663851546  0.0571243868902054
  0.7571471785202712  0.2196884019808240  0.0567106075861596
  0.6591740865870930  0.2794922151950441  0.0586145173081738
  0.8542403148208029  0.0510135005402894  0.0562793235728940
  0.9547561410543522  0.1074682293928266  0.0550250539976303
  0.9566682146067035  0.2187579543346672  0.0541130303414913
  0.8573503388578232  0.2746128979251208  0.0546557631204014
  0.0573066989257657  0.3862618743109982  0.0526503908609072
  0.1560773597830922  0.4428525301958787  0.0525216052795198
  0.1562486044052558  0.5542368442631295  0.0521226749695538
  0.0559908791025840  0.6089280161691742  0.0525953593491041
  0.2560393467625964  0.3881187825930999  0.0535169093475591
  0.3546686166558506  0.4449330583717857  0.0543599976794509
  0.3565440057318041  0.5576953691022963  0.0532884165402712
  0.2551936642013986  0.6111862407681251  0.0521138590790057
  0.7597710674050105  0.4420657503437467  0.0559666614866722
  0.8588604803576382  0.3857086810750157  0.0536549392109364
  0.9578799180956695  0.4414232455578982  0.0526479973227853
  0.9572377893100079  0.5519798170903493  0.0531156878424778
  0.8565766085275895  0.6059404347487597  0.0548510445895832
  0.0552478205060844  0.7202609002621972  0.0531051571131374
  0.1538085957581492  0.7768399898084170  0.0527091046339118
  0.1541605677357522  0.8879264467371947  0.0534922668144501
  0.0538848875207723  0.9423750403161645  0.0546132116354162
  0.2535012998350974  0.7217581384392265  0.0521021429707998
  0.3519494103949460  0.7780029393919751  0.0523782069911341
  0.3534063916381183  0.8890454842064587  0.0532286409493014
  0.2539553483536371  0.9443504966522682  0.0535521398126684
  0.4513870516082427  0.7225080633849404  0.0529830816354431
  0.5516136923334712  0.8850967584962041  0.0560955519064214
  0.4535594377543893  0.9442917769155404  0.0545673988744166
  0.7524936025555031  0.8796063163741056  0.0591117444557496
  0.6537666036721330  0.9391289880817567  0.0583700013382679
  0.8568056016038016  0.7180025119139138  0.0566782415355442
  0.9550047282550941  0.7748527403640320  0.0548330820372631
  0.9540692496652557  0.8858964997852694  0.0555503960602577
  0.8527316494049891  0.9388106956260019  0.0569474277754472
  0.4546381243199593  0.3929189291201206  0.0569107740257183
  0.7557778327002755  0.5541328465947574  0.0558935332856482
  0.7543123071307385  0.7663886612961027  0.0601611153116041
  0.4572801897740819  0.6106433071596477  0.0542191914893450
  0.6638318564325694  0.3859070051945178  0.0600662092619273
  0.5470554857629261  0.7791847439498036  0.0552919663822973
  0.6367640400255543  0.6651968042505999  0.0665732266350196
  0.5655225947242701  0.4926399852401110  0.0629884434196968
  0.6622349177025195  0.6871791983006411  0.1369275691630010
  0.6296657970007666  0.5802464338788436  0.1206550276941775
 
  0.00000000E+00  0.00000000E+00  0.00000000E+00
  0.00000000E+00  0.00000000E+00  0.00000000E+00
  0.00000000E+00  0.00000000E+00  0.00000000E+00
  0.00000000E+00  0.00000000E+00  0.00000000E+00
  0.00000000E+00  0.00000000E+00  0.00000000E+00
  0.00000000E+00  0.00000000E+00  0.00000000E+00
  0.00000000E+00  0.00000000E+00  0.00000000E+00
  0.00000000E+00  0.00000000E+00  0.00000000E+00
  0.00000000E+00  0.00000000E+00  0.00000000E+00
  0.00000000E+00  0.00000000E+00  0.00000000E+00
  0.00000000E+00  0.00000000E+00  0.00000000E+00
  0.00000000E+00  0.00000000E+00  0.00000000E+00
  0.00000000E+00  0.00000000E+00  0.00000000E+00
  0.00000000E+00  0.00000000E+00  0.00000000E+00
  0.00000000E+00  0.00000000E+00  0.00000000E+00
  0.00000000E+00  0.00000000E+00  0.00000000E+00
  0.00000000E+00  0.00000000E+00  0.00000000E+00
  0.00000000E+00  0.00000000E+00  0.00000000E+00
  0.00000000E+00  0.00000000E+00  0.00000000E+00
  0.00000000E+00  0.00000000E+00  0.00000000E+00
  0.00000000E+00  0.00000000E+00  0.00000000E+00
  0.00000000E+00  0.00000000E+00  0.00000000E+00
  0.00000000E+00  0.00000000E+00  0.00000000E+00
  0.00000000E+00  0.00000000E+00  0.00000000E+00
  0.00000000E+00  0.00000000E+00  0.00000000E+00
  0.00000000E+00  0.00000000E+00  0.00000000E+00
  0.00000000E+00  0.00000000E+00  0.00000000E+00
  0.00000000E+00  0.00000000E+00  0.00000000E+00
  0.00000000E+00  0.00000000E+00  0.00000000E+00
  0.00000000E+00  0.00000000E+00  0.00000000E+00
  0.00000000E+00  0.00000000E+00  0.00000000E+00
  0.00000000E+00  0.00000000E+00  0.00000000E+00
  0.00000000E+00  0.00000000E+00  0.00000000E+00
  0.00000000E+00  0.00000000E+00  0.00000000E+00
  0.00000000E+00  0.00000000E+00  0.00000000E+00
  0.00000000E+00  0.00000000E+00  0.00000000E+00
  0.00000000E+00  0.00000000E+00  0.00000000E+00
  0.00000000E+00  0.00000000E+00  0.00000000E+00
  0.00000000E+00  0.00000000E+00  0.00000000E+00
  0.00000000E+00  0.00000000E+00  0.00000000E+00
  0.00000000E+00  0.00000000E+00  0.00000000E+00
  0.00000000E+00  0.00000000E+00  0.00000000E+00
  0.00000000E+00  0.00000000E+00  0.00000000E+00
  0.00000000E+00  0.00000000E+00  0.00000000E+00
  0.00000000E+00  0.00000000E+00  0.00000000E+00
  0.00000000E+00  0.00000000E+00  0.00000000E+00
  0.00000000E+00  0.00000000E+00  0.00000000E+00
  0.00000000E+00  0.00000000E+00  0.00000000E+00
  0.00000000E+00  0.00000000E+00  0.00000000E+00
  0.00000000E+00  0.00000000E+00  0.00000000E+00
  0.00000000E+00  0.00000000E+00  0.00000000E+00
  0.00000000E+00  0.00000000E+00  0.00000000E+00
  0.00000000E+00  0.00000000E+00  0.00000000E+00
  0.00000000E+00  0.00000000E+00  0.00000000E+00
  0.00000000E+00  0.00000000E+00  0.00000000E+00
  0.00000000E+00  0.00000000E+00  0.00000000E+00
  0.00000000E+00  0.00000000E+00  0.00000000E+00
  0.00000000E+00  0.00000000E+00  0.00000000E+00
  0.00000000E+00  0.00000000E+00  0.00000000E+00
  0.00000000E+00  0.00000000E+00  0.00000000E+00
