CONTCAR\(3)                             
   1.00000000000000     
    12.3312997818000003    0.0000000000000000    0.0000000000000000
     0.0001127485000000   12.8291997905000006    0.0000000000000000
     0.0005937186000000    0.0011528207000000   19.9943999824000009
   C    N    Fe   Ni   H 
    53     3     1     1     1
Direct
  0.0560106384732720  0.0550767942597484  0.0511934799646215
  0.1565658597541161  0.1108423973401526  0.0515876268394809
  0.1570671028780330  0.2218023137025034  0.0504889765566463
  0.0568126476243960  0.2760646326985429  0.0493172154784183
  0.2567577409636796  0.0562274400037250  0.0538623238347256
  0.3573139948823003  0.1120046617287804  0.0567234638946189
  0.3578288179442489  0.2240716219522763  0.0557669478368252
  0.2571606399415052  0.2781514469476931  0.0516820856391899
  0.4568984464289430  0.0558233341525113  0.0605085104127767
  0.5569895653112339  0.1123776417835142  0.0628211963131360
  0.5577454789664378  0.2253844085128165  0.0631404234940643
  0.4577009505337279  0.2824846969557932  0.0592518509572067
  0.6548571100338857  0.0518491384469398  0.0622965254194189
  0.7548145214781858  0.1090111092159882  0.0587738843051039
  0.7564386339510201  0.2216250404988031  0.0589577380387718
  0.6588696149027639  0.2820457594724086  0.0639944217134104
  0.8548160779050199  0.0533922797451473  0.0549110952308272
  0.9554913969059724  0.1092832390271471  0.0523348358812820
  0.9565727019378111  0.2203045406114943  0.0514876790205748
  0.8571004379260783  0.2758050659288918  0.0539790137249635
  0.0569786500779731  0.3870713658561846  0.0476794133773756
  0.1559304323996078  0.4435152003861265  0.0478016387113907
  0.1557792288026836  0.5548583081032930  0.0474134550098433
  0.0571767058015209  0.6100593530485177  0.0463885783568113
  0.2557533914817745  0.3893251537693778  0.0502820013937659
  0.3547422999673042  0.4464284940901421  0.0533901368254785
  0.3536519759738373  0.5591060820156065  0.0548761137894912
  0.2543538452064139  0.6121247957151672  0.0505378595686123
  0.7596721192854452  0.4436556814284478  0.0578198335175336
  0.8581160931956333  0.3869401732059382  0.0518260975280559
  0.9576191457784013  0.4424590212504594  0.0478372428240126
  0.9584293922480975  0.5531953627300612  0.0468831759974046
  0.8592563695492829  0.6077063411973439  0.0491556857010551
  0.0568038716969049  0.7217807362511869  0.0472857903216561
  0.1550923453557398  0.7783507905888918  0.0492599103740857
  0.1554920218581161  0.8894531966235689  0.0506639303973349
  0.0555476476095555  0.9442683644000223  0.0503602421093092
  0.2538037992550830  0.7227796694859578  0.0514285644934961
  0.3526467932666459  0.7775034396458944  0.0562619359692121
  0.3546778807740094  0.8889566413073375  0.0573345670964440
  0.2556456121997276  0.9449236471776691  0.0537024621653599
  0.4499068350093808  0.7199271905651189  0.0630124297110830
  0.5519876230068581  0.8823822698355347  0.0658440071103918
  0.4552888744079979  0.9431452003268261  0.0615501230169063
  0.7548076777839097  0.8824946986789985  0.0574183892099240
  0.6538494406115326  0.9384524256280680  0.0629629466435399
  0.8593699722295953  0.7205925016074125  0.0492805790748511
  0.9575992532127562  0.7770995986814961  0.0482174556818772
  0.9556299087936257  0.8880792006035353  0.0502699290038539
  0.8544374726669307  0.9415366664422210  0.0538618866818624
  0.4541536219212301  0.3938818083243024  0.0578779371592488
  0.7595193713338918  0.5551581703757450  0.0562394675298870
  0.7591938780034218  0.7713209733762020  0.0544474414953478
  0.6633222535981936  0.3897669775334384  0.0673486291791189
  0.5457775571560657  0.7734438405314724  0.0707294609629720
  0.4502090472813541  0.6112262301142671  0.0623591630417214
  0.6547125204299931  0.6644163639204679  0.0779603871995192
  0.5594624911058252  0.4942395270791118  0.0758120671208420
  0.6155003219210214  0.5727769891137100  0.1322397780932614
 
  0.00000000E+00  0.00000000E+00  0.00000000E+00
  0.00000000E+00  0.00000000E+00  0.00000000E+00
  0.00000000E+00  0.00000000E+00  0.00000000E+00
  0.00000000E+00  0.00000000E+00  0.00000000E+00
  0.00000000E+00  0.00000000E+00  0.00000000E+00
  0.00000000E+00  0.00000000E+00  0.00000000E+00
  0.00000000E+00  0.00000000E+00  0.00000000E+00
  0.00000000E+00  0.00000000E+00  0.00000000E+00
  0.00000000E+00  0.00000000E+00  0.00000000E+00
  0.00000000E+00  0.00000000E+00  0.00000000E+00
  0.00000000E+00  0.00000000E+00  0.00000000E+00
  0.00000000E+00  0.00000000E+00  0.00000000E+00
  0.00000000E+00  0.00000000E+00  0.00000000E+00
  0.00000000E+00  0.00000000E+00  0.00000000E+00
  0.00000000E+00  0.00000000E+00  0.00000000E+00
  0.00000000E+00  0.00000000E+00  0.00000000E+00
  0.00000000E+00  0.00000000E+00  0.00000000E+00
  0.00000000E+00  0.00000000E+00  0.00000000E+00
  0.00000000E+00  0.00000000E+00  0.00000000E+00
  0.00000000E+00  0.00000000E+00  0.00000000E+00
  0.00000000E+00  0.00000000E+00  0.00000000E+00
  0.00000000E+00  0.00000000E+00  0.00000000E+00
  0.00000000E+00  0.00000000E+00  0.00000000E+00
  0.00000000E+00  0.00000000E+00  0.00000000E+00
  0.00000000E+00  0.00000000E+00  0.00000000E+00
  0.00000000E+00  0.00000000E+00  0.00000000E+00
  0.00000000E+00  0.00000000E+00  0.00000000E+00
  0.00000000E+00  0.00000000E+00  0.00000000E+00
  0.00000000E+00  0.00000000E+00  0.00000000E+00
  0.00000000E+00  0.00000000E+00  0.00000000E+00
  0.00000000E+00  0.00000000E+00  0.00000000E+00
  0.00000000E+00  0.00000000E+00  0.00000000E+00
  0.00000000E+00  0.00000000E+00  0.00000000E+00
  0.00000000E+00  0.00000000E+00  0.00000000E+00
  0.00000000E+00  0.00000000E+00  0.00000000E+00
  0.00000000E+00  0.00000000E+00  0.00000000E+00
  0.00000000E+00  0.00000000E+00  0.00000000E+00
  0.00000000E+00  0.00000000E+00  0.00000000E+00
  0.00000000E+00  0.00000000E+00  0.00000000E+00
  0.00000000E+00  0.00000000E+00  0.00000000E+00
  0.00000000E+00  0.00000000E+00  0.00000000E+00
  0.00000000E+00  0.00000000E+00  0.00000000E+00
  0.00000000E+00  0.00000000E+00  0.00000000E+00
  0.00000000E+00  0.00000000E+00  0.00000000E+00
  0.00000000E+00  0.00000000E+00  0.00000000E+00
  0.00000000E+00  0.00000000E+00  0.00000000E+00
  0.00000000E+00  0.00000000E+00  0.00000000E+00
  0.00000000E+00  0.00000000E+00  0.00000000E+00
  0.00000000E+00  0.00000000E+00  0.00000000E+00
  0.00000000E+00  0.00000000E+00  0.00000000E+00
  0.00000000E+00  0.00000000E+00  0.00000000E+00
  0.00000000E+00  0.00000000E+00  0.00000000E+00
  0.00000000E+00  0.00000000E+00  0.00000000E+00
  0.00000000E+00  0.00000000E+00  0.00000000E+00
  0.00000000E+00  0.00000000E+00  0.00000000E+00
  0.00000000E+00  0.00000000E+00  0.00000000E+00
  0.00000000E+00  0.00000000E+00  0.00000000E+00
  0.00000000E+00  0.00000000E+00  0.00000000E+00
  0.00000000E+00  0.00000000E+00  0.00000000E+00
