CONTCAR\(3)                             
   1.00000000000000     
    12.3312997818000003    0.0000000000000000    0.0000000000000000
     0.0001127485000000   12.8291997905000006    0.0000000000000000
     0.0005937186000000    0.0011528207000000   19.9943999824000009
   C    N    Fe   Ni   H 
    52     4     1     1     1
Direct
  0.0559628613975049  0.0542092751860526  0.0511966807125040
  0.1563513042345826  0.1096213060817978  0.0518047511365564
  0.1561046444400707  0.2202583722887790  0.0499884382519525
  0.0563289195007242  0.2758961411296986  0.0480395967403356
  0.2571581660225242  0.0552813116340012  0.0548287065300832
  0.3572997334875229  0.1115445759414196  0.0578024670959381
  0.3567268891548135  0.2233483559954083  0.0566718314424364
  0.2555934618741491  0.2760470855284041  0.0516189939690106
  0.4576034470165312  0.0564121246451191  0.0618087507353146
  0.5573691267630180  0.1146912674256260  0.0631180559053457
  0.5577236254488718  0.2291272015852898  0.0635033217129985
  0.4549732931922250  0.2839075321371111  0.0607148654212046
  0.6563671916580546  0.0541562808747762  0.0618385496004846
  0.7555499835962236  0.1112017589280096  0.0578466186063880
  0.7565317168015629  0.2237485930173468  0.0577464602127173
  0.6597565873463511  0.2858436178046900  0.0630868997179584
  0.8549942143447775  0.0540065235740379  0.0543372453740625
  0.9556727497901006  0.1092084878228594  0.0517731136193304
  0.9564559969064091  0.2206225121491932  0.0503841964000707
  0.8572976539814857  0.2772662141250868  0.0527020716811476
  0.0569222778197168  0.3870880472905233  0.0457455071662095
  0.1554575162537933  0.4433264316513716  0.0461733663453210
  0.1556002579307887  0.5543733079079366  0.0462414997362733
  0.0570023757489205  0.6106396700836303  0.0449045714660358
  0.2541445348517769  0.3866726791338759  0.0497485748569738
  0.3519858641615949  0.4412271096181457  0.0552753448600956
  0.3524946115966041  0.5533771556478136  0.0578767979173315
  0.2544106760015625  0.6099393233405463  0.0515135714691333
  0.7623020317810706  0.4462932227234702  0.0566707640786792
  0.8595193594202341  0.3882785377595667  0.0504230938264409
  0.9583495770799273  0.4433697476284498  0.0459802228832033
  0.9583360854107963  0.5544928036599766  0.0453031908893885
  0.8586366615439780  0.6080876067571054  0.0487753685290967
  0.0565267121034265  0.7214300011561940  0.0467502507784474
  0.1556922838712234  0.7773713282997787  0.0498530409363180
  0.1564450524902625  0.8883041006817138  0.0515341309816249
  0.0560104916256771  0.9432878116067682  0.0506415466132353
  0.2547784729670643  0.7212487680468225  0.0532361278016654
  0.3538158179389907  0.7762256338574083  0.0599908338340937
  0.3562180505724712  0.8880344576588349  0.0598274243469196
  0.2567106116460300  0.9438216381404163  0.0551847216211313
  0.4513211229568778  0.7177512642711310  0.0693526574631447
  0.5554254358690868  0.8847579880148999  0.0680465431217520
  0.4567338183389639  0.9439318652636258  0.0637459349911089
  0.7565737867921288  0.8826354379597017  0.0574210992682798
  0.6563336888936863  0.9405492555195256  0.0631150849966202
  0.8574215395013153  0.7211775833098721  0.0496869371464151
  0.9566304524214236  0.7764710511459034  0.0482368177934183
  0.9561929468791097  0.8878171915083344  0.0504302896371016
  0.8552455659089211  0.9417688719338937  0.0537359436893885
  0.4509624351859273  0.6054358433752680  0.0694638780245584
  0.5507170799184220  0.7743705256953257  0.0746554792914411
  0.4491644379160200  0.3913084019178905  0.0609908240816444
  0.6660408252160336  0.3946038657537554  0.0665239637934769
  0.7631044249679161  0.5539035945919953  0.0546076425182563
  0.7594526531803188  0.7734670899650470  0.0549974200219090
  0.6508049342555073  0.6665358098439268  0.0714487688553349
  0.5558054741564574  0.4994757672155396  0.0784858334603786
  0.6063785598684522  0.5775005761893397  0.1286933120423496
 
  0.00000000E+00  0.00000000E+00  0.00000000E+00
  0.00000000E+00  0.00000000E+00  0.00000000E+00
  0.00000000E+00  0.00000000E+00  0.00000000E+00
  0.00000000E+00  0.00000000E+00  0.00000000E+00
  0.00000000E+00  0.00000000E+00  0.00000000E+00
  0.00000000E+00  0.00000000E+00  0.00000000E+00
  0.00000000E+00  0.00000000E+00  0.00000000E+00
  0.00000000E+00  0.00000000E+00  0.00000000E+00
  0.00000000E+00  0.00000000E+00  0.00000000E+00
  0.00000000E+00  0.00000000E+00  0.00000000E+00
  0.00000000E+00  0.00000000E+00  0.00000000E+00
  0.00000000E+00  0.00000000E+00  0.00000000E+00
  0.00000000E+00  0.00000000E+00  0.00000000E+00
  0.00000000E+00  0.00000000E+00  0.00000000E+00
  0.00000000E+00  0.00000000E+00  0.00000000E+00
  0.00000000E+00  0.00000000E+00  0.00000000E+00
  0.00000000E+00  0.00000000E+00  0.00000000E+00
  0.00000000E+00  0.00000000E+00  0.00000000E+00
  0.00000000E+00  0.00000000E+00  0.00000000E+00
  0.00000000E+00  0.00000000E+00  0.00000000E+00
  0.00000000E+00  0.00000000E+00  0.00000000E+00
  0.00000000E+00  0.00000000E+00  0.00000000E+00
  0.00000000E+00  0.00000000E+00  0.00000000E+00
  0.00000000E+00  0.00000000E+00  0.00000000E+00
  0.00000000E+00  0.00000000E+00  0.00000000E+00
  0.00000000E+00  0.00000000E+00  0.00000000E+00
  0.00000000E+00  0.00000000E+00  0.00000000E+00
  0.00000000E+00  0.00000000E+00  0.00000000E+00
  0.00000000E+00  0.00000000E+00  0.00000000E+00
  0.00000000E+00  0.00000000E+00  0.00000000E+00
  0.00000000E+00  0.00000000E+00  0.00000000E+00
  0.00000000E+00  0.00000000E+00  0.00000000E+00
  0.00000000E+00  0.00000000E+00  0.00000000E+00
  0.00000000E+00  0.00000000E+00  0.00000000E+00
  0.00000000E+00  0.00000000E+00  0.00000000E+00
  0.00000000E+00  0.00000000E+00  0.00000000E+00
  0.00000000E+00  0.00000000E+00  0.00000000E+00
  0.00000000E+00  0.00000000E+00  0.00000000E+00
  0.00000000E+00  0.00000000E+00  0.00000000E+00
  0.00000000E+00  0.00000000E+00  0.00000000E+00
  0.00000000E+00  0.00000000E+00  0.00000000E+00
  0.00000000E+00  0.00000000E+00  0.00000000E+00
  0.00000000E+00  0.00000000E+00  0.00000000E+00
  0.00000000E+00  0.00000000E+00  0.00000000E+00
  0.00000000E+00  0.00000000E+00  0.00000000E+00
  0.00000000E+00  0.00000000E+00  0.00000000E+00
  0.00000000E+00  0.00000000E+00  0.00000000E+00
  0.00000000E+00  0.00000000E+00  0.00000000E+00
  0.00000000E+00  0.00000000E+00  0.00000000E+00
  0.00000000E+00  0.00000000E+00  0.00000000E+00
  0.00000000E+00  0.00000000E+00  0.00000000E+00
  0.00000000E+00  0.00000000E+00  0.00000000E+00
  0.00000000E+00  0.00000000E+00  0.00000000E+00
  0.00000000E+00  0.00000000E+00  0.00000000E+00
  0.00000000E+00  0.00000000E+00  0.00000000E+00
  0.00000000E+00  0.00000000E+00  0.00000000E+00
  0.00000000E+00  0.00000000E+00  0.00000000E+00
  0.00000000E+00  0.00000000E+00  0.00000000E+00
  0.00000000E+00  0.00000000E+00  0.00000000E+00
