CONTCAR\(2)\(3)                         
   1.00000000000000     
    12.3312997818000003    0.0000000000000000    0.0000000000000000
     0.0001127485000000   12.8291997905000006    0.0000000000000000
     0.0005937186000000    0.0011528207000000   19.9943999824000009
   C    N    Fe   Ni   O 
    54     2     1     1     2
Direct
  0.0571501460405585  0.0556549927478820  0.0484982127482733
  0.1573002880854235  0.1106736306889641  0.0488161060764609
  0.1567828737454017  0.2215967072557125  0.0481800306065239
  0.0566188628104253  0.2771760327163562  0.0473502132517680
  0.2579973740498799  0.0555035328105414  0.0506179798821914
  0.3582924888386668  0.1115087068648859  0.0528623518149967
  0.3579397929532295  0.2236321747182889  0.0524509041454168
  0.2565614851099560  0.2770869334459000  0.0494455692012286
  0.4580377863164006  0.0551359698315629  0.0558662928840634
  0.5580780567700659  0.1127493961207466  0.0578617008807919
  0.5578684133614372  0.2251720635961813  0.0584191405873056
  0.4576373672762223  0.2825499620913588  0.0557293436974552
  0.6575367110854549  0.0535171002570424  0.0573420531223334
  0.7567538501381733  0.1105073653028544  0.0540912783007937
  0.7575952350667067  0.2225005301207768  0.0542707417679085
  0.6595415685523999  0.2817684196462312  0.0587387705970869
  0.8565859618232781  0.0551048765647365  0.0511368309443559
  0.9568290148694222  0.1106120671727340  0.0491126434687881
  0.9570167564531538  0.2217180219282912  0.0485855487918098
  0.8571921429281347  0.2775926073475480  0.0507706370217510
  0.0554964958398653  0.3886288020841449  0.0467177357247764
  0.1541767127106538  0.4440095403544629  0.0470478312649081
  0.1538298101011772  0.5554188868795376  0.0470383242240045
  0.0547406525389717  0.6111029055138811  0.0467934672919662
  0.2537173581601019  0.3877815248627010  0.0488359784552487
  0.3513190925425723  0.4439890029566798  0.0518281203313824
  0.3513733737018954  0.5557238570076592  0.0533464602548020
  0.2531034292634828  0.6115491235115432  0.0493499477701174
  0.7575912087971483  0.4447282508299166  0.0564466632062291
  0.8571046630466935  0.3890680186053248  0.0505511777100984
  0.9559895445212775  0.4449617175778008  0.0476333316261361
  0.9550693794328036  0.5558297339539986  0.0477131414431896
  0.8537922649167007  0.6108591123943696  0.0510000015236972
  0.0564214108846493  0.7225108814305935  0.0473553492560030
  0.1557679004951559  0.7781211300843286  0.0481283765481378
  0.1570758271652813  0.8892528944246910  0.0487571857234179
  0.0572924353893350  0.9447953939007644  0.0483722441485767
  0.2550808311096367  0.7222061306831936  0.0497242637591849
  0.3555710973898253  0.7755055428018583  0.0534507675875995
  0.3574962671850285  0.8873271367342399  0.0536388938151318
  0.2577842749181549  0.9441154528093284  0.0507238236811289
  0.4542262430849056  0.7161490970501154  0.0602838900302981
  0.5572365425930329  0.8832618581284273  0.0614561490494649
  0.4577851637741454  0.9426487510381342  0.0567837452110222
  0.7584883212741934  0.8857144355584694  0.0551142588129687
  0.6576631426940882  0.9410052338431333  0.0588567627706723
  0.8576600113957609  0.7245127433815998  0.0507454726323387
  0.9574361874335325  0.7786225011225490  0.0485146138534593
  0.9575156168213761  0.8894817966479692  0.0489509753152872
  0.8570668930832422  0.9436394077166769  0.0511476979327058
  0.4520907151617728  0.3939343933788882  0.0555736601803420
  0.7537246975982796  0.5579388400395776  0.0582415146137344
  0.5527325930854526  0.7728238033048469  0.0678445796918938
  0.4522042905134226  0.6044448062637481  0.0609242038913409
  0.6631066452495663  0.3880533164648239  0.0616612138823032
  0.7616454322170276  0.7774984249340237  0.0555130233234914
  0.6647414614486371  0.6795837463459421  0.0952371599736084
  0.5596889634192695  0.4945737071935797  0.0736366746378001
  0.5898985692164133  0.5207594099989977  0.1679533675321258
  0.6264281935510593  0.6212774099588698  0.1709716015280781
 
  0.00000000E+00  0.00000000E+00  0.00000000E+00
  0.00000000E+00  0.00000000E+00  0.00000000E+00
  0.00000000E+00  0.00000000E+00  0.00000000E+00
  0.00000000E+00  0.00000000E+00  0.00000000E+00
  0.00000000E+00  0.00000000E+00  0.00000000E+00
  0.00000000E+00  0.00000000E+00  0.00000000E+00
  0.00000000E+00  0.00000000E+00  0.00000000E+00
  0.00000000E+00  0.00000000E+00  0.00000000E+00
  0.00000000E+00  0.00000000E+00  0.00000000E+00
  0.00000000E+00  0.00000000E+00  0.00000000E+00
  0.00000000E+00  0.00000000E+00  0.00000000E+00
  0.00000000E+00  0.00000000E+00  0.00000000E+00
  0.00000000E+00  0.00000000E+00  0.00000000E+00
  0.00000000E+00  0.00000000E+00  0.00000000E+00
  0.00000000E+00  0.00000000E+00  0.00000000E+00
  0.00000000E+00  0.00000000E+00  0.00000000E+00
  0.00000000E+00  0.00000000E+00  0.00000000E+00
  0.00000000E+00  0.00000000E+00  0.00000000E+00
  0.00000000E+00  0.00000000E+00  0.00000000E+00
  0.00000000E+00  0.00000000E+00  0.00000000E+00
  0.00000000E+00  0.00000000E+00  0.00000000E+00
  0.00000000E+00  0.00000000E+00  0.00000000E+00
  0.00000000E+00  0.00000000E+00  0.00000000E+00
  0.00000000E+00  0.00000000E+00  0.00000000E+00
  0.00000000E+00  0.00000000E+00  0.00000000E+00
  0.00000000E+00  0.00000000E+00  0.00000000E+00
  0.00000000E+00  0.00000000E+00  0.00000000E+00
  0.00000000E+00  0.00000000E+00  0.00000000E+00
  0.00000000E+00  0.00000000E+00  0.00000000E+00
  0.00000000E+00  0.00000000E+00  0.00000000E+00
  0.00000000E+00  0.00000000E+00  0.00000000E+00
  0.00000000E+00  0.00000000E+00  0.00000000E+00
  0.00000000E+00  0.00000000E+00  0.00000000E+00
  0.00000000E+00  0.00000000E+00  0.00000000E+00
  0.00000000E+00  0.00000000E+00  0.00000000E+00
  0.00000000E+00  0.00000000E+00  0.00000000E+00
  0.00000000E+00  0.00000000E+00  0.00000000E+00
  0.00000000E+00  0.00000000E+00  0.00000000E+00
  0.00000000E+00  0.00000000E+00  0.00000000E+00
  0.00000000E+00  0.00000000E+00  0.00000000E+00
  0.00000000E+00  0.00000000E+00  0.00000000E+00
  0.00000000E+00  0.00000000E+00  0.00000000E+00
  0.00000000E+00  0.00000000E+00  0.00000000E+00
  0.00000000E+00  0.00000000E+00  0.00000000E+00
  0.00000000E+00  0.00000000E+00  0.00000000E+00
  0.00000000E+00  0.00000000E+00  0.00000000E+00
  0.00000000E+00  0.00000000E+00  0.00000000E+00
  0.00000000E+00  0.00000000E+00  0.00000000E+00
  0.00000000E+00  0.00000000E+00  0.00000000E+00
  0.00000000E+00  0.00000000E+00  0.00000000E+00
  0.00000000E+00  0.00000000E+00  0.00000000E+00
  0.00000000E+00  0.00000000E+00  0.00000000E+00
  0.00000000E+00  0.00000000E+00  0.00000000E+00
  0.00000000E+00  0.00000000E+00  0.00000000E+00
  0.00000000E+00  0.00000000E+00  0.00000000E+00
  0.00000000E+00  0.00000000E+00  0.00000000E+00
  0.00000000E+00  0.00000000E+00  0.00000000E+00
  0.00000000E+00  0.00000000E+00  0.00000000E+00
  0.00000000E+00  0.00000000E+00  0.00000000E+00
  0.00000000E+00  0.00000000E+00  0.00000000E+00
