POSCAR\(2)                              
   1.00000000000000     
    12.3312997818000003    0.0000000000000000    0.0000000000000000
     0.0001127485000000   12.8291997905000006    0.0000000000000000
     0.0005937186000000    0.0011528207000000   19.9943999824000009
   C    N    Fe   Ni   O    H 
    52     4     1     1     2     2
Direct
  0.0545946784322759  0.0522204332755832  0.0477226121773004
  0.1548658419040295  0.1074278476527219  0.0470940522402182
  0.1542322246222770  0.2184811163328293  0.0462115402625299
  0.0540925280160139  0.2741587742921350  0.0467059926236983
  0.2555409148855083  0.0522428746289313  0.0479335999678313
  0.3558055639153395  0.1082987493772600  0.0507040576924977
  0.3548321482397988  0.2205427926268779  0.0497507780926991
  0.2538327374831271  0.2741711484188303  0.0458913027084312
  0.4557647899544420  0.0520310438930979  0.0548482265877069
  0.5547430109846667  0.1104898732364952  0.0589117789916244
  0.5545053264842682  0.2243504127738118  0.0590279240743854
  0.4532244512821252  0.2807245554816870  0.0535289546649025
  0.6540264613369096  0.0505320376488853  0.0608723611633260
  0.7536595160074419  0.1077965498368297  0.0580321192359495
  0.7545712816499764  0.2198427174932591  0.0584474195663522
  0.6562025427653536  0.2801520803657657  0.0619107681626996
  0.8537959878063019  0.0522614972570594  0.0538048434559933
  0.9541669717310685  0.1073835618402664  0.0503999060688253
  0.9545116967025149  0.2184364180722370  0.0502520009180234
  0.8548907162598306  0.2742551163252303  0.0542703685163441
  0.0536111472808318  0.3854680805483651  0.0446967241594834
  0.1525741953823492  0.4410290669424797  0.0416908183698021
  0.1519277965199492  0.5519868395579061  0.0404399009681256
  0.0522693944168949  0.6079802285918535  0.0416445076623521
  0.2523111052458817  0.3851845259182592  0.0430571452193299
  0.3514835826380555  0.4397713070021952  0.0447535525530660
  0.3516561486865466  0.5526440199895110  0.0438704155803333
  0.2515939419117008  0.6074730764903343  0.0410632400381223
  0.7572922942056787  0.4415370846167981  0.0611113404047350
  0.8559425645567168  0.3853927775241013  0.0539320632428655
  0.9539849883860719  0.4416963251943524  0.0475272941670704
  0.9520889542907660  0.5529557368837219  0.0457200893294175
  0.8508706550960902  0.6080206457870453  0.0516471139859554
  0.0537335229694779  0.7191024348664771  0.0417324615617491
  0.1534057075636463  0.7746745166687327  0.0418070510100325
  0.1548154046916472  0.8857945987042672  0.0443122047866503
  0.0547846790928751  0.9414180850398275  0.0462076678272815
  0.2528841563186731  0.7184702373913063  0.0421896167476185
  0.3533439096760146  0.7718359690770301  0.0471635029205947
  0.3553523158840775  0.8838499399184865  0.0494868385986248
  0.2554149545332904  0.9405511616599536  0.0467731750153019
  0.4514708312165593  0.7117273517327228  0.0535060818580908
  0.5536550090961196  0.8785829800883370  0.0627578821131095
  0.4555868950349526  0.9390350383488363  0.0551383564047969
  0.7563553194809964  0.8825566812868306  0.0602646206645157
  0.6541859700811945  0.9373948984650903  0.0634040908735941
  0.8550153894555381  0.7214845200048887  0.0517761346869605
  0.9544246143020215  0.7753400230770455  0.0455538709674009
  0.9547757740865546  0.8862350316690161  0.0479540235845451
  0.8545228001643648  0.9407454112106548  0.0532521636245197
  0.7518389260383864  0.5531588861312022  0.0618430845116357
  0.5495528175570034  0.7664131454463667  0.0678720846265789
  0.4483391878033597  0.3886887842113296  0.0511989713974784
  0.4485518924852553  0.6028191743327342  0.0491341281699458
  0.6613270084409244  0.3868174729550118  0.0655596103994028
  0.7609677810468477  0.7753668891759732  0.0629643414041314
  0.6630794561527902  0.6827018872723004  0.1098099530940289
  0.5573664281654187  0.4919545456884176  0.0665056106526827
  0.5776385505274686  0.5817424161545366  0.1554926523409077
  0.7484689671235888  0.7069898742736375  0.1849113088247004
  0.7247112698567892  0.6576830461010004  0.2191501738767806
  0.5075241290733634  0.6083757121712484  0.1703535616043449
 
  0.00000000E+00  0.00000000E+00  0.00000000E+00
  0.00000000E+00  0.00000000E+00  0.00000000E+00
  0.00000000E+00  0.00000000E+00  0.00000000E+00
  0.00000000E+00  0.00000000E+00  0.00000000E+00
  0.00000000E+00  0.00000000E+00  0.00000000E+00
  0.00000000E+00  0.00000000E+00  0.00000000E+00
  0.00000000E+00  0.00000000E+00  0.00000000E+00
  0.00000000E+00  0.00000000E+00  0.00000000E+00
  0.00000000E+00  0.00000000E+00  0.00000000E+00
  0.00000000E+00  0.00000000E+00  0.00000000E+00
  0.00000000E+00  0.00000000E+00  0.00000000E+00
  0.00000000E+00  0.00000000E+00  0.00000000E+00
  0.00000000E+00  0.00000000E+00  0.00000000E+00
  0.00000000E+00  0.00000000E+00  0.00000000E+00
  0.00000000E+00  0.00000000E+00  0.00000000E+00
  0.00000000E+00  0.00000000E+00  0.00000000E+00
  0.00000000E+00  0.00000000E+00  0.00000000E+00
  0.00000000E+00  0.00000000E+00  0.00000000E+00
  0.00000000E+00  0.00000000E+00  0.00000000E+00
  0.00000000E+00  0.00000000E+00  0.00000000E+00
  0.00000000E+00  0.00000000E+00  0.00000000E+00
  0.00000000E+00  0.00000000E+00  0.00000000E+00
  0.00000000E+00  0.00000000E+00  0.00000000E+00
  0.00000000E+00  0.00000000E+00  0.00000000E+00
  0.00000000E+00  0.00000000E+00  0.00000000E+00
  0.00000000E+00  0.00000000E+00  0.00000000E+00
  0.00000000E+00  0.00000000E+00  0.00000000E+00
  0.00000000E+00  0.00000000E+00  0.00000000E+00
  0.00000000E+00  0.00000000E+00  0.00000000E+00
  0.00000000E+00  0.00000000E+00  0.00000000E+00
  0.00000000E+00  0.00000000E+00  0.00000000E+00
  0.00000000E+00  0.00000000E+00  0.00000000E+00
  0.00000000E+00  0.00000000E+00  0.00000000E+00
  0.00000000E+00  0.00000000E+00  0.00000000E+00
  0.00000000E+00  0.00000000E+00  0.00000000E+00
  0.00000000E+00  0.00000000E+00  0.00000000E+00
  0.00000000E+00  0.00000000E+00  0.00000000E+00
  0.00000000E+00  0.00000000E+00  0.00000000E+00
  0.00000000E+00  0.00000000E+00  0.00000000E+00
  0.00000000E+00  0.00000000E+00  0.00000000E+00
  0.00000000E+00  0.00000000E+00  0.00000000E+00
  0.00000000E+00  0.00000000E+00  0.00000000E+00
  0.00000000E+00  0.00000000E+00  0.00000000E+00
  0.00000000E+00  0.00000000E+00  0.00000000E+00
  0.00000000E+00  0.00000000E+00  0.00000000E+00
  0.00000000E+00  0.00000000E+00  0.00000000E+00
  0.00000000E+00  0.00000000E+00  0.00000000E+00
  0.00000000E+00  0.00000000E+00  0.00000000E+00
  0.00000000E+00  0.00000000E+00  0.00000000E+00
  0.00000000E+00  0.00000000E+00  0.00000000E+00
  0.00000000E+00  0.00000000E+00  0.00000000E+00
  0.00000000E+00  0.00000000E+00  0.00000000E+00
  0.00000000E+00  0.00000000E+00  0.00000000E+00
  0.00000000E+00  0.00000000E+00  0.00000000E+00
  0.00000000E+00  0.00000000E+00  0.00000000E+00
  0.00000000E+00  0.00000000E+00  0.00000000E+00
  0.00000000E+00  0.00000000E+00  0.00000000E+00
  0.00000000E+00  0.00000000E+00  0.00000000E+00
  0.00000000E+00  0.00000000E+00  0.00000000E+00
  0.00000000E+00  0.00000000E+00  0.00000000E+00
  0.00000000E+00  0.00000000E+00  0.00000000E+00
  0.00000000E+00  0.00000000E+00  0.00000000E+00
