CONTCAR\(3)                             
   1.00000000000000     
    12.3312997818000003    0.0000000000000000    0.0000000000000000
     0.0001127485000000   12.8291997905000006    0.0000000000000000
     0.0005937186000000    0.0011528207000000   19.9943999824000009
   C    N    Fe   Ni   O    H 
    54     2     1     1     2     2
Direct
  0.0588834308878088  0.0509635993666856  0.0506971090851858
  0.1592459858567193  0.1059797651664922  0.0498382685549908
  0.1590041860340492  0.2170999670482509  0.0488023676522251
  0.0586128355189927  0.2724017022591583  0.0490436348359889
  0.2599033587343555  0.0506209356692955  0.0511733505340848
  0.3601744191729011  0.1065971676528554  0.0542981501592379
  0.3599198685258574  0.2188372026598795  0.0532559662647307
  0.2588831530409424  0.2729569980848988  0.0490141884838340
  0.4599179450659946  0.0503765201195223  0.0590320009336080
  0.5593402730075078  0.1082102277696034  0.0633185417900625
  0.5593987412644313  0.2205657805365072  0.0633597303039234
  0.4594703636000286  0.2772715844451170  0.0575067482931490
  0.6585450425066823  0.0494062511591099  0.0653108208075100
  0.7583028608261175  0.1062175114795469  0.0621583793210912
  0.7591514492912272  0.2182532456410908  0.0617959193854890
  0.6606657723618750  0.2775404902577802  0.0657698015918773
  0.8583909529338343  0.0507717435481926  0.0578245202134949
  0.9585150658855539  0.1062182185068966  0.0534742013811089
  0.9587746783879622  0.2171631565235320  0.0527142820145177
  0.8588732032075955  0.2731176793234434  0.0566539708753626
  0.0578237728195658  0.3835712658540033  0.0471405554665777
  0.1567091141107714  0.4392642766886339  0.0454091126979295
  0.1563222541974041  0.5506276230366628  0.0445456227537270
  0.0570347040852704  0.6062363507999041  0.0449146844300645
  0.2567460130315558  0.3839841787785371  0.0471353386278942
  0.3553418596756592  0.4404378874278549  0.0496430557098738
  0.3547093882766828  0.5526254740873469  0.0506780689759758
  0.2554820271901036  0.6072084399863842  0.0463989566388275
  0.7591820498899654  0.4410790950122401  0.0623928942093434
  0.8587273573680949  0.3842994833145987  0.0554382288700438
  0.9579016374135735  0.4394538271468763  0.0491654654348050
  0.9572713230092722  0.5501511093940628  0.0476013269930113
  0.8567916353344551  0.6047400815597481  0.0529255654822530
  0.0583955158394863  0.7178077610226193  0.0454781912562775
  0.1578296609644654  0.7735745194639003  0.0460619397623446
  0.1589096908680523  0.8846770980062900  0.0479578954713488
  0.0587757207257537  0.9399816113151643  0.0496925072003253
  0.2574058914397648  0.7176612654731017  0.0473076162822634
  0.3585227069055026  0.7704879149192185  0.0521255336330567
  0.3598159764790891  0.8824711553639314  0.0535750561807044
  0.2597235099083462  0.9391525162366176  0.0503670685073675
  0.4565095972695454  0.7099113393534464  0.0593187175252620
  0.5582326300136294  0.8778931959580264  0.0664737335638470
  0.4597070267930952  0.9374728250541865  0.0593145989346944
  0.7596002936057181  0.8820499711691382  0.0656967788007056
  0.6583965390303381  0.9373269506253730  0.0678975745018706
  0.8598288899964459  0.7176567958704893  0.0548689923612986
  0.9586842477642068  0.7734301337964853  0.0492518047713606
  0.9587425738670050  0.8845000412710545  0.0520515398682975
  0.8585695516885539  0.9393340365899274  0.0579792218227084
  0.4553339510863472  0.3884981732359084  0.0552303001242898
  0.7562341189582031  0.5534384801872470  0.0613218734040931
  0.5558782203572418  0.7657303243139781  0.0704912871585354
  0.7627027733033240  0.7712325480177319  0.0692698275341432
  0.4514925778162901  0.6009774137690735  0.0585045770584340
  0.6638372743255407  0.3843312664417292  0.0687634959534465
  0.6633113709672299  0.6794147846156127  0.1119098921944894
  0.5582781083038606  0.4860659403016073  0.0763342963431160
  0.6106298302732288  0.5583543049565334  0.1594449632297097
  0.6622287993888093  0.7524645301006662  0.1893595963048066
  0.6744709978253171  0.8272742753222786  0.1837121322962550
  0.5584253337227968  0.5815198959439414  0.1930081581831591
 
  0.00000000E+00  0.00000000E+00  0.00000000E+00
  0.00000000E+00  0.00000000E+00  0.00000000E+00
  0.00000000E+00  0.00000000E+00  0.00000000E+00
  0.00000000E+00  0.00000000E+00  0.00000000E+00
  0.00000000E+00  0.00000000E+00  0.00000000E+00
  0.00000000E+00  0.00000000E+00  0.00000000E+00
  0.00000000E+00  0.00000000E+00  0.00000000E+00
  0.00000000E+00  0.00000000E+00  0.00000000E+00
  0.00000000E+00  0.00000000E+00  0.00000000E+00
  0.00000000E+00  0.00000000E+00  0.00000000E+00
  0.00000000E+00  0.00000000E+00  0.00000000E+00
  0.00000000E+00  0.00000000E+00  0.00000000E+00
  0.00000000E+00  0.00000000E+00  0.00000000E+00
  0.00000000E+00  0.00000000E+00  0.00000000E+00
  0.00000000E+00  0.00000000E+00  0.00000000E+00
  0.00000000E+00  0.00000000E+00  0.00000000E+00
  0.00000000E+00  0.00000000E+00  0.00000000E+00
  0.00000000E+00  0.00000000E+00  0.00000000E+00
  0.00000000E+00  0.00000000E+00  0.00000000E+00
  0.00000000E+00  0.00000000E+00  0.00000000E+00
  0.00000000E+00  0.00000000E+00  0.00000000E+00
  0.00000000E+00  0.00000000E+00  0.00000000E+00
  0.00000000E+00  0.00000000E+00  0.00000000E+00
  0.00000000E+00  0.00000000E+00  0.00000000E+00
  0.00000000E+00  0.00000000E+00  0.00000000E+00
  0.00000000E+00  0.00000000E+00  0.00000000E+00
  0.00000000E+00  0.00000000E+00  0.00000000E+00
  0.00000000E+00  0.00000000E+00  0.00000000E+00
  0.00000000E+00  0.00000000E+00  0.00000000E+00
  0.00000000E+00  0.00000000E+00  0.00000000E+00
  0.00000000E+00  0.00000000E+00  0.00000000E+00
  0.00000000E+00  0.00000000E+00  0.00000000E+00
  0.00000000E+00  0.00000000E+00  0.00000000E+00
  0.00000000E+00  0.00000000E+00  0.00000000E+00
  0.00000000E+00  0.00000000E+00  0.00000000E+00
  0.00000000E+00  0.00000000E+00  0.00000000E+00
  0.00000000E+00  0.00000000E+00  0.00000000E+00
  0.00000000E+00  0.00000000E+00  0.00000000E+00
  0.00000000E+00  0.00000000E+00  0.00000000E+00
  0.00000000E+00  0.00000000E+00  0.00000000E+00
  0.00000000E+00  0.00000000E+00  0.00000000E+00
  0.00000000E+00  0.00000000E+00  0.00000000E+00
  0.00000000E+00  0.00000000E+00  0.00000000E+00
  0.00000000E+00  0.00000000E+00  0.00000000E+00
  0.00000000E+00  0.00000000E+00  0.00000000E+00
  0.00000000E+00  0.00000000E+00  0.00000000E+00
  0.00000000E+00  0.00000000E+00  0.00000000E+00
  0.00000000E+00  0.00000000E+00  0.00000000E+00
  0.00000000E+00  0.00000000E+00  0.00000000E+00
  0.00000000E+00  0.00000000E+00  0.00000000E+00
  0.00000000E+00  0.00000000E+00  0.00000000E+00
  0.00000000E+00  0.00000000E+00  0.00000000E+00
  0.00000000E+00  0.00000000E+00  0.00000000E+00
  0.00000000E+00  0.00000000E+00  0.00000000E+00
  0.00000000E+00  0.00000000E+00  0.00000000E+00
  0.00000000E+00  0.00000000E+00  0.00000000E+00
  0.00000000E+00  0.00000000E+00  0.00000000E+00
  0.00000000E+00  0.00000000E+00  0.00000000E+00
  0.00000000E+00  0.00000000E+00  0.00000000E+00
  0.00000000E+00  0.00000000E+00  0.00000000E+00
  0.00000000E+00  0.00000000E+00  0.00000000E+00
  0.00000000E+00  0.00000000E+00  0.00000000E+00
