CONTCAR                                 
   1.00000000000000     
    12.3312997818000003    0.0000000000000000    0.0000000000000000
     0.0001127485000000   12.8291997905000006    0.0000000000000000
     0.0005937186000000    0.0011528207000000   19.9943999824000009
   C    N    Fe   Ni   O    H 
    55     1     1     1     2     2
Direct
  0.0558476025294104  0.0539922715234177  0.0452646361743422
  0.1560613522041931  0.1095674645741529  0.0453006135483673
  0.1565662001855405  0.2204351690578470  0.0453254697956674
  0.0563375847825296  0.2754863176165097  0.0454259266453918
  0.2561117059985277  0.0542340387507615  0.0465462485038303
  0.3563117605273275  0.1096717837028412  0.0489768860430966
  0.3567910489393420  0.2209362722294647  0.0494172325555171
  0.2568036448405930  0.2760891016517127  0.0468073253507194
  0.4559553711829906  0.0536336982368734  0.0518660532133562
  0.5561687950485691  0.1092779210405792  0.0545222025937987
  0.5564867551774259  0.2201867276045610  0.0563871282970396
  0.4568687654884453  0.2772795955603903  0.0543229706771289
  0.6555434195902750  0.0508028617461304  0.0545919747885996
  0.7553933320589764  0.1083700373398923  0.0522013105389608
  0.7558077924146348  0.2203499740916990  0.0529506096081676
  0.6561966504894111  0.2783016877758201  0.0577258269174271
  0.8552222573486158  0.0524324061186560  0.0490106656796330
  0.9553125962101767  0.1089063382392551  0.0466976557092128
  0.9557016312060835  0.2202171951254237  0.0468776329304987
  0.8556673357787541  0.2763567952067871  0.0498607130023049
  0.0572265392288050  0.3864887360324543  0.0454212374989409
  0.1571407875077145  0.4422942407891082  0.0455024649086971
  0.1585221848113041  0.5536128081851542  0.0455086178679938
  0.0586368592929743  0.6088280637313430  0.0450123843773455
  0.2572133155945337  0.3871407455463827  0.0470828361546371
  0.3572024869581093  0.4428964685890959  0.0513103343477268
  0.3599284123022081  0.5559128479779856  0.0527454336593186
  0.2583301337875712  0.6098696782613662  0.0477703032251578
  0.7562656975290591  0.4464923459524244  0.0569778952822975
  0.8562640532617595  0.3880185132906944  0.0504338049623006
  0.9571800763702759  0.4420103828166053  0.0471172004887494
  0.9590431230137210  0.5525395362769757  0.0468680753309619
  0.8597445889749129  0.6078144337216185  0.0510485992018620
  0.0580344438993703  0.7202019138594549  0.0447556557320448
  0.1566161300976989  0.7762483238063351  0.0450938290163185
  0.1558792286746464  0.8874824258102365  0.0450324172022340
  0.0558688487957056  0.9430565080996006  0.0449709550195416
  0.2562772881383950  0.7204907425814857  0.0473095404760098
  0.3546291151593605  0.7766047103243606  0.0501699353031969
  0.3550176840424126  0.8874836496701394  0.0493024411999649
  0.2554890815712033  0.9432943949789150  0.0464827517184260
  0.4544251709560796  0.7213738714758655  0.0563991372003274
  0.5531560398155104  0.8835763505922712  0.0563104449473988
  0.4548166552996483  0.9425134394307048  0.0522755462158439
  0.7553715711562768  0.8820669227541280  0.0536801640790676
  0.6551036246736469  0.9391565867852998  0.0558700127113317
  0.8604960065710696  0.7198732578213090  0.0498565797734650
  0.9585236262611356  0.7761868141414726  0.0459992546374578
  0.9562314297229582  0.8869429494884299  0.0461917273549863
  0.8551681783063407  0.9406349735946170  0.0489820377546661
  0.4553390618930583  0.3875668518913771  0.0572999172161923
  0.4593811935372950  0.6101518150565611  0.0608790963853631
  0.6578409446621563  0.3881111895357426  0.0633761299040837
  0.7588272354947306  0.5580910967788628  0.0589731302080677
  0.7608045033891461  0.7714314317102344  0.0556420025578651
  0.5490417644112163  0.7779652318465200  0.0591262467967769
  0.6534152544522622  0.6715867170833582  0.0856874409782017
  0.5529242530388341  0.4787328189565729  0.0968591728985494
  0.5603237598412802  0.5200033776852387  0.1814889197936584
  0.6565578951537252  0.7062210517958395  0.1766621499532558
  0.7266744463119377  0.6977207843152555  0.1984257228368950
  0.5843316870381078  0.5920433967658130  0.1921993692497742
 
  0.00000000E+00  0.00000000E+00  0.00000000E+00
  0.00000000E+00  0.00000000E+00  0.00000000E+00
  0.00000000E+00  0.00000000E+00  0.00000000E+00
  0.00000000E+00  0.00000000E+00  0.00000000E+00
  0.00000000E+00  0.00000000E+00  0.00000000E+00
  0.00000000E+00  0.00000000E+00  0.00000000E+00
  0.00000000E+00  0.00000000E+00  0.00000000E+00
  0.00000000E+00  0.00000000E+00  0.00000000E+00
  0.00000000E+00  0.00000000E+00  0.00000000E+00
  0.00000000E+00  0.00000000E+00  0.00000000E+00
  0.00000000E+00  0.00000000E+00  0.00000000E+00
  0.00000000E+00  0.00000000E+00  0.00000000E+00
  0.00000000E+00  0.00000000E+00  0.00000000E+00
  0.00000000E+00  0.00000000E+00  0.00000000E+00
  0.00000000E+00  0.00000000E+00  0.00000000E+00
  0.00000000E+00  0.00000000E+00  0.00000000E+00
  0.00000000E+00  0.00000000E+00  0.00000000E+00
  0.00000000E+00  0.00000000E+00  0.00000000E+00
  0.00000000E+00  0.00000000E+00  0.00000000E+00
  0.00000000E+00  0.00000000E+00  0.00000000E+00
  0.00000000E+00  0.00000000E+00  0.00000000E+00
  0.00000000E+00  0.00000000E+00  0.00000000E+00
  0.00000000E+00  0.00000000E+00  0.00000000E+00
  0.00000000E+00  0.00000000E+00  0.00000000E+00
  0.00000000E+00  0.00000000E+00  0.00000000E+00
  0.00000000E+00  0.00000000E+00  0.00000000E+00
  0.00000000E+00  0.00000000E+00  0.00000000E+00
  0.00000000E+00  0.00000000E+00  0.00000000E+00
  0.00000000E+00  0.00000000E+00  0.00000000E+00
  0.00000000E+00  0.00000000E+00  0.00000000E+00
  0.00000000E+00  0.00000000E+00  0.00000000E+00
  0.00000000E+00  0.00000000E+00  0.00000000E+00
  0.00000000E+00  0.00000000E+00  0.00000000E+00
  0.00000000E+00  0.00000000E+00  0.00000000E+00
  0.00000000E+00  0.00000000E+00  0.00000000E+00
  0.00000000E+00  0.00000000E+00  0.00000000E+00
  0.00000000E+00  0.00000000E+00  0.00000000E+00
  0.00000000E+00  0.00000000E+00  0.00000000E+00
  0.00000000E+00  0.00000000E+00  0.00000000E+00
  0.00000000E+00  0.00000000E+00  0.00000000E+00
  0.00000000E+00  0.00000000E+00  0.00000000E+00
  0.00000000E+00  0.00000000E+00  0.00000000E+00
  0.00000000E+00  0.00000000E+00  0.00000000E+00
  0.00000000E+00  0.00000000E+00  0.00000000E+00
  0.00000000E+00  0.00000000E+00  0.00000000E+00
  0.00000000E+00  0.00000000E+00  0.00000000E+00
  0.00000000E+00  0.00000000E+00  0.00000000E+00
  0.00000000E+00  0.00000000E+00  0.00000000E+00
  0.00000000E+00  0.00000000E+00  0.00000000E+00
  0.00000000E+00  0.00000000E+00  0.00000000E+00
  0.00000000E+00  0.00000000E+00  0.00000000E+00
  0.00000000E+00  0.00000000E+00  0.00000000E+00
  0.00000000E+00  0.00000000E+00  0.00000000E+00
  0.00000000E+00  0.00000000E+00  0.00000000E+00
  0.00000000E+00  0.00000000E+00  0.00000000E+00
  0.00000000E+00  0.00000000E+00  0.00000000E+00
  0.00000000E+00  0.00000000E+00  0.00000000E+00
  0.00000000E+00  0.00000000E+00  0.00000000E+00
  0.00000000E+00  0.00000000E+00  0.00000000E+00
  0.00000000E+00  0.00000000E+00  0.00000000E+00
  0.00000000E+00  0.00000000E+00  0.00000000E+00
  0.00000000E+00  0.00000000E+00  0.00000000E+00
