CONTCAR\(8)                             
   1.00000000000000     
    12.3312997818000003    0.0000000000000000    0.0000000000000000
     0.0001127485000000   12.8291997905000006    0.0000000000000000
     0.0005937186000000    0.0011528207000000   19.9943999824000009
   C    N    Fe   Ni   O    H 
    53     3     1     1     2     2
Direct
  0.0570191305576283  0.0514135543868406  0.0485684731267990
  0.1573280229051592  0.1067424048537264  0.0483503841166747
  0.1575741180044103  0.2177148103590203  0.0487433006168423
  0.0573921202885848  0.2728057716680928  0.0492953004669076
  0.2576857594689775  0.0516667604347167  0.0489893170785796
  0.3581620954988524  0.1071584712808909  0.0522687812059389
  0.3585387152615927  0.2189225073315859  0.0528702369628880
  0.2577838973707492  0.2732456373522735  0.0499003548476752
  0.4577505613754311  0.0509180134083556  0.0558768388025386
  0.5580520881505929  0.1067645455508104  0.0604058785648615
  0.5583421453177874  0.2189580198731061  0.0620936173127411
  0.4584463492181908  0.2763222069973776  0.0578319383981487
  0.6572785529049323  0.0472812188531046  0.0616965892995715
  0.7566269249197786  0.1054985991348255  0.0591824258771997
  0.7572396073482810  0.2180689019446192  0.0599144634865799
  0.6587540857787302  0.2770519346014057  0.0649399325515951
  0.8566107549287783  0.0503968173901380  0.0549701046618386
  0.9567395679890198  0.1063406136897026  0.0515550051711891
  0.9571296790165668  0.2176612820274893  0.0519858060312141
  0.8573011060457615  0.2734317673519455  0.0560532094154376
  0.0579406979434385  0.3840367018708070  0.0482694699767582
  0.1569726768145985  0.4397244997229102  0.0473306713533428
  0.1567596676774966  0.5512060468009180  0.0457465040296567
  0.0573439473620140  0.6066102443407471  0.0449513932447472
  0.2570404110735555  0.3843467743047100  0.0495693841479692
  0.3558479468805232  0.4403385300587814  0.0532768883234125
  0.3561586658489156  0.5534312718966995  0.0539641559754314
  0.2559991272165803  0.6074953965095155  0.0476162722033968
  0.7610412616576486  0.4443349121080056  0.0640108587465366
  0.8587331161842607  0.3852229641572351  0.0561282334395998
  0.9582819132496688  0.4398408889565870  0.0505195307105233
  0.9581549531401913  0.5507834018999802  0.0488699722540483
  0.8574893684952171  0.6044543846561907  0.0551983625506514
  0.0574410135313099  0.7178394545357318  0.0443334712760271
  0.1563428362478185  0.7738546191178081  0.0441082473112942
  0.1567827474469552  0.8851091089862798  0.0453517358069230
  0.0569650720298531  0.9403856270733013  0.0470219359906006
  0.2558120199255978  0.7181802197919867  0.0460911714684712
  0.3550704181156459  0.7733432100547697  0.0500270078553639
  0.3563106498434348  0.8844198852336431  0.0504812358407196
  0.2568010401388983  0.9405792329504179  0.0475438404224420
  0.4535965126504568  0.7169763573574097  0.0594102772343286
  0.5538703664094029  0.8787637757725210  0.0628134835788140
  0.4564434286418366  0.9390799355128582  0.0556720021015407
  0.7593168550995032  0.8790791931012384  0.0606256020166483
  0.6570107857230347  0.9340662798618595  0.0634264774079113
  0.8584998003287163  0.7192595910850690  0.0542340883215456
  0.9579994175395109  0.7732225332488293  0.0477080550060659
  0.9574279584653604  0.8844481135081835  0.0492694251182836
  0.8572248691861369  0.9386091436243443  0.0544955972135021
  0.4561054559557988  0.3879362047714421  0.0586759491998116
  0.4555960695881264  0.6055066739209043  0.0633374760561510
  0.6608789637553149  0.3876857448844968  0.0717302287714780
  0.7634911559547765  0.5526869650746002  0.0648237584074494
  0.5482683147244265  0.7727897521127021  0.0679058199086940
  0.7644848247672837  0.7716243769297539  0.0628883099808416
  0.6553560555711182  0.6770547385009773  0.1146495395098492
  0.5551770340883706  0.4851991528972159  0.0891341211482787
  0.6229877661979328  0.5491838668273348  0.1661067583881629
  0.6740200530294261  0.7504236995747312  0.1945610075004932
  0.7026221658454664  0.8211009058293521  0.1924048489287087
  0.5730272863045228  0.5703818560871428  0.2014048662782938
 
  0.00000000E+00  0.00000000E+00  0.00000000E+00
  0.00000000E+00  0.00000000E+00  0.00000000E+00
  0.00000000E+00  0.00000000E+00  0.00000000E+00
  0.00000000E+00  0.00000000E+00  0.00000000E+00
  0.00000000E+00  0.00000000E+00  0.00000000E+00
  0.00000000E+00  0.00000000E+00  0.00000000E+00
  0.00000000E+00  0.00000000E+00  0.00000000E+00
  0.00000000E+00  0.00000000E+00  0.00000000E+00
  0.00000000E+00  0.00000000E+00  0.00000000E+00
  0.00000000E+00  0.00000000E+00  0.00000000E+00
  0.00000000E+00  0.00000000E+00  0.00000000E+00
  0.00000000E+00  0.00000000E+00  0.00000000E+00
  0.00000000E+00  0.00000000E+00  0.00000000E+00
  0.00000000E+00  0.00000000E+00  0.00000000E+00
  0.00000000E+00  0.00000000E+00  0.00000000E+00
  0.00000000E+00  0.00000000E+00  0.00000000E+00
  0.00000000E+00  0.00000000E+00  0.00000000E+00
  0.00000000E+00  0.00000000E+00  0.00000000E+00
  0.00000000E+00  0.00000000E+00  0.00000000E+00
  0.00000000E+00  0.00000000E+00  0.00000000E+00
  0.00000000E+00  0.00000000E+00  0.00000000E+00
  0.00000000E+00  0.00000000E+00  0.00000000E+00
  0.00000000E+00  0.00000000E+00  0.00000000E+00
  0.00000000E+00  0.00000000E+00  0.00000000E+00
  0.00000000E+00  0.00000000E+00  0.00000000E+00
  0.00000000E+00  0.00000000E+00  0.00000000E+00
  0.00000000E+00  0.00000000E+00  0.00000000E+00
  0.00000000E+00  0.00000000E+00  0.00000000E+00
  0.00000000E+00  0.00000000E+00  0.00000000E+00
  0.00000000E+00  0.00000000E+00  0.00000000E+00
  0.00000000E+00  0.00000000E+00  0.00000000E+00
  0.00000000E+00  0.00000000E+00  0.00000000E+00
  0.00000000E+00  0.00000000E+00  0.00000000E+00
  0.00000000E+00  0.00000000E+00  0.00000000E+00
  0.00000000E+00  0.00000000E+00  0.00000000E+00
  0.00000000E+00  0.00000000E+00  0.00000000E+00
  0.00000000E+00  0.00000000E+00  0.00000000E+00
  0.00000000E+00  0.00000000E+00  0.00000000E+00
  0.00000000E+00  0.00000000E+00  0.00000000E+00
  0.00000000E+00  0.00000000E+00  0.00000000E+00
  0.00000000E+00  0.00000000E+00  0.00000000E+00
  0.00000000E+00  0.00000000E+00  0.00000000E+00
  0.00000000E+00  0.00000000E+00  0.00000000E+00
  0.00000000E+00  0.00000000E+00  0.00000000E+00
  0.00000000E+00  0.00000000E+00  0.00000000E+00
  0.00000000E+00  0.00000000E+00  0.00000000E+00
  0.00000000E+00  0.00000000E+00  0.00000000E+00
  0.00000000E+00  0.00000000E+00  0.00000000E+00
  0.00000000E+00  0.00000000E+00  0.00000000E+00
  0.00000000E+00  0.00000000E+00  0.00000000E+00
  0.00000000E+00  0.00000000E+00  0.00000000E+00
  0.00000000E+00  0.00000000E+00  0.00000000E+00
  0.00000000E+00  0.00000000E+00  0.00000000E+00
  0.00000000E+00  0.00000000E+00  0.00000000E+00
  0.00000000E+00  0.00000000E+00  0.00000000E+00
  0.00000000E+00  0.00000000E+00  0.00000000E+00
  0.00000000E+00  0.00000000E+00  0.00000000E+00
  0.00000000E+00  0.00000000E+00  0.00000000E+00
  0.00000000E+00  0.00000000E+00  0.00000000E+00
  0.00000000E+00  0.00000000E+00  0.00000000E+00
  0.00000000E+00  0.00000000E+00  0.00000000E+00
  0.00000000E+00  0.00000000E+00  0.00000000E+00
