126                                     
   1.00000000000000     
    12.3312997818000003    0.0000000000000000    0.0000000000000000
     0.0001127485000000   12.8291997905000006    0.0000000000000000
     0.0005937186000000    0.0011528207000000   19.9943999824000009
   C    N    Fe   Ni   O 
    53     3     1     1     1
Direct
  0.0562876488383885  0.0549597696582982  0.0526379558067375
  0.1566777161631005  0.1098973132953561  0.0518898828281442
  0.1559731270243909  0.2208379450760381  0.0503045998880936
  0.0558889519027747  0.2764730882433641  0.0494138194129269
  0.2573680646770801  0.0548897023403324  0.0532115608383336
  0.3575257297737619  0.1110078839508725  0.0555724227777962
  0.3564190742275998  0.2231495580925697  0.0546742480516894
  0.2553874596536732  0.2765505627866842  0.0506689257005555
  0.4576845277405728  0.0552159632046245  0.0589241222993694
  0.5562512424253417  0.1142175243431131  0.0616103805596542
  0.5561443626928146  0.2281388125366418  0.0621280828264734
  0.4545904203072217  0.2834896572508147  0.0583422458407664
  0.6552931886483661  0.0548087074521822  0.0623491298802168
  0.7551912204974821  0.1115229395363907  0.0600150564129907
  0.7559352660987457  0.2238209526719300  0.0594147528796922
  0.6576995002883120  0.2845278994817967  0.0630761719802187
  0.8552991344028525  0.0552116040485494  0.0572421078269930
  0.9556786214517602  0.1103200463941989  0.0540270365448775
  0.9559239781703860  0.2214315855573634  0.0524940593504267
  0.8563070248160625  0.2778784022906977  0.0549552451370527
  0.0558237319134221  0.3875487310623953  0.0469582212128001
  0.1546338305425762  0.4434259470765668  0.0459059155908825
  0.1549264284283186  0.5545370992198885  0.0455211967862068
  0.0561550539584808  0.6107585444966531  0.0460924293933509
  0.2538252110771810  0.3875278953338749  0.0482774864075146
  0.3524385456743628  0.4422995935402209  0.0513701070998236
  0.3529392104131907  0.5548785329594403  0.0512973214405690
  0.2540386280510327  0.6101440171195611  0.0475991417797705
  0.7580363417928806  0.4459696990629645  0.0576646716644061
  0.8572979957439318  0.3890532558884465  0.0528340195581105
  0.9565329156181273  0.4438600581908361  0.0479223131501496
  0.9569886812224777  0.5547220492005702  0.0472110820623827
  0.8576024703758919  0.6102310548839001  0.0511260682478387
  0.0567947248296097  0.7221176704270943  0.0478809820759641
  0.1561555277166882  0.7774997929040277  0.0489750733235841
  0.1568736145551632  0.8887094170705734  0.0510446852549038
  0.0565282370490554  0.9441584335260060  0.0523937089959242
  0.2554837533294067  0.7211981706095391  0.0495121716513891
  0.3559833501482841  0.7744347161724856  0.0534428761038941
  0.3575927052321361  0.8865837777298725  0.0547159290301234
  0.2574099661912600  0.9432435823854329  0.0526947981776811
  0.4545489171100623  0.7140882950126745  0.0569535872812212
  0.5565957447090992  0.8821332599467390  0.0617418678225636
  0.4577954143243377  0.9418714077849899  0.0586316433710521
  0.7562217322871767  0.8857033130507742  0.0631001334432014
  0.6555811732713445  0.9420365974546088  0.0634806433551181
  0.8584066618171537  0.7226474555381754  0.0553192010492885
  0.9571408146247681  0.7779642632552097  0.0515188145003941
  0.9564096014887372  0.8889908043877434  0.0540745513205188
  0.8556429705306221  0.9434203449427341  0.0579365364050185
  0.7583554141511358  0.5575036896182901  0.0556237822171830
  0.5549666938140452  0.7691863544163031  0.0618310072325066
  0.7588897215093779  0.7745509669132563  0.0655229841433091
  0.4492470587582262  0.3913112101364485  0.0576113298323832
  0.4497777022808679  0.6048735136985991  0.0572267680057218
  0.6623214911155338  0.3920107453057681  0.0651907767605450
  0.6572619247046734  0.6665047240908690  0.0921372324942790
  0.5533989901924047  0.4956514697058647  0.0773960249432876
  0.6173408476462379  0.5749595316687922  0.1474011029721022
 
  0.00000000E+00  0.00000000E+00  0.00000000E+00
  0.00000000E+00  0.00000000E+00  0.00000000E+00
  0.00000000E+00  0.00000000E+00  0.00000000E+00
  0.00000000E+00  0.00000000E+00  0.00000000E+00
  0.00000000E+00  0.00000000E+00  0.00000000E+00
  0.00000000E+00  0.00000000E+00  0.00000000E+00
  0.00000000E+00  0.00000000E+00  0.00000000E+00
  0.00000000E+00  0.00000000E+00  0.00000000E+00
  0.00000000E+00  0.00000000E+00  0.00000000E+00
  0.00000000E+00  0.00000000E+00  0.00000000E+00
  0.00000000E+00  0.00000000E+00  0.00000000E+00
  0.00000000E+00  0.00000000E+00  0.00000000E+00
  0.00000000E+00  0.00000000E+00  0.00000000E+00
  0.00000000E+00  0.00000000E+00  0.00000000E+00
  0.00000000E+00  0.00000000E+00  0.00000000E+00
  0.00000000E+00  0.00000000E+00  0.00000000E+00
  0.00000000E+00  0.00000000E+00  0.00000000E+00
  0.00000000E+00  0.00000000E+00  0.00000000E+00
  0.00000000E+00  0.00000000E+00  0.00000000E+00
  0.00000000E+00  0.00000000E+00  0.00000000E+00
  0.00000000E+00  0.00000000E+00  0.00000000E+00
  0.00000000E+00  0.00000000E+00  0.00000000E+00
  0.00000000E+00  0.00000000E+00  0.00000000E+00
  0.00000000E+00  0.00000000E+00  0.00000000E+00
  0.00000000E+00  0.00000000E+00  0.00000000E+00
  0.00000000E+00  0.00000000E+00  0.00000000E+00
  0.00000000E+00  0.00000000E+00  0.00000000E+00
  0.00000000E+00  0.00000000E+00  0.00000000E+00
  0.00000000E+00  0.00000000E+00  0.00000000E+00
  0.00000000E+00  0.00000000E+00  0.00000000E+00
  0.00000000E+00  0.00000000E+00  0.00000000E+00
  0.00000000E+00  0.00000000E+00  0.00000000E+00
  0.00000000E+00  0.00000000E+00  0.00000000E+00
  0.00000000E+00  0.00000000E+00  0.00000000E+00
  0.00000000E+00  0.00000000E+00  0.00000000E+00
  0.00000000E+00  0.00000000E+00  0.00000000E+00
  0.00000000E+00  0.00000000E+00  0.00000000E+00
  0.00000000E+00  0.00000000E+00  0.00000000E+00
  0.00000000E+00  0.00000000E+00  0.00000000E+00
  0.00000000E+00  0.00000000E+00  0.00000000E+00
  0.00000000E+00  0.00000000E+00  0.00000000E+00
  0.00000000E+00  0.00000000E+00  0.00000000E+00
  0.00000000E+00  0.00000000E+00  0.00000000E+00
  0.00000000E+00  0.00000000E+00  0.00000000E+00
  0.00000000E+00  0.00000000E+00  0.00000000E+00
  0.00000000E+00  0.00000000E+00  0.00000000E+00
  0.00000000E+00  0.00000000E+00  0.00000000E+00
  0.00000000E+00  0.00000000E+00  0.00000000E+00
  0.00000000E+00  0.00000000E+00  0.00000000E+00
  0.00000000E+00  0.00000000E+00  0.00000000E+00
  0.00000000E+00  0.00000000E+00  0.00000000E+00
  0.00000000E+00  0.00000000E+00  0.00000000E+00
  0.00000000E+00  0.00000000E+00  0.00000000E+00
  0.00000000E+00  0.00000000E+00  0.00000000E+00
  0.00000000E+00  0.00000000E+00  0.00000000E+00
  0.00000000E+00  0.00000000E+00  0.00000000E+00
  0.00000000E+00  0.00000000E+00  0.00000000E+00
  0.00000000E+00  0.00000000E+00  0.00000000E+00
  0.00000000E+00  0.00000000E+00  0.00000000E+00
