CONTCAR\(12)                            
   1.00000000000000     
    12.3312997818000003    0.0000000000000000    0.0000000000000000
     0.0001127485000000   12.8291997905000006    0.0000000000000000
     0.0005937186000000    0.0011528207000000   19.9943999824000009
   C    N    Fe   Ni   H 
    53     3     1     1     1
Direct
  0.0556759034443474  0.0553511878295510  0.0528017285505710
  0.1559927867669653  0.1107052079525579  0.0520331390207872
  0.1565067883296201  0.2215433638471316  0.0510311323579662
  0.0563150118045521  0.2763735658714577  0.0512934800645294
  0.2563985308895209  0.0559211217892142  0.0528796905707543
  0.3571172926965198  0.1110583689167300  0.0549108426695044
  0.3576560035443604  0.2228674416585163  0.0538971100168771
  0.2568239012847129  0.2770155941758092  0.0507680253080531
  0.4568164454666414  0.0547294971318063  0.0581689639997730
  0.5571487371952412  0.1108785714765381  0.0619020869576701
  0.5575262805438055  0.2235423109948649  0.0630313891881642
  0.4575172232580303  0.2806952336565277  0.0573023225682356
  0.6560516245674495  0.0509141158258243  0.0628694097713065
  0.7553011470414224  0.1092497313218163  0.0610553586543572
  0.7561263455425079  0.2221732352966131  0.0618434537939834
  0.6580164939861312  0.2818827658103196  0.0665432063127693
  0.8549068871872687  0.0534557212515814  0.0577659829419618
  0.9551759237223404  0.1097935281311788  0.0548550240458244
  0.9558961154327859  0.2213274825006598  0.0543126862600917
  0.8562095856562133  0.2774590334816767  0.0574820802308583
  0.0572911416008845  0.3876218913841457  0.0499452698575912
  0.1562207066180730  0.4434152075887540  0.0481371246702137
  0.1561739160474030  0.5549814334894463  0.0474514473191064
  0.0572127986186165  0.6106037283121355  0.0482865594537444
  0.2560774095646457  0.3880707480318961  0.0488800637905140
  0.3548953035114132  0.4440575619892441  0.0495145242919419
  0.3550662317235764  0.5573171990823009  0.0489229364829934
  0.2548025127956798  0.6116475522092207  0.0478033295184434
  0.7608098343802389  0.4485252128691130  0.0633708202517700
  0.8582348729168172  0.3895416124348108  0.0564083096598222
  0.9582061099472856  0.4434650793034159  0.0519397075063827
  0.9587240706131098  0.5543749243577569  0.0512200664996478
  0.8596638573506435  0.6090846245555140  0.0561842929847215
  0.0566754874390360  0.7217402684953879  0.0489316751473465
  0.1549282567681262  0.7781603495540588  0.0486625346037793
  0.1553215988819715  0.8893003875592300  0.0504134861798283
  0.0554660589569219  0.9443627316725697  0.0520061911827633
  0.2539706685328670  0.7224437014819436  0.0483473211555054
  0.3525092933230418  0.7783092934612881  0.0512019644207962
  0.3545232442273681  0.8890385755483203  0.0534975324393557
  0.2552199673698377  0.9449941217022256  0.0520048108047559
  0.4504157500247525  0.7216195180630726  0.0555480332054334
  0.5530242735708165  0.8819360709420144  0.0626152978941424
  0.4553494159910036  0.9427347009563437  0.0578541573178591
  0.7567287447760669  0.8810071461346329  0.0610814774901449
  0.6557211033910223  0.9371541086586643  0.0633557384063533
  0.8591371355621780  0.7219579670467662  0.0558427296884907
  0.9573901550867014  0.7771547465900438  0.0520883467365157
  0.9561812217239478  0.8882286062862164  0.0535830998754571
  0.8550628641106452  0.9410737193006240  0.0574108868853216
  0.4553001388059716  0.3923896483790241  0.0545640504889695
  0.4542960300211387  0.6107766505450881  0.0530863171596413
  0.6607104257829786  0.3933938829016089  0.0718069399798300
  0.7634426076454851  0.5584218502245374  0.0636044748935675
  0.5470526357019029  0.7752005939149588  0.0644305485016161
  0.7614454897923734  0.7717133654745272  0.0614055325228432
  0.6496972366005130  0.6642372064706941  0.0730529917632559
  0.5576486643121465  0.4961879990569848  0.0743805214939754
  0.6077337215523555  0.5735090220510684  0.1304517761914963
 
  0.00000000E+00  0.00000000E+00  0.00000000E+00
  0.00000000E+00  0.00000000E+00  0.00000000E+00
  0.00000000E+00  0.00000000E+00  0.00000000E+00
  0.00000000E+00  0.00000000E+00  0.00000000E+00
  0.00000000E+00  0.00000000E+00  0.00000000E+00
  0.00000000E+00  0.00000000E+00  0.00000000E+00
  0.00000000E+00  0.00000000E+00  0.00000000E+00
  0.00000000E+00  0.00000000E+00  0.00000000E+00
  0.00000000E+00  0.00000000E+00  0.00000000E+00
  0.00000000E+00  0.00000000E+00  0.00000000E+00
  0.00000000E+00  0.00000000E+00  0.00000000E+00
  0.00000000E+00  0.00000000E+00  0.00000000E+00
  0.00000000E+00  0.00000000E+00  0.00000000E+00
  0.00000000E+00  0.00000000E+00  0.00000000E+00
  0.00000000E+00  0.00000000E+00  0.00000000E+00
  0.00000000E+00  0.00000000E+00  0.00000000E+00
  0.00000000E+00  0.00000000E+00  0.00000000E+00
  0.00000000E+00  0.00000000E+00  0.00000000E+00
  0.00000000E+00  0.00000000E+00  0.00000000E+00
  0.00000000E+00  0.00000000E+00  0.00000000E+00
  0.00000000E+00  0.00000000E+00  0.00000000E+00
  0.00000000E+00  0.00000000E+00  0.00000000E+00
  0.00000000E+00  0.00000000E+00  0.00000000E+00
  0.00000000E+00  0.00000000E+00  0.00000000E+00
  0.00000000E+00  0.00000000E+00  0.00000000E+00
  0.00000000E+00  0.00000000E+00  0.00000000E+00
  0.00000000E+00  0.00000000E+00  0.00000000E+00
  0.00000000E+00  0.00000000E+00  0.00000000E+00
  0.00000000E+00  0.00000000E+00  0.00000000E+00
  0.00000000E+00  0.00000000E+00  0.00000000E+00
  0.00000000E+00  0.00000000E+00  0.00000000E+00
  0.00000000E+00  0.00000000E+00  0.00000000E+00
  0.00000000E+00  0.00000000E+00  0.00000000E+00
  0.00000000E+00  0.00000000E+00  0.00000000E+00
  0.00000000E+00  0.00000000E+00  0.00000000E+00
  0.00000000E+00  0.00000000E+00  0.00000000E+00
  0.00000000E+00  0.00000000E+00  0.00000000E+00
  0.00000000E+00  0.00000000E+00  0.00000000E+00
  0.00000000E+00  0.00000000E+00  0.00000000E+00
  0.00000000E+00  0.00000000E+00  0.00000000E+00
  0.00000000E+00  0.00000000E+00  0.00000000E+00
  0.00000000E+00  0.00000000E+00  0.00000000E+00
  0.00000000E+00  0.00000000E+00  0.00000000E+00
  0.00000000E+00  0.00000000E+00  0.00000000E+00
  0.00000000E+00  0.00000000E+00  0.00000000E+00
  0.00000000E+00  0.00000000E+00  0.00000000E+00
  0.00000000E+00  0.00000000E+00  0.00000000E+00
  0.00000000E+00  0.00000000E+00  0.00000000E+00
  0.00000000E+00  0.00000000E+00  0.00000000E+00
  0.00000000E+00  0.00000000E+00  0.00000000E+00
  0.00000000E+00  0.00000000E+00  0.00000000E+00
  0.00000000E+00  0.00000000E+00  0.00000000E+00
  0.00000000E+00  0.00000000E+00  0.00000000E+00
  0.00000000E+00  0.00000000E+00  0.00000000E+00
  0.00000000E+00  0.00000000E+00  0.00000000E+00
  0.00000000E+00  0.00000000E+00  0.00000000E+00
  0.00000000E+00  0.00000000E+00  0.00000000E+00
  0.00000000E+00  0.00000000E+00  0.00000000E+00
  0.00000000E+00  0.00000000E+00  0.00000000E+00
