POSCAR\(2)                              
   1.00000000000000     
    12.3312997818000003    0.0000000000000000    0.0000000000000000
     0.0001127485000000   12.8291997905000006    0.0000000000000000
     0.0005937186000000    0.0011528207000000   19.9943999824000009
   C    N    Fe   Ni   O 
    55     1     1     1     2
Direct
  0.0550276976577959  0.0523913569633529  0.0475948919918791
  0.1555445675754559  0.1071627268853454  0.0470876754879169
  0.1553252312572265  0.2181464961557355  0.0462903449140015
  0.0548380305488502  0.2736379229343140  0.0476702741183338
  0.2559003613646186  0.0515025011613313  0.0482519383993507
  0.3561284015187580  0.1069236692450494  0.0512018020356040
  0.3560161383747170  0.2188525290889973  0.0495987226671519
  0.2553892473091380  0.2737015750882931  0.0454968633178626
  0.4557980535172608  0.0502304777815420  0.0561788791731602
  0.5550212128944382  0.1076214682525345  0.0607065099403816
  0.5549700143468060  0.2194640167182727  0.0608519758249679
  0.4555384641400768  0.2766057905866079  0.0536978884296093
  0.6546356345060752  0.0495894456862748  0.0628956340121237
  0.7546351660622265  0.1071312044350915  0.0599904524228999
  0.7547735832330146  0.2188838947956169  0.0617594324220323
  0.6551434479350204  0.2768671792699278  0.0659370541013314
  0.8546515893355092  0.0517144551061718  0.0544944417096198
  0.9546282950447273  0.1076244330644757  0.0510300998734341
  0.9545183396989718  0.2188016350424055  0.0518838340780293
  0.8546598531560189  0.2748647606412831  0.0574362522196012
  0.0546818746646899  0.3846424009366145  0.0460256429968543
  0.1539675325178051  0.4402551839746369  0.0420548487495752
  0.1534323427489608  0.5515677029784553  0.0405772285231189
  0.0542832045493274  0.6075141559337525  0.0421735311534557
  0.2542093504777240  0.3849338870246827  0.0426153589173894
  0.3536134946254548  0.4409424908087021  0.0435011381891775
  0.3519700686499410  0.5539395399209450  0.0432873275172313
  0.2522825234199860  0.6081723713509136  0.0410222977308291
  0.7563156593100724  0.4446537016560416  0.0688926073061172
  0.8555089108404327  0.3865146646059905  0.0584213408916409
  0.9550042066159959  0.4406626386069535  0.0504102821550436
  0.9551805383125584  0.5514986963941250  0.0479388608914252
  0.8566353612086561  0.6077900564834564  0.0561122494532543
  0.0552202605446165  0.7190604434418990  0.0418627279709273
  0.1546043661259354  0.7749052961715639  0.0417546508853346
  0.1552289003976035  0.8858239890650884  0.0441710431506418
  0.0551363975587946  0.9416368843403758  0.0456386558390337
  0.2541495441483073  0.7187440464053698  0.0424769572861369
  0.3546551988674235  0.7720472942737938  0.0481601432853074
  0.3557073353673915  0.8833829545669281  0.0508450541849027
  0.2558846004398416  0.9402188413789856  0.0473432415301289
  0.4527827393696813  0.7113430143559849  0.0551244549212140
  0.5545868398883914  0.8783596034422233  0.0654441267818447
  0.4559319633012051  0.9377790249100814  0.0571115911295700
  0.7556861618939108  0.8826698661730119  0.0606717551579477
  0.6546127365946298  0.9378637152073384  0.0653438983802201
  0.8574317640037115  0.7198631989813278  0.0530103033003103
  0.9560567711578974  0.7753151351277039  0.0454088268895470
  0.9552380069607440  0.8860765934160879  0.0471365137099839
  0.8547568658627540  0.9403589841772221  0.0529430971136355
  0.4538118254961143  0.3878132690137175  0.0500318734330205
  0.6574166644010664  0.3868713373888603  0.0718246597173353
  0.7596881092587203  0.5568470292879409  0.0719951380373959
  0.5511319643745158  0.7664735162040958  0.0707896983739885
  0.7601533728565292  0.7729085270418752  0.0637627177426166
  0.4475658318777401  0.6043656336932028  0.0493784870956587
  0.6596621010592127  0.6789581829643355  0.1153291341929743
  0.5535211414680336  0.4882689135286759  0.0732759178187426
  0.5863054346814474  0.5737644186305590  0.1428522237814440
  0.6964347396254816  0.7528353122338239  0.1771654236757184
 
  0.00000000E+00  0.00000000E+00  0.00000000E+00
  0.00000000E+00  0.00000000E+00  0.00000000E+00
  0.00000000E+00  0.00000000E+00  0.00000000E+00
  0.00000000E+00  0.00000000E+00  0.00000000E+00
  0.00000000E+00  0.00000000E+00  0.00000000E+00
  0.00000000E+00  0.00000000E+00  0.00000000E+00
  0.00000000E+00  0.00000000E+00  0.00000000E+00
  0.00000000E+00  0.00000000E+00  0.00000000E+00
  0.00000000E+00  0.00000000E+00  0.00000000E+00
  0.00000000E+00  0.00000000E+00  0.00000000E+00
  0.00000000E+00  0.00000000E+00  0.00000000E+00
  0.00000000E+00  0.00000000E+00  0.00000000E+00
  0.00000000E+00  0.00000000E+00  0.00000000E+00
  0.00000000E+00  0.00000000E+00  0.00000000E+00
  0.00000000E+00  0.00000000E+00  0.00000000E+00
  0.00000000E+00  0.00000000E+00  0.00000000E+00
  0.00000000E+00  0.00000000E+00  0.00000000E+00
  0.00000000E+00  0.00000000E+00  0.00000000E+00
  0.00000000E+00  0.00000000E+00  0.00000000E+00
  0.00000000E+00  0.00000000E+00  0.00000000E+00
  0.00000000E+00  0.00000000E+00  0.00000000E+00
  0.00000000E+00  0.00000000E+00  0.00000000E+00
  0.00000000E+00  0.00000000E+00  0.00000000E+00
  0.00000000E+00  0.00000000E+00  0.00000000E+00
  0.00000000E+00  0.00000000E+00  0.00000000E+00
  0.00000000E+00  0.00000000E+00  0.00000000E+00
  0.00000000E+00  0.00000000E+00  0.00000000E+00
  0.00000000E+00  0.00000000E+00  0.00000000E+00
  0.00000000E+00  0.00000000E+00  0.00000000E+00
  0.00000000E+00  0.00000000E+00  0.00000000E+00
  0.00000000E+00  0.00000000E+00  0.00000000E+00
  0.00000000E+00  0.00000000E+00  0.00000000E+00
  0.00000000E+00  0.00000000E+00  0.00000000E+00
  0.00000000E+00  0.00000000E+00  0.00000000E+00
  0.00000000E+00  0.00000000E+00  0.00000000E+00
  0.00000000E+00  0.00000000E+00  0.00000000E+00
  0.00000000E+00  0.00000000E+00  0.00000000E+00
  0.00000000E+00  0.00000000E+00  0.00000000E+00
  0.00000000E+00  0.00000000E+00  0.00000000E+00
  0.00000000E+00  0.00000000E+00  0.00000000E+00
  0.00000000E+00  0.00000000E+00  0.00000000E+00
  0.00000000E+00  0.00000000E+00  0.00000000E+00
  0.00000000E+00  0.00000000E+00  0.00000000E+00
  0.00000000E+00  0.00000000E+00  0.00000000E+00
  0.00000000E+00  0.00000000E+00  0.00000000E+00
  0.00000000E+00  0.00000000E+00  0.00000000E+00
  0.00000000E+00  0.00000000E+00  0.00000000E+00
  0.00000000E+00  0.00000000E+00  0.00000000E+00
  0.00000000E+00  0.00000000E+00  0.00000000E+00
  0.00000000E+00  0.00000000E+00  0.00000000E+00
  0.00000000E+00  0.00000000E+00  0.00000000E+00
  0.00000000E+00  0.00000000E+00  0.00000000E+00
  0.00000000E+00  0.00000000E+00  0.00000000E+00
  0.00000000E+00  0.00000000E+00  0.00000000E+00
  0.00000000E+00  0.00000000E+00  0.00000000E+00
  0.00000000E+00  0.00000000E+00  0.00000000E+00
  0.00000000E+00  0.00000000E+00  0.00000000E+00
  0.00000000E+00  0.00000000E+00  0.00000000E+00
  0.00000000E+00  0.00000000E+00  0.00000000E+00
  0.00000000E+00  0.00000000E+00  0.00000000E+00
