CONTCAR\(2)                             
   1.00000000000000     
    12.3312997818000003    0.0000000000000000    0.0000000000000000
     0.0001127485000000   12.8291997905000006    0.0000000000000000
     0.0005937186000000    0.0011528207000000   19.9943999824000009
   C    N    Fe   Ni   H 
    55     1     1     1     1
Direct
  0.0562528346066079  0.0552959385624929  0.0519130167777080
  0.1565020494830626  0.1107308669786826  0.0517292416142925
  0.1569961392672061  0.2217153303144802  0.0506434458146103
  0.0567578805247860  0.2764846749714845  0.0491522809759453
  0.2566453014921450  0.0556510611564052  0.0533043149480976
  0.3568267839068175  0.1114354601493446  0.0557462413264180
  0.3574690885121031  0.2234611665614497  0.0556406097270618
  0.2569685508144714  0.2777962704291959  0.0520110240066609
  0.4562046518335483  0.0548964035984804  0.0583840013053392
  0.5560517987925540  0.1114895281037753  0.0606837248128359
  0.5564758521634240  0.2229562387259713  0.0616660402322055
  0.4572001628040134  0.2811685535424947  0.0591230216228261
  0.6556752666885937  0.0533133713220161  0.0608801752058256
  0.7558000526851962  0.1099899070181261  0.0579413142681944
  0.7564829736507309  0.2216128246875944  0.0571157366456517
  0.6570968939398218  0.2795683126801111  0.0621050643784710
  0.8555851078027522  0.0541069491914304  0.0554266356092391
  0.9558808702038738  0.1099166239697230  0.0525624258940582
  0.9565540799956831  0.2208825534754347  0.0508318009037779
  0.8567415087470587  0.2765010933083072  0.0520780146671545
  0.0572232771600939  0.3876149548629227  0.0480228720684018
  0.1561519589046148  0.4436597595777810  0.0486725738829347
  0.1554831217222252  0.5549166080262709  0.0488199204349762
  0.0561043329246380  0.6103482880960862  0.0492230763938418
  0.2563698144585317  0.3889503101953923  0.0508168556835940
  0.3556561288266741  0.4452067448158475  0.0535460146043556
  0.3540959534355285  0.5581539353550784  0.0533855461301412
  0.2539022288083767  0.6118445609191523  0.0504747287940089
  0.7592459763038026  0.4445183439061852  0.0554380234840110
  0.8581992461754363  0.3875351483308088  0.0498374667899623
  0.9574806964933134  0.4430909437024275  0.0480832720779920
  0.9572745084451632  0.5538972586369936  0.0494226881832144
  0.8571147347045045  0.6091022615843786  0.0517633480720826
  0.0559058381195239  0.7219167105890486  0.0502259067737113
  0.1545802714925026  0.7781122932037871  0.0504770159764220
  0.1556025200026800  0.8892469366033019  0.0513853437781192
  0.0557474268541501  0.9444550550734864  0.0520036458218210
  0.2537967360466102  0.7223729554263982  0.0510906227520089
  0.3534689658815245  0.7766301723041411  0.0537380811898032
  0.3555230492830703  0.8880893445179341  0.0548305790713304
  0.2559495650613603  0.9443609172950913  0.0528461039283907
  0.4513025655231634  0.7177351265413793  0.0582445222915558
  0.5545700419980900  0.8842194310364456  0.0627476962158626
  0.4557004239634055  0.9429553157769491  0.0583871864285804
  0.7552933055156812  0.8848704921386893  0.0606479277022107
  0.6551110475072662  0.9417643149131759  0.0625483707261929
  0.8573840817658331  0.7219551847623015  0.0544957011721166
  0.9563577422702092  0.7776352238499156  0.0522185004660551
  0.9558060030230509  0.8885681921822755  0.0533777027963304
  0.8551053319070956  0.9425561652042448  0.0563063284749423
  0.4561231899569084  0.3929490491801110  0.0584193929276684
  0.6604168238177418  0.3893846677764127  0.0649280174089338
  0.7584322540965713  0.5555777310279307  0.0558814554215168
  0.5510925494099065  0.7734137197853275  0.0666567426903341
  0.7573976280275486  0.7739466984565767  0.0610955179690093
  0.4495503251412299  0.6095427464503883  0.0582604441362813
  0.6529188152460282  0.6674463425822013  0.0851193703480101
  0.5619789188484092  0.4945498707122816  0.0724126574384833
  0.6161247919631002  0.5659331688538530  0.1338906517584020
 
  0.00000000E+00  0.00000000E+00  0.00000000E+00
  0.00000000E+00  0.00000000E+00  0.00000000E+00
  0.00000000E+00  0.00000000E+00  0.00000000E+00
  0.00000000E+00  0.00000000E+00  0.00000000E+00
  0.00000000E+00  0.00000000E+00  0.00000000E+00
  0.00000000E+00  0.00000000E+00  0.00000000E+00
  0.00000000E+00  0.00000000E+00  0.00000000E+00
  0.00000000E+00  0.00000000E+00  0.00000000E+00
  0.00000000E+00  0.00000000E+00  0.00000000E+00
  0.00000000E+00  0.00000000E+00  0.00000000E+00
  0.00000000E+00  0.00000000E+00  0.00000000E+00
  0.00000000E+00  0.00000000E+00  0.00000000E+00
  0.00000000E+00  0.00000000E+00  0.00000000E+00
  0.00000000E+00  0.00000000E+00  0.00000000E+00
  0.00000000E+00  0.00000000E+00  0.00000000E+00
  0.00000000E+00  0.00000000E+00  0.00000000E+00
  0.00000000E+00  0.00000000E+00  0.00000000E+00
  0.00000000E+00  0.00000000E+00  0.00000000E+00
  0.00000000E+00  0.00000000E+00  0.00000000E+00
  0.00000000E+00  0.00000000E+00  0.00000000E+00
  0.00000000E+00  0.00000000E+00  0.00000000E+00
  0.00000000E+00  0.00000000E+00  0.00000000E+00
  0.00000000E+00  0.00000000E+00  0.00000000E+00
  0.00000000E+00  0.00000000E+00  0.00000000E+00
  0.00000000E+00  0.00000000E+00  0.00000000E+00
  0.00000000E+00  0.00000000E+00  0.00000000E+00
  0.00000000E+00  0.00000000E+00  0.00000000E+00
  0.00000000E+00  0.00000000E+00  0.00000000E+00
  0.00000000E+00  0.00000000E+00  0.00000000E+00
  0.00000000E+00  0.00000000E+00  0.00000000E+00
  0.00000000E+00  0.00000000E+00  0.00000000E+00
  0.00000000E+00  0.00000000E+00  0.00000000E+00
  0.00000000E+00  0.00000000E+00  0.00000000E+00
  0.00000000E+00  0.00000000E+00  0.00000000E+00
  0.00000000E+00  0.00000000E+00  0.00000000E+00
  0.00000000E+00  0.00000000E+00  0.00000000E+00
  0.00000000E+00  0.00000000E+00  0.00000000E+00
  0.00000000E+00  0.00000000E+00  0.00000000E+00
  0.00000000E+00  0.00000000E+00  0.00000000E+00
  0.00000000E+00  0.00000000E+00  0.00000000E+00
  0.00000000E+00  0.00000000E+00  0.00000000E+00
  0.00000000E+00  0.00000000E+00  0.00000000E+00
  0.00000000E+00  0.00000000E+00  0.00000000E+00
  0.00000000E+00  0.00000000E+00  0.00000000E+00
  0.00000000E+00  0.00000000E+00  0.00000000E+00
  0.00000000E+00  0.00000000E+00  0.00000000E+00
  0.00000000E+00  0.00000000E+00  0.00000000E+00
  0.00000000E+00  0.00000000E+00  0.00000000E+00
  0.00000000E+00  0.00000000E+00  0.00000000E+00
  0.00000000E+00  0.00000000E+00  0.00000000E+00
  0.00000000E+00  0.00000000E+00  0.00000000E+00
  0.00000000E+00  0.00000000E+00  0.00000000E+00
  0.00000000E+00  0.00000000E+00  0.00000000E+00
  0.00000000E+00  0.00000000E+00  0.00000000E+00
  0.00000000E+00  0.00000000E+00  0.00000000E+00
  0.00000000E+00  0.00000000E+00  0.00000000E+00
  0.00000000E+00  0.00000000E+00  0.00000000E+00
  0.00000000E+00  0.00000000E+00  0.00000000E+00
  0.00000000E+00  0.00000000E+00  0.00000000E+00
