CONTCAR                                 
   1.00000000000000     
    12.3312997818000003    0.0000000000000000    0.0000000000000000
     0.0001127485000000   12.8291997905000006    0.0000000000000000
     0.0005937186000000    0.0011528207000000   19.9943999824000009
   C    N    Fe   Ni   O    H 
    53     3     1     1     2     2
Direct
  0.0551542872236161  0.0533255433845445  0.0460556434362682
  0.1556353654188479  0.1082080096046265  0.0457331641507220
  0.1555949101929787  0.2193278791436122  0.0449993122534160
  0.0552181435043079  0.2745576401255947  0.0453782872379352
  0.2560894115554910  0.0527721489704367  0.0472188342251393
  0.3565794331371430  0.1082144213392682  0.0507302082554148
  0.3566683157000239  0.2203367115074067  0.0498641880899473
  0.2558016807732900  0.2749154691368736  0.0453020456023350
  0.4562252249941411  0.0516375842572467  0.0555177853871701
  0.5559855347811365  0.1086269396535145  0.0600791427633042
  0.5561053615508621  0.2209271995570739  0.0609633409076213
  0.4563096642916719  0.2779757099396202  0.0548301314145242
  0.6556276905479492  0.0497721282030589  0.0612819928291266
  0.7548100242683287  0.1080212264197859  0.0579751772399182
  0.7550660466785613  0.2204876797796365  0.0589852922923349
  0.6563634553600420  0.2794806546579517  0.0643025957755732
  0.8546424580364387  0.0527503688584821  0.0527775930869138
  0.9548271189894924  0.1084415873277867  0.0490191948268448
  0.9549268314382352  0.2196356340419938  0.0491078193959429
  0.8550494863018433  0.2756031451520931  0.0538404368336463
  0.0552841646713141  0.3857352610278594  0.0434826652390933
  0.1543185108803517  0.4413039580940153  0.0410006417047631
  0.1532530220754622  0.5526690502546053  0.0395996371906033
  0.0541372768347378  0.6085535750389627  0.0400803998611789
  0.2547057372114820  0.3861082024942440  0.0428880744328192
  0.3538572180315206  0.4422365401854069  0.0453689023178153
  0.3516067583284462  0.5551402574612345  0.0456900167022488
  0.2519225335410971  0.6092919456586310  0.0412917416077743
  0.7583953172944605  0.4463634546163573  0.0615197949877774
  0.8561530283245281  0.3873247155278851  0.0532927883463637
  0.9555318975446490  0.4418559696236374  0.0464177107994795
  0.9549707416688457  0.5528630064087967  0.0444128901374797
  0.8545907662472387  0.6069964218584444  0.0511901862424649
  0.0546073337421613  0.7197728526989579  0.0403073752178838
  0.1537048355180633  0.7758437066468790  0.0408023760980610
  0.1550461194542801  0.8868877656586983  0.0431059009291109
  0.0550834969779343  0.9423120526374823  0.0444495963376180
  0.2530693242896859  0.7198734542690437  0.0423809256900750
  0.3532562348289148  0.7733668493341934  0.0484110738487497
  0.3554588886842450  0.8848229899388311  0.0500372611893655
  0.2556765495292593  0.9414736119681456  0.0462447292675275
  0.4506019664458325  0.7135321007807829  0.0568141253792301
  0.5542065231881846  0.8788162260350860  0.0638857445738904
  0.4558808918814086  0.9390561459521594  0.0560201989836035
  0.7570697618791493  0.8827226338292827  0.0583065740572149
  0.6554863468009916  0.9371617793120414  0.0631432371037811
  0.8556283389582305  0.7212555824722087  0.0501266905339468
  0.9550976766422237  0.7754541331400574  0.0439601623775682
  0.9553223584344300  0.8865865441911747  0.0460750577058316
  0.8551417834854284  0.9410519799137411  0.0515806754170766
  0.4542153887794032  0.3897167828429589  0.0527846845979883
  0.6580448900448612  0.3905793955127946  0.0692674376705196
  0.5495656109098519  0.7675858321909331  0.0700569523735073
  0.4466280118228095  0.6055053830007749  0.0541475943220116
  0.7603642078350366  0.5549995924379714  0.0619966424897361
  0.7612869235039883  0.7751745329047425  0.0598449590764896
  0.6676348862176844  0.6834908907814343  0.1075625480154727
  0.5521012619637733  0.4893183554131894  0.0776892958088426
  0.5879924607347083  0.5807419116601528  0.1548312531299388
  0.7556017530377037  0.7106671188007857  0.1813256527471633
  0.7364146611570758  0.6602473967324146  0.2159263549494793
  0.5206741278541253  0.6064824176323704  0.1742672865343450
 
  0.00000000E+00  0.00000000E+00  0.00000000E+00
  0.00000000E+00  0.00000000E+00  0.00000000E+00
  0.00000000E+00  0.00000000E+00  0.00000000E+00
  0.00000000E+00  0.00000000E+00  0.00000000E+00
  0.00000000E+00  0.00000000E+00  0.00000000E+00
  0.00000000E+00  0.00000000E+00  0.00000000E+00
  0.00000000E+00  0.00000000E+00  0.00000000E+00
  0.00000000E+00  0.00000000E+00  0.00000000E+00
  0.00000000E+00  0.00000000E+00  0.00000000E+00
  0.00000000E+00  0.00000000E+00  0.00000000E+00
  0.00000000E+00  0.00000000E+00  0.00000000E+00
  0.00000000E+00  0.00000000E+00  0.00000000E+00
  0.00000000E+00  0.00000000E+00  0.00000000E+00
  0.00000000E+00  0.00000000E+00  0.00000000E+00
  0.00000000E+00  0.00000000E+00  0.00000000E+00
  0.00000000E+00  0.00000000E+00  0.00000000E+00
  0.00000000E+00  0.00000000E+00  0.00000000E+00
  0.00000000E+00  0.00000000E+00  0.00000000E+00
  0.00000000E+00  0.00000000E+00  0.00000000E+00
  0.00000000E+00  0.00000000E+00  0.00000000E+00
  0.00000000E+00  0.00000000E+00  0.00000000E+00
  0.00000000E+00  0.00000000E+00  0.00000000E+00
  0.00000000E+00  0.00000000E+00  0.00000000E+00
  0.00000000E+00  0.00000000E+00  0.00000000E+00
  0.00000000E+00  0.00000000E+00  0.00000000E+00
  0.00000000E+00  0.00000000E+00  0.00000000E+00
  0.00000000E+00  0.00000000E+00  0.00000000E+00
  0.00000000E+00  0.00000000E+00  0.00000000E+00
  0.00000000E+00  0.00000000E+00  0.00000000E+00
  0.00000000E+00  0.00000000E+00  0.00000000E+00
  0.00000000E+00  0.00000000E+00  0.00000000E+00
  0.00000000E+00  0.00000000E+00  0.00000000E+00
  0.00000000E+00  0.00000000E+00  0.00000000E+00
  0.00000000E+00  0.00000000E+00  0.00000000E+00
  0.00000000E+00  0.00000000E+00  0.00000000E+00
  0.00000000E+00  0.00000000E+00  0.00000000E+00
  0.00000000E+00  0.00000000E+00  0.00000000E+00
  0.00000000E+00  0.00000000E+00  0.00000000E+00
  0.00000000E+00  0.00000000E+00  0.00000000E+00
  0.00000000E+00  0.00000000E+00  0.00000000E+00
  0.00000000E+00  0.00000000E+00  0.00000000E+00
  0.00000000E+00  0.00000000E+00  0.00000000E+00
  0.00000000E+00  0.00000000E+00  0.00000000E+00
  0.00000000E+00  0.00000000E+00  0.00000000E+00
  0.00000000E+00  0.00000000E+00  0.00000000E+00
  0.00000000E+00  0.00000000E+00  0.00000000E+00
  0.00000000E+00  0.00000000E+00  0.00000000E+00
  0.00000000E+00  0.00000000E+00  0.00000000E+00
  0.00000000E+00  0.00000000E+00  0.00000000E+00
  0.00000000E+00  0.00000000E+00  0.00000000E+00
  0.00000000E+00  0.00000000E+00  0.00000000E+00
  0.00000000E+00  0.00000000E+00  0.00000000E+00
  0.00000000E+00  0.00000000E+00  0.00000000E+00
  0.00000000E+00  0.00000000E+00  0.00000000E+00
  0.00000000E+00  0.00000000E+00  0.00000000E+00
  0.00000000E+00  0.00000000E+00  0.00000000E+00
  0.00000000E+00  0.00000000E+00  0.00000000E+00
  0.00000000E+00  0.00000000E+00  0.00000000E+00
  0.00000000E+00  0.00000000E+00  0.00000000E+00
  0.00000000E+00  0.00000000E+00  0.00000000E+00
  0.00000000E+00  0.00000000E+00  0.00000000E+00
  0.00000000E+00  0.00000000E+00  0.00000000E+00
