CONTCAR\(3)                             
   1.00000000000000     
    12.3312997818000003    0.0000000000000000    0.0000000000000000
     0.0001127485000000   12.8291997905000006    0.0000000000000000
     0.0005937186000000    0.0011528207000000   19.9943999824000009
   C    N    Fe   Ni   O    H 
    53     3     1     1     1     1
Direct
  0.0566393517908403  0.0551008511484373  0.0487867416309084
  0.1568364093992315  0.1103173252054699  0.0489380944530760
  0.1563004310142092  0.2210723824566738  0.0473639268958655
  0.0563745725161540  0.2767886845275502  0.0460789737447186
  0.2576214038076431  0.0556807069855720  0.0516217149053123
  0.3577263359567335  0.1120455074025591  0.0550276094411994
  0.3570928065819675  0.2240199800066153  0.0538976163588754
  0.2557645328989389  0.2766490393312949  0.0487203271363260
  0.4576169590400876  0.0564803691904852  0.0597002703282767
  0.5570898657184931  0.1144752893690321  0.0625049876320717
  0.5570157544845549  0.2281887726138063  0.0629582007859813
  0.4554402008926344  0.2841781943781583  0.0585047937251313
  0.6567007282201699  0.0544732389338703  0.0622256312439262
  0.7560950349702933  0.1112470712332908  0.0578146701054564
  0.7571322727509123  0.2233414973180335  0.0576254849806132
  0.6594115903578591  0.2840671280523588  0.0635517880887028
  0.8557032065749562  0.0548619494932862  0.0537806301231956
  0.9561853361900905  0.1100955391104848  0.0501474006414426
  0.9567209129987496  0.2212128732808931  0.0489650150760967
  0.8573393148856866  0.2774669958962753  0.0523060307814012
  0.0562878235409761  0.3881039839379140  0.0440052070546306
  0.1550060214877088  0.4438000745546213  0.0434116947983675
  0.1551221139376435  0.5550943031963844  0.0429176710776671
  0.0561386102025263  0.6110617971788980  0.0430158835563241
  0.2540925126486848  0.3871168030565940  0.0464460156798407
  0.3522371963164564  0.4417433877649083  0.0506991379391333
  0.3529378186134707  0.5538730109330779  0.0517430288996728
  0.2543237859422213  0.6104925775579331  0.0461686654912746
  0.7598617223174335  0.4449508482245345  0.0585384155089292
  0.8583786494209771  0.3885901222503395  0.0509560249267529
  0.9569165918308407  0.4445000351062365  0.0454475888930387
  0.9568669419152538  0.5555767444762166  0.0448550270420697
  0.8564946399454708  0.6104352910103565  0.0498120707151677
  0.0568054533567283  0.7222287151204650  0.0444792652051754
  0.1561609724878724  0.7777105080668861  0.0461031872528747
  0.1570571784935007  0.8889440653465224  0.0480731127095161
  0.0568596044457726  0.9443476562817184  0.0482944787976876
  0.2556620148084646  0.7215089037566035  0.0480677117890985
  0.3553386687400344  0.7758925169229541  0.0547573877134863
  0.3571193794865073  0.8878918121240349  0.0556803667944436
  0.2573221115014229  0.9441652150280474  0.0513639896811125
  0.4536606191830626  0.7171603399627848  0.0639886888019844
  0.5557247080758183  0.8850584826435631  0.0672182286367317
  0.4569169009316059  0.9439953132995261  0.0609572623816972
  0.7575137907936466  0.8843922812030087  0.0595888362611415
  0.6568880317354153  0.9414747417800615  0.0643042846960644
  0.8581628153322818  0.7238436168071081  0.0510380892381355
  0.9572127228506916  0.7782803408417220  0.0475444465478420
  0.9569483512620183  0.8891694411975731  0.0495694823183902
  0.8561209026215696  0.9429600155137243  0.0539711930702663
  0.4517768926320149  0.6045419003368990  0.0628858651530954
  0.7578811563271970  0.5565588188359486  0.0576031104536090
  0.5511305209774172  0.7751305976518089  0.0735893433125451
  0.4497698200066974  0.3925003685894197  0.0574049801225375
  0.6643798504424253  0.3905701380363107  0.0676064367574891
  0.7612205173247815  0.7755665950093393  0.0592108664480200
  0.6581206339636664  0.6707432144357974  0.0893552766159498
  0.5562343289296824  0.4971316661821840  0.0774205158974898
  0.6065364301608251  0.5832719625289796  0.1569795885241197
  0.5414840569590064  0.6128683663148502  0.1774876741580379
 
  0.00000000E+00  0.00000000E+00  0.00000000E+00
  0.00000000E+00  0.00000000E+00  0.00000000E+00
  0.00000000E+00  0.00000000E+00  0.00000000E+00
  0.00000000E+00  0.00000000E+00  0.00000000E+00
  0.00000000E+00  0.00000000E+00  0.00000000E+00
  0.00000000E+00  0.00000000E+00  0.00000000E+00
  0.00000000E+00  0.00000000E+00  0.00000000E+00
  0.00000000E+00  0.00000000E+00  0.00000000E+00
  0.00000000E+00  0.00000000E+00  0.00000000E+00
  0.00000000E+00  0.00000000E+00  0.00000000E+00
  0.00000000E+00  0.00000000E+00  0.00000000E+00
  0.00000000E+00  0.00000000E+00  0.00000000E+00
  0.00000000E+00  0.00000000E+00  0.00000000E+00
  0.00000000E+00  0.00000000E+00  0.00000000E+00
  0.00000000E+00  0.00000000E+00  0.00000000E+00
  0.00000000E+00  0.00000000E+00  0.00000000E+00
  0.00000000E+00  0.00000000E+00  0.00000000E+00
  0.00000000E+00  0.00000000E+00  0.00000000E+00
  0.00000000E+00  0.00000000E+00  0.00000000E+00
  0.00000000E+00  0.00000000E+00  0.00000000E+00
  0.00000000E+00  0.00000000E+00  0.00000000E+00
  0.00000000E+00  0.00000000E+00  0.00000000E+00
  0.00000000E+00  0.00000000E+00  0.00000000E+00
  0.00000000E+00  0.00000000E+00  0.00000000E+00
  0.00000000E+00  0.00000000E+00  0.00000000E+00
  0.00000000E+00  0.00000000E+00  0.00000000E+00
  0.00000000E+00  0.00000000E+00  0.00000000E+00
  0.00000000E+00  0.00000000E+00  0.00000000E+00
  0.00000000E+00  0.00000000E+00  0.00000000E+00
  0.00000000E+00  0.00000000E+00  0.00000000E+00
  0.00000000E+00  0.00000000E+00  0.00000000E+00
  0.00000000E+00  0.00000000E+00  0.00000000E+00
  0.00000000E+00  0.00000000E+00  0.00000000E+00
  0.00000000E+00  0.00000000E+00  0.00000000E+00
  0.00000000E+00  0.00000000E+00  0.00000000E+00
  0.00000000E+00  0.00000000E+00  0.00000000E+00
  0.00000000E+00  0.00000000E+00  0.00000000E+00
  0.00000000E+00  0.00000000E+00  0.00000000E+00
  0.00000000E+00  0.00000000E+00  0.00000000E+00
  0.00000000E+00  0.00000000E+00  0.00000000E+00
  0.00000000E+00  0.00000000E+00  0.00000000E+00
  0.00000000E+00  0.00000000E+00  0.00000000E+00
  0.00000000E+00  0.00000000E+00  0.00000000E+00
  0.00000000E+00  0.00000000E+00  0.00000000E+00
  0.00000000E+00  0.00000000E+00  0.00000000E+00
  0.00000000E+00  0.00000000E+00  0.00000000E+00
  0.00000000E+00  0.00000000E+00  0.00000000E+00
  0.00000000E+00  0.00000000E+00  0.00000000E+00
  0.00000000E+00  0.00000000E+00  0.00000000E+00
  0.00000000E+00  0.00000000E+00  0.00000000E+00
  0.00000000E+00  0.00000000E+00  0.00000000E+00
  0.00000000E+00  0.00000000E+00  0.00000000E+00
  0.00000000E+00  0.00000000E+00  0.00000000E+00
  0.00000000E+00  0.00000000E+00  0.00000000E+00
  0.00000000E+00  0.00000000E+00  0.00000000E+00
  0.00000000E+00  0.00000000E+00  0.00000000E+00
  0.00000000E+00  0.00000000E+00  0.00000000E+00
  0.00000000E+00  0.00000000E+00  0.00000000E+00
  0.00000000E+00  0.00000000E+00  0.00000000E+00
  0.00000000E+00  0.00000000E+00  0.00000000E+00
