1h\(2)                                  
   1.00000000000000     
    12.3312997818000003    0.0000000000000000    0.0000000000000000
     0.0001127485000000   12.8291997905000006    0.0000000000000000
     0.0005937186000000    0.0011528207000000   19.9943999824000009
   C    N    Fe   Ni
    52     4     1     1
Direct
  0.0559298943880225  0.0549844781279127  0.0515764635258615
  0.1563510704137589  0.1101178311847310  0.0518188302721444
  0.1561642470646876  0.2208084496694170  0.0509272244465611
  0.0562057957177766  0.2761603598619450  0.0497916914118404
  0.2568466446165040  0.0552812922323557  0.0539324331766635
  0.3571304409086201  0.1109392405020941  0.0572472927260625
  0.3564543173356273  0.2228900273797971  0.0569505032585406
  0.2557589360825648  0.2765414421174822  0.0527164547725904
  0.4570463170984295  0.0548485403985521  0.0606112572722965
  0.5565591246351204  0.1130570370463939  0.0628272360680643
  0.5566697038000331  0.2267355886105812  0.0631856128671184
  0.4547199271041986  0.2827970845423734  0.0607362751155849
  0.6559887721946165  0.0526682417762339  0.0627378044856962
  0.7551576986286794  0.1109188394997079  0.0600247808388654
  0.7556264356095170  0.2237635020509171  0.0598751216279714
  0.6574405987595465  0.2850417452357712  0.0633710699903410
  0.8549359604834249  0.0542703239590991  0.0566127879490086
  0.9554336873630437  0.1097932185479717  0.0533621157520110
  0.9560029450390223  0.2211469590185108  0.0524954734017594
  0.8566867434125778  0.2777536780014969  0.0554601741097278
  0.0575132276623362  0.3872265572255086  0.0477630321078496
  0.1560403930527777  0.4433993606756274  0.0473033457788753
  0.1558486458974729  0.5541864867424980  0.0461614366042293
  0.0575700430242535  0.6109518164760371  0.0456513351269875
  0.2550150319380277  0.3876401345271159  0.0511873657451538
  0.3536533408530229  0.4421627987886603  0.0555583489593282
  0.3530249613659482  0.5554268852213335  0.0554084901675143
  0.2541198441758499  0.6102049254635219  0.0495662161162755
  0.7637955502114027  0.4483239610239418  0.0603004319402986
  0.8603451265372434  0.3890972200473111  0.0544522851938476
  0.9592219474089781  0.4436255826147033  0.0493966043539525
  0.9593702938844285  0.5549151359881783  0.0485704796777999
  0.8608609500464085  0.6099084471693059  0.0543136977999686
  0.0568099597997678  0.7217753134199691  0.0466039963188592
  0.1552052020436221  0.7779185820636947  0.0477298187063549
  0.1562533067248423  0.8888529469296954  0.0497965459551934
  0.0561482401827697  0.9442370222528531  0.0505390845944825
  0.2535728081820720  0.7214325408731379  0.0500778967820317
  0.3521469348830271  0.7760286078493582  0.0554415999534745
  0.3557365421211626  0.8875990836833291  0.0564111559595662
  0.2563631344359707  0.9439720212025822  0.0530504873407166
  0.4487284750609075  0.7169398805492129  0.0615420020104854
  0.5546529668481818  0.8814812504037465  0.0644370325437310
  0.4564484847107511  0.9423931922448086  0.0607804085923787
  0.7573540039102937  0.8819914526992174  0.0606782580834036
  0.6560051464845607  0.9387618810801784  0.0635733346918455
  0.8594346430641316  0.7226335681950365  0.0547224851916575
  0.9576730571624391  0.7775306512398220  0.0501834298214162
  0.9566108133354405  0.8886218240719453  0.0520026249826878
  0.8555372231597732  0.9420798658620805  0.0564030680098196
  0.6626680543713860  0.3973752969550297  0.0651719928801962
  0.5488750584191189  0.7700487539050311  0.0669754133248662
  0.4501742169432379  0.3906025595955093  0.0607901395399296
  0.4480494812222909  0.6081594464231419  0.0619839746920729
  0.7658151841891109  0.5569907492269616  0.0611614174806874
  0.7619870867945535  0.7731933124855824  0.0609387406340438
  0.6498700104334945  0.6587076633620000  0.0695061362192844
  0.5576013928031798  0.5003955796989648  0.0667052780500337
 
  0.00000000E+00  0.00000000E+00  0.00000000E+00
  0.00000000E+00  0.00000000E+00  0.00000000E+00
  0.00000000E+00  0.00000000E+00  0.00000000E+00
  0.00000000E+00  0.00000000E+00  0.00000000E+00
  0.00000000E+00  0.00000000E+00  0.00000000E+00
  0.00000000E+00  0.00000000E+00  0.00000000E+00
  0.00000000E+00  0.00000000E+00  0.00000000E+00
  0.00000000E+00  0.00000000E+00  0.00000000E+00
  0.00000000E+00  0.00000000E+00  0.00000000E+00
  0.00000000E+00  0.00000000E+00  0.00000000E+00
  0.00000000E+00  0.00000000E+00  0.00000000E+00
  0.00000000E+00  0.00000000E+00  0.00000000E+00
  0.00000000E+00  0.00000000E+00  0.00000000E+00
  0.00000000E+00  0.00000000E+00  0.00000000E+00
  0.00000000E+00  0.00000000E+00  0.00000000E+00
  0.00000000E+00  0.00000000E+00  0.00000000E+00
  0.00000000E+00  0.00000000E+00  0.00000000E+00
  0.00000000E+00  0.00000000E+00  0.00000000E+00
  0.00000000E+00  0.00000000E+00  0.00000000E+00
  0.00000000E+00  0.00000000E+00  0.00000000E+00
  0.00000000E+00  0.00000000E+00  0.00000000E+00
  0.00000000E+00  0.00000000E+00  0.00000000E+00
  0.00000000E+00  0.00000000E+00  0.00000000E+00
  0.00000000E+00  0.00000000E+00  0.00000000E+00
  0.00000000E+00  0.00000000E+00  0.00000000E+00
  0.00000000E+00  0.00000000E+00  0.00000000E+00
  0.00000000E+00  0.00000000E+00  0.00000000E+00
  0.00000000E+00  0.00000000E+00  0.00000000E+00
  0.00000000E+00  0.00000000E+00  0.00000000E+00
  0.00000000E+00  0.00000000E+00  0.00000000E+00
  0.00000000E+00  0.00000000E+00  0.00000000E+00
  0.00000000E+00  0.00000000E+00  0.00000000E+00
  0.00000000E+00  0.00000000E+00  0.00000000E+00
  0.00000000E+00  0.00000000E+00  0.00000000E+00
  0.00000000E+00  0.00000000E+00  0.00000000E+00
  0.00000000E+00  0.00000000E+00  0.00000000E+00
  0.00000000E+00  0.00000000E+00  0.00000000E+00
  0.00000000E+00  0.00000000E+00  0.00000000E+00
  0.00000000E+00  0.00000000E+00  0.00000000E+00
  0.00000000E+00  0.00000000E+00  0.00000000E+00
  0.00000000E+00  0.00000000E+00  0.00000000E+00
  0.00000000E+00  0.00000000E+00  0.00000000E+00
  0.00000000E+00  0.00000000E+00  0.00000000E+00
  0.00000000E+00  0.00000000E+00  0.00000000E+00
  0.00000000E+00  0.00000000E+00  0.00000000E+00
  0.00000000E+00  0.00000000E+00  0.00000000E+00
  0.00000000E+00  0.00000000E+00  0.00000000E+00
  0.00000000E+00  0.00000000E+00  0.00000000E+00
  0.00000000E+00  0.00000000E+00  0.00000000E+00
  0.00000000E+00  0.00000000E+00  0.00000000E+00
  0.00000000E+00  0.00000000E+00  0.00000000E+00
  0.00000000E+00  0.00000000E+00  0.00000000E+00
  0.00000000E+00  0.00000000E+00  0.00000000E+00
  0.00000000E+00  0.00000000E+00  0.00000000E+00
  0.00000000E+00  0.00000000E+00  0.00000000E+00
  0.00000000E+00  0.00000000E+00  0.00000000E+00
  0.00000000E+00  0.00000000E+00  0.00000000E+00
  0.00000000E+00  0.00000000E+00  0.00000000E+00
