CONTCAR\(2)                             
   1.00000000000000     
    12.3312997818000003    0.0000000000000000    0.0000000000000000
     0.0001127485000000   12.8291997905000006    0.0000000000000000
     0.0005937186000000    0.0011528207000000   19.9943999824000009
   C    N    Fe   Ni   O    H 
    52     4     1     1     2     2
Direct
  0.0551729523463897  0.0559461419636693  0.0476000289123885
  0.1553533905804088  0.1114769529916478  0.0472133389524943
  0.1553321276855495  0.2223160436378040  0.0468794117156172
  0.0554127587083686  0.2777307697533611  0.0472241161619575
  0.2558537117145264  0.0564763190548178  0.0481178127417650
  0.3562913242064225  0.1118172606076380  0.0501902393255010
  0.3558919487125918  0.2234415645361350  0.0500017638491537
  0.2555110445913248  0.2777769063470593  0.0474717727197184
  0.4562118099313432  0.0561340277964136  0.0529153884311099
  0.5560142771342058  0.1128157090589171  0.0558512965002967
  0.5559830435180554  0.2255717213028185  0.0574196309626164
  0.4547484982348876  0.2816238671273134  0.0536351286155477
  0.6552697232317426  0.0530075919807393  0.0561294773429514
  0.7545083680530326  0.1107758323461103  0.0542264750570035
  0.7551795783984940  0.2234638989223240  0.0550275032760508
  0.6565769345105690  0.2829688572652383  0.0597858453065926
  0.8543343645210989  0.0545777582686302  0.0514350652126511
  0.9546163026588413  0.1109363064687396  0.0491519460039964
  0.9549818544210998  0.2226378145432561  0.0491396476824654
  0.8551174405265947  0.2791411172699576  0.0520017151642353
  0.0567030572668198  0.3890322273979466  0.0468861453026797
  0.1563501808714632  0.4447169988224138  0.0461876950896052
  0.1575388102432949  0.5556476111658769  0.0460292667750220
  0.0577631112711500  0.6114648826564254  0.0463006505333013
  0.2560155289127948  0.3887508381657898  0.0469338187765329
  0.3560224583859067  0.4429181482311759  0.0491439832827630
  0.3599015364237348  0.5565330337461885  0.0505616347728227
  0.2578804591965075  0.6109122937551920  0.0472354193053087
  0.7591703875868664  0.4506491077527218  0.0585823360405763
  0.8570142768234269  0.3911320155151962  0.0519936212156221
  0.9574477306546879  0.4449485178271951  0.0486626150079077
  0.9580696384757025  0.5559348517787863  0.0484547339263064
  0.8580893296778523  0.6107097433477242  0.0523558097940374
  0.0570922035946687  0.7223676073862422  0.0463592883119960
  0.1559402157383004  0.7782028448948441  0.0463639540737604
  0.1556780653173293  0.8893794048870082  0.0467501694677733
  0.0555309061370122  0.9447876811707521  0.0473227916810198
  0.2554937803136182  0.7220325869445441  0.0474524557458970
  0.3535971695255514  0.7786038456274711  0.0499209486775583
  0.3548285696378365  0.8897236706665183  0.0498447487639470
  0.2552858739958111  0.9454641103972258  0.0478195710841588
  0.4523022460110740  0.7227935532000078  0.0552123172587101
  0.5531964455476548  0.8841801331404556  0.0562961581701284
  0.4551006911491423  0.9443626978126818  0.0528556746248957
  0.7563316606232059  0.8826671382179740  0.0547516941461745
  0.6553390624656591  0.9393287962438835  0.0565762526762676
  0.8584528069723987  0.7229369770794990  0.0510852525206045
  0.9574464932886823  0.7778806077102933  0.0479398777937549
  0.9561472077149165  0.8888724528424904  0.0486261345318834
  0.8549090507275682  0.9424156211349963  0.0514332549131627
  0.4599324444833853  0.6114222452317094  0.0578098501614447
  0.6617962210946984  0.3933346211251633  0.0659177230607508
  0.4517644931982507  0.3892937821429966  0.0532744715784370
  0.7605406373545250  0.5602770885023379  0.0590192724292918
  0.5477267816777686  0.7781141356482916  0.0582291893462093
  0.7608167478938237  0.7739775983126042  0.0552229629116890
  0.6512616381698344  0.6710538776408378  0.0795611501282994
  0.5529904445778401  0.4831644911472510  0.0902582275363940
  0.5892586443715071  0.4936863511613452  0.1770123050381178
  0.6580621315915064  0.6899917495847373  0.1725632137643646
  0.7286044656808035  0.7064517978578146  0.1917044952534660
  0.6117848506698615  0.5665658878828171  0.1871212515932197
 
  0.00000000E+00  0.00000000E+00  0.00000000E+00
  0.00000000E+00  0.00000000E+00  0.00000000E+00
  0.00000000E+00  0.00000000E+00  0.00000000E+00
  0.00000000E+00  0.00000000E+00  0.00000000E+00
  0.00000000E+00  0.00000000E+00  0.00000000E+00
  0.00000000E+00  0.00000000E+00  0.00000000E+00
  0.00000000E+00  0.00000000E+00  0.00000000E+00
  0.00000000E+00  0.00000000E+00  0.00000000E+00
  0.00000000E+00  0.00000000E+00  0.00000000E+00
  0.00000000E+00  0.00000000E+00  0.00000000E+00
  0.00000000E+00  0.00000000E+00  0.00000000E+00
  0.00000000E+00  0.00000000E+00  0.00000000E+00
  0.00000000E+00  0.00000000E+00  0.00000000E+00
  0.00000000E+00  0.00000000E+00  0.00000000E+00
  0.00000000E+00  0.00000000E+00  0.00000000E+00
  0.00000000E+00  0.00000000E+00  0.00000000E+00
  0.00000000E+00  0.00000000E+00  0.00000000E+00
  0.00000000E+00  0.00000000E+00  0.00000000E+00
  0.00000000E+00  0.00000000E+00  0.00000000E+00
  0.00000000E+00  0.00000000E+00  0.00000000E+00
  0.00000000E+00  0.00000000E+00  0.00000000E+00
  0.00000000E+00  0.00000000E+00  0.00000000E+00
  0.00000000E+00  0.00000000E+00  0.00000000E+00
  0.00000000E+00  0.00000000E+00  0.00000000E+00
  0.00000000E+00  0.00000000E+00  0.00000000E+00
  0.00000000E+00  0.00000000E+00  0.00000000E+00
  0.00000000E+00  0.00000000E+00  0.00000000E+00
  0.00000000E+00  0.00000000E+00  0.00000000E+00
  0.00000000E+00  0.00000000E+00  0.00000000E+00
  0.00000000E+00  0.00000000E+00  0.00000000E+00
  0.00000000E+00  0.00000000E+00  0.00000000E+00
  0.00000000E+00  0.00000000E+00  0.00000000E+00
  0.00000000E+00  0.00000000E+00  0.00000000E+00
  0.00000000E+00  0.00000000E+00  0.00000000E+00
  0.00000000E+00  0.00000000E+00  0.00000000E+00
  0.00000000E+00  0.00000000E+00  0.00000000E+00
  0.00000000E+00  0.00000000E+00  0.00000000E+00
  0.00000000E+00  0.00000000E+00  0.00000000E+00
  0.00000000E+00  0.00000000E+00  0.00000000E+00
  0.00000000E+00  0.00000000E+00  0.00000000E+00
  0.00000000E+00  0.00000000E+00  0.00000000E+00
  0.00000000E+00  0.00000000E+00  0.00000000E+00
  0.00000000E+00  0.00000000E+00  0.00000000E+00
  0.00000000E+00  0.00000000E+00  0.00000000E+00
  0.00000000E+00  0.00000000E+00  0.00000000E+00
  0.00000000E+00  0.00000000E+00  0.00000000E+00
  0.00000000E+00  0.00000000E+00  0.00000000E+00
  0.00000000E+00  0.00000000E+00  0.00000000E+00
  0.00000000E+00  0.00000000E+00  0.00000000E+00
  0.00000000E+00  0.00000000E+00  0.00000000E+00
  0.00000000E+00  0.00000000E+00  0.00000000E+00
  0.00000000E+00  0.00000000E+00  0.00000000E+00
  0.00000000E+00  0.00000000E+00  0.00000000E+00
  0.00000000E+00  0.00000000E+00  0.00000000E+00
  0.00000000E+00  0.00000000E+00  0.00000000E+00
  0.00000000E+00  0.00000000E+00  0.00000000E+00
  0.00000000E+00  0.00000000E+00  0.00000000E+00
  0.00000000E+00  0.00000000E+00  0.00000000E+00
  0.00000000E+00  0.00000000E+00  0.00000000E+00
  0.00000000E+00  0.00000000E+00  0.00000000E+00
  0.00000000E+00  0.00000000E+00  0.00000000E+00
  0.00000000E+00  0.00000000E+00  0.00000000E+00
