CONTCAR                                 
   1.00000000000000     
    12.3312997818000003    0.0000000000000000    0.0000000000000000
     0.0001127485000000   12.8291997905000006    0.0000000000000000
     0.0005937186000000    0.0011528207000000   19.9943999824000009
   C    N    Fe   Ni   O 
    54     2     1     1     2
Direct
  0.0570271252569282  0.0565511608995217  0.0478033800441615
  0.1572664757585699  0.1112718173789192  0.0477190314353967
  0.1568037214978014  0.2223791416866552  0.0473542531485952
  0.0563757530917351  0.2777212071480603  0.0472886735870922
  0.2575358857602223  0.0553425895943864  0.0490106789560300
  0.3579762592006575  0.1103873954753504  0.0513024524462291
  0.3576775817687135  0.2224753597174055  0.0511932765805444
  0.2570359401954219  0.2776221940984893  0.0483810363969340
  0.4576054450176336  0.0534339125910869  0.0544471012719607
  0.5573062882661775  0.1100971857461386  0.0572443488108530
  0.5568906986883209  0.2218346144628710  0.0583646568976011
  0.4573204702722073  0.2796684440422783  0.0550494923596724
  0.6573301340687066  0.0519875043542520  0.0575477832002066
  0.7564594719949992  0.1101296426070110  0.0548812791897735
  0.7564587470944882  0.2223018678081026  0.0555084751752391
  0.6569086937037970  0.2794513606344745  0.0601921156838298
  0.8565353517137579  0.0553641878963254  0.0516117019159520
  0.9564674174894581  0.1114806708448004  0.0491624529962545
  0.9560681782191649  0.2227222487656884  0.0490457416066715
  0.8558284918166098  0.2786087559558609  0.0519240578324080
  0.0560301252978628  0.3889912860197253  0.0468571346245870
  0.1555282398849788  0.4440473387492494  0.0466323014932349
  0.1551118678866642  0.5552140721164055  0.0464252652391964
  0.0560887250520646  0.6112124443353814  0.0464821055861504
  0.2559085561571821  0.3887921202770327  0.0480982425197478
  0.3553642691190778  0.4446308763582875  0.0510334847903768
  0.3538889465680276  0.5574823870400109  0.0525246632037066
  0.2541039135998996  0.6115312653343050  0.0483391050659921
  0.7562990078181242  0.4482704338928585  0.0593718287034973
  0.8559194423651766  0.3905862355188290  0.0521132305374525
  0.9559666951530941  0.4452586905401943  0.0485180259948790
  0.9561579606148234  0.5562379946423773  0.0484206721354366
  0.8561301234010993  0.6126626558072461  0.0524812097697851
  0.0572039052570940  0.7225340359111784  0.0465643465062101
  0.1559617367543054  0.7783784522141028  0.0466345012305835
  0.1571089335232104  0.8895597824928909  0.0471831943321782
  0.0575098446950392  0.9456117314990264  0.0474529046647726
  0.2549023528231142  0.7220807081001388  0.0482682159067242
  0.3549547155947490  0.7755540416793583  0.0515036377651200
  0.3572422011456771  0.8870446613967192  0.0516213624541958
  0.2575331065464957  0.9440182096124932  0.0488732830264341
  0.4522925622431624  0.7157753016100836  0.0582685897093294
  0.5568063623997493  0.8811421863355130  0.0604833133459758
  0.4577357128364496  0.9410748813463956  0.0551692971994797
  0.7591260813596502  0.8854554263163036  0.0563863974362080
  0.6575565968137079  0.9395159546306070  0.0591937931982900
  0.8595151929593657  0.7254771886312912  0.0518428601665513
  0.9584838313124791  0.7793882159253754  0.0482648487445822
  0.9580710065219434  0.8901419111451769  0.0487618678164344
  0.8574039633547529  0.9438844863513024  0.0517018867936574
  0.4553447247495269  0.3911175388185973  0.0549497061889666
  0.6588290386873548  0.3891955941790175  0.0650622890837677
  0.7560867234228176  0.5613077947512513  0.0614982699117630
  0.5520216350490532  0.7700538127453090  0.0662301308430927
  0.4495010254180732  0.6079948073656388  0.0594864637471508
  0.7633457081035441  0.7776232864879694  0.0578929385183836
  0.6652916123130355  0.6805499459638878  0.0969273544396324
  0.5573824232727588  0.4897092075010928  0.0793302357483417
  0.5896982619945246  0.5209885278800223  0.1705710951374721
  0.6222145980549063  0.6242432327696896  0.1714979648852187
 
  0.00000000E+00  0.00000000E+00  0.00000000E+00
  0.00000000E+00  0.00000000E+00  0.00000000E+00
  0.00000000E+00  0.00000000E+00  0.00000000E+00
  0.00000000E+00  0.00000000E+00  0.00000000E+00
  0.00000000E+00  0.00000000E+00  0.00000000E+00
  0.00000000E+00  0.00000000E+00  0.00000000E+00
  0.00000000E+00  0.00000000E+00  0.00000000E+00
  0.00000000E+00  0.00000000E+00  0.00000000E+00
  0.00000000E+00  0.00000000E+00  0.00000000E+00
  0.00000000E+00  0.00000000E+00  0.00000000E+00
  0.00000000E+00  0.00000000E+00  0.00000000E+00
  0.00000000E+00  0.00000000E+00  0.00000000E+00
  0.00000000E+00  0.00000000E+00  0.00000000E+00
  0.00000000E+00  0.00000000E+00  0.00000000E+00
  0.00000000E+00  0.00000000E+00  0.00000000E+00
  0.00000000E+00  0.00000000E+00  0.00000000E+00
  0.00000000E+00  0.00000000E+00  0.00000000E+00
  0.00000000E+00  0.00000000E+00  0.00000000E+00
  0.00000000E+00  0.00000000E+00  0.00000000E+00
  0.00000000E+00  0.00000000E+00  0.00000000E+00
  0.00000000E+00  0.00000000E+00  0.00000000E+00
  0.00000000E+00  0.00000000E+00  0.00000000E+00
  0.00000000E+00  0.00000000E+00  0.00000000E+00
  0.00000000E+00  0.00000000E+00  0.00000000E+00
  0.00000000E+00  0.00000000E+00  0.00000000E+00
  0.00000000E+00  0.00000000E+00  0.00000000E+00
  0.00000000E+00  0.00000000E+00  0.00000000E+00
  0.00000000E+00  0.00000000E+00  0.00000000E+00
  0.00000000E+00  0.00000000E+00  0.00000000E+00
  0.00000000E+00  0.00000000E+00  0.00000000E+00
  0.00000000E+00  0.00000000E+00  0.00000000E+00
  0.00000000E+00  0.00000000E+00  0.00000000E+00
  0.00000000E+00  0.00000000E+00  0.00000000E+00
  0.00000000E+00  0.00000000E+00  0.00000000E+00
  0.00000000E+00  0.00000000E+00  0.00000000E+00
  0.00000000E+00  0.00000000E+00  0.00000000E+00
  0.00000000E+00  0.00000000E+00  0.00000000E+00
  0.00000000E+00  0.00000000E+00  0.00000000E+00
  0.00000000E+00  0.00000000E+00  0.00000000E+00
  0.00000000E+00  0.00000000E+00  0.00000000E+00
  0.00000000E+00  0.00000000E+00  0.00000000E+00
  0.00000000E+00  0.00000000E+00  0.00000000E+00
  0.00000000E+00  0.00000000E+00  0.00000000E+00
  0.00000000E+00  0.00000000E+00  0.00000000E+00
  0.00000000E+00  0.00000000E+00  0.00000000E+00
  0.00000000E+00  0.00000000E+00  0.00000000E+00
  0.00000000E+00  0.00000000E+00  0.00000000E+00
  0.00000000E+00  0.00000000E+00  0.00000000E+00
  0.00000000E+00  0.00000000E+00  0.00000000E+00
  0.00000000E+00  0.00000000E+00  0.00000000E+00
  0.00000000E+00  0.00000000E+00  0.00000000E+00
  0.00000000E+00  0.00000000E+00  0.00000000E+00
  0.00000000E+00  0.00000000E+00  0.00000000E+00
  0.00000000E+00  0.00000000E+00  0.00000000E+00
  0.00000000E+00  0.00000000E+00  0.00000000E+00
  0.00000000E+00  0.00000000E+00  0.00000000E+00
  0.00000000E+00  0.00000000E+00  0.00000000E+00
  0.00000000E+00  0.00000000E+00  0.00000000E+00
  0.00000000E+00  0.00000000E+00  0.00000000E+00
  0.00000000E+00  0.00000000E+00  0.00000000E+00
