CONTCAR\(3)                             
   1.00000000000000     
    12.3312997818000003    0.0000000000000000    0.0000000000000000
     0.0001127485000000   12.8291997905000006    0.0000000000000000
     0.0005937186000000    0.0011528207000000   19.9943999824000009
   C    N    Fe   Ni   O 
    54     2     1     1     2
Direct
  0.0545076855826543  0.0525218403564318  0.0479895998022197
  0.1549688090994652  0.1069150298609667  0.0476663027119286
  0.1541480938526556  0.2178600954696928  0.0469359554551525
  0.0541939272278372  0.2737265733484219  0.0486776435877982
  0.2554307162850186  0.0514736764496277  0.0490582740381191
  0.3557081932682659  0.1070193289348388  0.0523660484527803
  0.3546293296854808  0.2190513782275404  0.0504559545574238
  0.2539609420683743  0.2731116444334584  0.0460425555267408
  0.4554185715449963  0.0510815513364245  0.0578141315284067
  0.5539524063038075  0.1098112386495364  0.0625343639810473
  0.5536726715006730  0.2223482655170632  0.0628607513845234
  0.4529504344000718  0.2781352268912475  0.0546871557148322
  0.6538962400585303  0.0509442376011296  0.0646810289472037
  0.7539821737065486  0.1081931642566484  0.0613982239243714
  0.7541419791280113  0.2203590552669965  0.0638588502898427
  0.6547007306161403  0.2792043108273013  0.0690760917973888
  0.8538429092748197  0.0525181535548412  0.0553772223644772
  0.9540408209394189  0.1080575344434145  0.0518226305796807
  0.9537834608279060  0.2192350034737665  0.0533105897711339
  0.8541371951256277  0.2757124073434869  0.0598426003933829
  0.0544396788941794  0.3848589630203182  0.0467211265254400
  0.1534949602863957  0.4402108156304658  0.0419373034491137
  0.1536368398040297  0.5514600298164277  0.0400520983434296
  0.0549794057783937  0.6075990210344331  0.0419180801804164
  0.2529945518192188  0.3841090283884901  0.0428646005788370
  0.3526298935095943  0.4383865547838479  0.0444296668256964
  0.3524920500775699  0.5524858186246219  0.0449789889217873
  0.2529451619955430  0.6070583827241995  0.0410506892820747
  0.7576226323885861  0.4461210454269026  0.0734804966424269
  0.8557135112982099  0.3874745287631249  0.0614888692431877
  0.9551739470324749  0.4411710243714361  0.0519509995455622
  0.9560024629298952  0.5519023629230244  0.0488201221720516
  0.8580382479275238  0.6086313148461854  0.0577104444707436
  0.0556145839679022  0.7194167069209451  0.0416141846480759
  0.1551093875656488  0.7746450848674423  0.0418569216453194
  0.1552792045821313  0.8858510578193363  0.0444135470471028
  0.0551232584659592  0.9416923596854886  0.0456953310003425
  0.2547068831274175  0.7181450326235391  0.0432281643508450
  0.3550713979743783  0.7714310759527155  0.0501572423161651
  0.3558227594214897  0.8833173735819584  0.0524244170585971
  0.2558152304822398  0.9400988065702900  0.0480920853695350
  0.4530848730242582  0.7106211666733752  0.0584631525201009
  0.5543676873532223  0.8785639069849502  0.0676733574899884
  0.4558053347914713  0.9381430653319329  0.0590924459325133
  0.7555236877168254  0.8836303706676170  0.0618434975863152
  0.6543780311157317  0.9388668216539732  0.0670733399535304
  0.8578776699960773  0.7208922588880284  0.0536444572072327
  0.9564016973131197  0.7758988029499324  0.0452978141647556
  0.9550326589265417  0.8866273403068158  0.0471737799904414
  0.8544132858813547  0.9409998435155358  0.0536002850678922
  0.6590430497984033  0.3886467957755655  0.0779936546875314
  0.7622632223724460  0.5584380794404160  0.0752015252659238
  0.5512792933174093  0.7666183936225889  0.0733437723157732
  0.7607452425440920  0.7734866300023777  0.0648334026188102
  0.4490862204195422  0.3862835720505923  0.0509943707745046
  0.4475197716454877  0.6027559979368597  0.0540293701237486
  0.6619603034217265  0.6786156580865245  0.1162735343304042
  0.5481830600961468  0.4844580346763758  0.0802426906248220
  0.5935104207782881  0.5697566980320646  0.1443360407490880
  0.7017810166627930  0.7519903707864733  0.1777881361714229
 
  0.00000000E+00  0.00000000E+00  0.00000000E+00
  0.00000000E+00  0.00000000E+00  0.00000000E+00
  0.00000000E+00  0.00000000E+00  0.00000000E+00
  0.00000000E+00  0.00000000E+00  0.00000000E+00
  0.00000000E+00  0.00000000E+00  0.00000000E+00
  0.00000000E+00  0.00000000E+00  0.00000000E+00
  0.00000000E+00  0.00000000E+00  0.00000000E+00
  0.00000000E+00  0.00000000E+00  0.00000000E+00
  0.00000000E+00  0.00000000E+00  0.00000000E+00
  0.00000000E+00  0.00000000E+00  0.00000000E+00
  0.00000000E+00  0.00000000E+00  0.00000000E+00
  0.00000000E+00  0.00000000E+00  0.00000000E+00
  0.00000000E+00  0.00000000E+00  0.00000000E+00
  0.00000000E+00  0.00000000E+00  0.00000000E+00
  0.00000000E+00  0.00000000E+00  0.00000000E+00
  0.00000000E+00  0.00000000E+00  0.00000000E+00
  0.00000000E+00  0.00000000E+00  0.00000000E+00
  0.00000000E+00  0.00000000E+00  0.00000000E+00
  0.00000000E+00  0.00000000E+00  0.00000000E+00
  0.00000000E+00  0.00000000E+00  0.00000000E+00
  0.00000000E+00  0.00000000E+00  0.00000000E+00
  0.00000000E+00  0.00000000E+00  0.00000000E+00
  0.00000000E+00  0.00000000E+00  0.00000000E+00
  0.00000000E+00  0.00000000E+00  0.00000000E+00
  0.00000000E+00  0.00000000E+00  0.00000000E+00
  0.00000000E+00  0.00000000E+00  0.00000000E+00
  0.00000000E+00  0.00000000E+00  0.00000000E+00
  0.00000000E+00  0.00000000E+00  0.00000000E+00
  0.00000000E+00  0.00000000E+00  0.00000000E+00
  0.00000000E+00  0.00000000E+00  0.00000000E+00
  0.00000000E+00  0.00000000E+00  0.00000000E+00
  0.00000000E+00  0.00000000E+00  0.00000000E+00
  0.00000000E+00  0.00000000E+00  0.00000000E+00
  0.00000000E+00  0.00000000E+00  0.00000000E+00
  0.00000000E+00  0.00000000E+00  0.00000000E+00
  0.00000000E+00  0.00000000E+00  0.00000000E+00
  0.00000000E+00  0.00000000E+00  0.00000000E+00
  0.00000000E+00  0.00000000E+00  0.00000000E+00
  0.00000000E+00  0.00000000E+00  0.00000000E+00
  0.00000000E+00  0.00000000E+00  0.00000000E+00
  0.00000000E+00  0.00000000E+00  0.00000000E+00
  0.00000000E+00  0.00000000E+00  0.00000000E+00
  0.00000000E+00  0.00000000E+00  0.00000000E+00
  0.00000000E+00  0.00000000E+00  0.00000000E+00
  0.00000000E+00  0.00000000E+00  0.00000000E+00
  0.00000000E+00  0.00000000E+00  0.00000000E+00
  0.00000000E+00  0.00000000E+00  0.00000000E+00
  0.00000000E+00  0.00000000E+00  0.00000000E+00
  0.00000000E+00  0.00000000E+00  0.00000000E+00
  0.00000000E+00  0.00000000E+00  0.00000000E+00
  0.00000000E+00  0.00000000E+00  0.00000000E+00
  0.00000000E+00  0.00000000E+00  0.00000000E+00
  0.00000000E+00  0.00000000E+00  0.00000000E+00
  0.00000000E+00  0.00000000E+00  0.00000000E+00
  0.00000000E+00  0.00000000E+00  0.00000000E+00
  0.00000000E+00  0.00000000E+00  0.00000000E+00
  0.00000000E+00  0.00000000E+00  0.00000000E+00
  0.00000000E+00  0.00000000E+00  0.00000000E+00
  0.00000000E+00  0.00000000E+00  0.00000000E+00
  0.00000000E+00  0.00000000E+00  0.00000000E+00
