POSCAR\(2)                              
   1.00000000000000     
    12.3312997818000003    0.0000000000000000    0.0000000000000000
     0.0001127485000000   12.8291997905000006    0.0000000000000000
     0.0005937186000000    0.0011528207000000   19.9943999824000009
   C    N    Fe   Ni
    54     2     1     1
Direct
  0.0563135439287537  0.0536496145605023  0.0557662503229259
  0.1563947665840641  0.1094932427718996  0.0557830710239803
  0.1565533410870766  0.2204514077356791  0.0557658409915486
  0.0570460995675118  0.2758205877626637  0.0557438208547370
  0.2568622866510559  0.0552882616501404  0.0558049337985905
  0.3567602781274429  0.1122955154227571  0.0557681014648402
  0.3567732158227563  0.2239329549849727  0.0557348793589013
  0.2558020046846354  0.2767208475942585  0.0557592409363684
  0.4566289577341247  0.0575776075528842  0.0557243025766302
  0.5564293249681043  0.1149378479737262  0.0556784496033382
  0.5568388925003316  0.2278147410652148  0.0556491527997116
  0.4555071746681280  0.2836506594493740  0.0556644280516402
  0.6559147780800454  0.0558450883242139  0.0556961928871461
  0.7563862672612582  0.1107389229325651  0.0557122611435533
  0.7577703601223964  0.2222119091895412  0.0557018876515764
  0.6596305664252298  0.2823928557007937  0.0556564186341787
  0.8554745454839193  0.0533140549111103  0.0557225023489523
  0.9561717085050020  0.1086375724205217  0.0557391531028449
  0.9574368223816496  0.2197587423052320  0.0557312173073122
  0.8584299105248936  0.2759588633197811  0.0557128524423635
  0.0576729971060858  0.3871659594012788  0.0557447144450877
  0.1560616119944288  0.4435257630955318  0.0557617740013888
  0.1561856883411504  0.5548398700047352  0.0557768629576354
  0.0563290709232331  0.6100264530500570  0.0557696991866097
  0.2550779747888084  0.3874210519373824  0.0557488733575071
  0.3540276247328481  0.4420038775616744  0.0557054840571720
  0.3564155451653637  0.5545807100256793  0.0557150284857134
  0.2561169612305135  0.6100964255678096  0.0557644483938666
  0.7617442722704630  0.4426124860445433  0.0556714535597215
  0.8603731176608090  0.3866144154125015  0.0556997222226993
  0.9585412199531941  0.4428358930985706  0.0557291622227876
  0.9569231275286952  0.5536581918828813  0.0557306799541509
  0.8556592570933574  0.6074356701833333  0.0556951214068174
  0.0561202747209483  0.7213015541221787  0.0557788909083956
  0.1556724238028586  0.7766799327228707  0.0558007378555805
  0.1560905067433874  0.8879536875375661  0.0558078805383204
  0.0557460632201855  0.9427142630643008  0.0557838161270489
  0.2558072241775136  0.7211353798239956  0.0557800438764672
  0.3553956869342371  0.7764295979378951  0.0557506423474704
  0.3563330395057235  0.8883993165316363  0.0557705349873267
  0.2562969311728941  0.9437765213981683  0.0558108857907494
  0.4557987818764346  0.7191509535995415  0.0556657033265277
  0.5548943217427322  0.8894632404529709  0.0556798864663959
  0.4556937294898044  0.9458187405644612  0.0557353268845133
  0.7541840748108458  0.8834576190307853  0.0556550265133430
  0.6557106323168460  0.9441380705778107  0.0556781096067175
  0.8558856839388571  0.7204707659796419  0.0556865710607381
  0.9555641768650615  0.7761437179491144  0.0557418294706854
  0.9553531685530613  0.8871636793027654  0.0557471431810484
  0.8544675303401457  0.9412158001926597  0.0556949571309981
  0.7555160475744734  0.5536427169452398  0.0556660504198593
  0.5529086545747215  0.7803505817904680  0.0556325221329837
  0.7540463216821113  0.7706663161412090  0.0556380154215018
  0.4579709522775300  0.6056600794007206  0.0556538573106175
  0.4509796695408758  0.3915269782889640  0.0556477744474602
  0.6653847769501575  0.3883402484337442  0.0556414428501385
  0.6345243121353242  0.6639968722473470  0.0556246576342487
  0.5647716351559336  0.4956952600701327  0.0556197151585167
 
  0.00000000E+00  0.00000000E+00  0.00000000E+00
  0.00000000E+00  0.00000000E+00  0.00000000E+00
  0.00000000E+00  0.00000000E+00  0.00000000E+00
  0.00000000E+00  0.00000000E+00  0.00000000E+00
  0.00000000E+00  0.00000000E+00  0.00000000E+00
  0.00000000E+00  0.00000000E+00  0.00000000E+00
  0.00000000E+00  0.00000000E+00  0.00000000E+00
  0.00000000E+00  0.00000000E+00  0.00000000E+00
  0.00000000E+00  0.00000000E+00  0.00000000E+00
  0.00000000E+00  0.00000000E+00  0.00000000E+00
  0.00000000E+00  0.00000000E+00  0.00000000E+00
  0.00000000E+00  0.00000000E+00  0.00000000E+00
  0.00000000E+00  0.00000000E+00  0.00000000E+00
  0.00000000E+00  0.00000000E+00  0.00000000E+00
  0.00000000E+00  0.00000000E+00  0.00000000E+00
  0.00000000E+00  0.00000000E+00  0.00000000E+00
  0.00000000E+00  0.00000000E+00  0.00000000E+00
  0.00000000E+00  0.00000000E+00  0.00000000E+00
  0.00000000E+00  0.00000000E+00  0.00000000E+00
  0.00000000E+00  0.00000000E+00  0.00000000E+00
  0.00000000E+00  0.00000000E+00  0.00000000E+00
  0.00000000E+00  0.00000000E+00  0.00000000E+00
  0.00000000E+00  0.00000000E+00  0.00000000E+00
  0.00000000E+00  0.00000000E+00  0.00000000E+00
  0.00000000E+00  0.00000000E+00  0.00000000E+00
  0.00000000E+00  0.00000000E+00  0.00000000E+00
  0.00000000E+00  0.00000000E+00  0.00000000E+00
  0.00000000E+00  0.00000000E+00  0.00000000E+00
  0.00000000E+00  0.00000000E+00  0.00000000E+00
  0.00000000E+00  0.00000000E+00  0.00000000E+00
  0.00000000E+00  0.00000000E+00  0.00000000E+00
  0.00000000E+00  0.00000000E+00  0.00000000E+00
  0.00000000E+00  0.00000000E+00  0.00000000E+00
  0.00000000E+00  0.00000000E+00  0.00000000E+00
  0.00000000E+00  0.00000000E+00  0.00000000E+00
  0.00000000E+00  0.00000000E+00  0.00000000E+00
  0.00000000E+00  0.00000000E+00  0.00000000E+00
  0.00000000E+00  0.00000000E+00  0.00000000E+00
  0.00000000E+00  0.00000000E+00  0.00000000E+00
  0.00000000E+00  0.00000000E+00  0.00000000E+00
  0.00000000E+00  0.00000000E+00  0.00000000E+00
  0.00000000E+00  0.00000000E+00  0.00000000E+00
  0.00000000E+00  0.00000000E+00  0.00000000E+00
  0.00000000E+00  0.00000000E+00  0.00000000E+00
  0.00000000E+00  0.00000000E+00  0.00000000E+00
  0.00000000E+00  0.00000000E+00  0.00000000E+00
  0.00000000E+00  0.00000000E+00  0.00000000E+00
  0.00000000E+00  0.00000000E+00  0.00000000E+00
  0.00000000E+00  0.00000000E+00  0.00000000E+00
  0.00000000E+00  0.00000000E+00  0.00000000E+00
  0.00000000E+00  0.00000000E+00  0.00000000E+00
  0.00000000E+00  0.00000000E+00  0.00000000E+00
  0.00000000E+00  0.00000000E+00  0.00000000E+00
  0.00000000E+00  0.00000000E+00  0.00000000E+00
  0.00000000E+00  0.00000000E+00  0.00000000E+00
  0.00000000E+00  0.00000000E+00  0.00000000E+00
  0.00000000E+00  0.00000000E+00  0.00000000E+00
  0.00000000E+00  0.00000000E+00  0.00000000E+00
