CONTCAR\(5)                             
   1.00000000000000     
    12.3312997818000003    0.0000000000000000    0.0000000000000000
     0.0001127485000000   12.8291997905000006    0.0000000000000000
     0.0005937186000000    0.0011528207000000   19.9943999824000009
   C    N    Fe   Ni   O 
    51     5     1     1     2
Direct
  0.0552619570576737  0.0545730357687124  0.0485824524231082
  0.1557898235115263  0.1101525616529424  0.0484760337274576
  0.1558725186628166  0.2210297919860084  0.0478033888528968
  0.0554622719896545  0.2760095755823110  0.0473544149553959
  0.2561434758682835  0.0552278144019589  0.0499738822652320
  0.3566858561600863  0.1105560987492194  0.0527473590627905
  0.3563251854381707  0.2225410710618870  0.0526041880337310
  0.2559365116804347  0.2767642995450613  0.0490410574218408
  0.4564809639670732  0.0539584956111058  0.0558743208811641
  0.5560397028941602  0.1109714265880738  0.0588531360471962
  0.5561302666558455  0.2245120281210104  0.0606516301460771
  0.4553828663702696  0.2814054806465394  0.0570062720972431
  0.6547001941163931  0.0507332725189524  0.0586373181782555
  0.7541404282613468  0.1087622618753605  0.0560778854599472
  0.7550544858987404  0.2213832600297458  0.0567452156316090
  0.6568470460288459  0.2815805799548204  0.0626462062395542
  0.8542013768494343  0.0527435434412701  0.0527301253814616
  0.9545077181008467  0.1091600675132388  0.0500844407203669
  0.9549906797410849  0.2208760826939150  0.0495969539158004
  0.8551538415930746  0.2771665308534466  0.0524834411125370
  0.0564547868200629  0.3869968603819859  0.0462422328873348
  0.1560763924420989  0.4431571140606586  0.0459100766185262
  0.1560783558895544  0.5538144645144791  0.0455558624911466
  0.0571294113966575  0.6100865811891827  0.0455924702043552
  0.2559764294322451  0.3882772581819654  0.0480997885890985
  0.3556808456341177  0.4433842459988266  0.0518236959240643
  0.3556933183755489  0.5565871787044484  0.0531457992434506
  0.2552276541312850  0.6097610315519634  0.0480115659444022
  0.7597015452604056  0.4491658004441577  0.0586819293858858
  0.8572571973662924  0.3890515104028039  0.0515425768336866
  0.9574244594924550  0.4428559515735837  0.0475556869439181
  0.9580420204255575  0.5541686112412586  0.0475065058904399
  0.8591321062549888  0.6089306862892564  0.0515697771752708
  0.0566893004167292  0.7208040047162660  0.0459929445686118
  0.1552372848961044  0.7771709439767072  0.0466294171500344
  0.1556274527104792  0.8882233733739111  0.0475649173324929
  0.0555273783012111  0.9436218387639954  0.0480888462999431
  0.2539371253127286  0.7209778614398792  0.0484496062862256
  0.3524292436459079  0.7765671179062655  0.0519682772202535
  0.3546695474849173  0.8877121822337467  0.0520223336365816
  0.2555379663996836  0.9438136498401796  0.0494838980078462
  0.4494327866043352  0.7185652563133147  0.0581562371190866
  0.5525854380402518  0.8806560271039301  0.0590188483318464
  0.4554703768567009  0.9417579212186199  0.0556533256086455
  0.7562222139644372  0.8802772075436246  0.0568128036157506
  0.6542491033156353  0.9360871561509015  0.0590811132499209
  0.8593285605963458  0.7211283244957657  0.0517251562044957
  0.9574357161765430  0.7764343652971789  0.0482110875490781
  0.9560177668419096  0.8875227419728561  0.0494149176915126
  0.8547869779664109  0.9406409817462860  0.0527358613939838
  0.6626035112719043  0.3921947665658618  0.0686657638101113
  0.4522944878689441  0.3894763767390885  0.0572741604476697
  0.4508925541563011  0.6115709639741510  0.0612077773840102
  0.7618421181800554  0.5585159654478375  0.0570631153369984
  0.5468991174845247  0.7716898516939090  0.0609259492496439
  0.7613870203410018  0.7720566411806647  0.0576039139915043
  0.6540216197215323  0.6695106149388050  0.0736769935146772
  0.5546403809741169  0.4851252104851715  0.0877993360498476
  0.6095637761429938  0.5392092955312744  0.1657171609971479
  0.6468895085612487  0.6422548412196594  0.1592985252668133
 
  0.00000000E+00  0.00000000E+00  0.00000000E+00
  0.00000000E+00  0.00000000E+00  0.00000000E+00
  0.00000000E+00  0.00000000E+00  0.00000000E+00
  0.00000000E+00  0.00000000E+00  0.00000000E+00
  0.00000000E+00  0.00000000E+00  0.00000000E+00
  0.00000000E+00  0.00000000E+00  0.00000000E+00
  0.00000000E+00  0.00000000E+00  0.00000000E+00
  0.00000000E+00  0.00000000E+00  0.00000000E+00
  0.00000000E+00  0.00000000E+00  0.00000000E+00
  0.00000000E+00  0.00000000E+00  0.00000000E+00
  0.00000000E+00  0.00000000E+00  0.00000000E+00
  0.00000000E+00  0.00000000E+00  0.00000000E+00
  0.00000000E+00  0.00000000E+00  0.00000000E+00
  0.00000000E+00  0.00000000E+00  0.00000000E+00
  0.00000000E+00  0.00000000E+00  0.00000000E+00
  0.00000000E+00  0.00000000E+00  0.00000000E+00
  0.00000000E+00  0.00000000E+00  0.00000000E+00
  0.00000000E+00  0.00000000E+00  0.00000000E+00
  0.00000000E+00  0.00000000E+00  0.00000000E+00
  0.00000000E+00  0.00000000E+00  0.00000000E+00
  0.00000000E+00  0.00000000E+00  0.00000000E+00
  0.00000000E+00  0.00000000E+00  0.00000000E+00
  0.00000000E+00  0.00000000E+00  0.00000000E+00
  0.00000000E+00  0.00000000E+00  0.00000000E+00
  0.00000000E+00  0.00000000E+00  0.00000000E+00
  0.00000000E+00  0.00000000E+00  0.00000000E+00
  0.00000000E+00  0.00000000E+00  0.00000000E+00
  0.00000000E+00  0.00000000E+00  0.00000000E+00
  0.00000000E+00  0.00000000E+00  0.00000000E+00
  0.00000000E+00  0.00000000E+00  0.00000000E+00
  0.00000000E+00  0.00000000E+00  0.00000000E+00
  0.00000000E+00  0.00000000E+00  0.00000000E+00
  0.00000000E+00  0.00000000E+00  0.00000000E+00
  0.00000000E+00  0.00000000E+00  0.00000000E+00
  0.00000000E+00  0.00000000E+00  0.00000000E+00
  0.00000000E+00  0.00000000E+00  0.00000000E+00
  0.00000000E+00  0.00000000E+00  0.00000000E+00
  0.00000000E+00  0.00000000E+00  0.00000000E+00
  0.00000000E+00  0.00000000E+00  0.00000000E+00
  0.00000000E+00  0.00000000E+00  0.00000000E+00
  0.00000000E+00  0.00000000E+00  0.00000000E+00
  0.00000000E+00  0.00000000E+00  0.00000000E+00
  0.00000000E+00  0.00000000E+00  0.00000000E+00
  0.00000000E+00  0.00000000E+00  0.00000000E+00
  0.00000000E+00  0.00000000E+00  0.00000000E+00
  0.00000000E+00  0.00000000E+00  0.00000000E+00
  0.00000000E+00  0.00000000E+00  0.00000000E+00
  0.00000000E+00  0.00000000E+00  0.00000000E+00
  0.00000000E+00  0.00000000E+00  0.00000000E+00
  0.00000000E+00  0.00000000E+00  0.00000000E+00
  0.00000000E+00  0.00000000E+00  0.00000000E+00
  0.00000000E+00  0.00000000E+00  0.00000000E+00
  0.00000000E+00  0.00000000E+00  0.00000000E+00
  0.00000000E+00  0.00000000E+00  0.00000000E+00
  0.00000000E+00  0.00000000E+00  0.00000000E+00
  0.00000000E+00  0.00000000E+00  0.00000000E+00
  0.00000000E+00  0.00000000E+00  0.00000000E+00
  0.00000000E+00  0.00000000E+00  0.00000000E+00
  0.00000000E+00  0.00000000E+00  0.00000000E+00
  0.00000000E+00  0.00000000E+00  0.00000000E+00
