CONTCAR\(5)                             
   1.00000000000000     
    12.3312997818000003    0.0000000000000000    0.0000000000000000
     0.0001127485000000   12.8291997905000006    0.0000000000000000
     0.0005937186000000    0.0011528207000000   19.9943999824000009
   C    N    Fe   Ni   O    H 
    51     5     1     1     2     2
Direct
  0.0556033096283706  0.0565992320271783  0.0465411573390485
  0.1560168548262521  0.1123968546919197  0.0463864261160837
  0.1563897983475144  0.2233842734975880  0.0459757155303303
  0.0560479720183695  0.2782705948255953  0.0457870485641715
  0.2561415067524710  0.0571723674699821  0.0475364524516957
  0.3567422785020056  0.1120332587399821  0.0497051558431919
  0.3565276136259355  0.2236635550996691  0.0500547545338878
  0.2567285067695572  0.2790574411994716  0.0472828136431857
  0.4566870155581004  0.0558758972304801  0.0523178585138558
  0.5565604869214106  0.1122764995563276  0.0556370764921763
  0.5568505758010592  0.2250167812156293  0.0590829138249714
  0.4553404067364507  0.2812580665450484  0.0560274899330859
  0.6554459791263568  0.0523094736592312  0.0549953160311411
  0.7548492194727280  0.1100953976291495  0.0528363850426133
  0.7558244416819393  0.2226325887895597  0.0542880026851840
  0.6578063203023751  0.2816339654672300  0.0614494903938866
  0.8547752151798667  0.0542912224242881  0.0497672863488396
  0.9549372082756715  0.1111286145134041  0.0476983193307123
  0.9554636235106142  0.2230039620891596  0.0476096292178056
  0.8556193703616940  0.2791692470288931  0.0508483977637913
  0.0573467939089876  0.3893042208792935  0.0452988345945519
  0.1574881013759982  0.4453075033388568  0.0448615119674417
  0.1578818151776906  0.5558899580000934  0.0452036168953361
  0.0579978326445896  0.6117007002992654  0.0454520666314114
  0.2578354695240855  0.3906955270271626  0.0467183593556772
  0.3586944346539021  0.4452752951224632  0.0509067435989678
  0.3604681896398400  0.5596396959304341  0.0505323667397904
  0.2578118928231462  0.6116351614422129  0.0470359663046386
  0.7593784815360565  0.4509260609513354  0.0600159573673784
  0.8572685140347035  0.3912532892539218  0.0513178328869811
  0.9579276049859313  0.4448875463087447  0.0474434011872477
  0.9584394488548438  0.5560145797033982  0.0476391014330724
  0.8586763324861985  0.6106610854843935  0.0519328331496973
  0.0570958194080199  0.7224942396794025  0.0455842171323315
  0.1556685412460258  0.7789279489415767  0.0458204366241852
  0.1557561869250466  0.8899727982202816  0.0462138017613431
  0.0556819941734933  0.9454373952649305  0.0463864461637034
  0.2548960932403790  0.7230285282816723  0.0470450515286157
  0.3525508038553631  0.7796610997018136  0.0494125276404688
  0.3545691104897286  0.8903695586795668  0.0494253344753573
  0.2553821316519156  0.9460015871567559  0.0474706974169009
  0.4502125860904144  0.7224470988719557  0.0531492754685670
  0.5528862874253968  0.8833949177895745  0.0548740884007614
  0.4555599027415633  0.9441615524966911  0.0519013511493510
  0.7563581014547666  0.8820998407181292  0.0529559965898967
  0.6549113305496663  0.9381686775594605  0.0550664180579669
  0.8590494001099240  0.7224890439910779  0.0497877556749487
  0.9576904050387104  0.7779233647617145  0.0468133993910058
  0.9564142352310622  0.8890490298081390  0.0472944139026345
  0.8549963551283227  0.9421044468448032  0.0496941150781469
  0.6636083178781280  0.3920716297931961  0.0704455795598711
  0.4526740994880527  0.3886226268221786  0.0594327322619692
  0.4552530788233137  0.6165228323273092  0.0538546864199674
  0.7607751625744805  0.5608194848817883  0.0601607540220472
  0.5470546094610574  0.7756262674140475  0.0564835779253173
  0.7610240047623416  0.7733373740431139  0.0535250769703836
  0.6533023945902340  0.6741701247969157  0.0771474058474646
  0.5527691688480680  0.4615061649829835  0.1087817915290966
  0.5881896520875398  0.4983564208855498  0.1901546244506881
  0.6514137824770269  0.6929467475116993  0.1698754723510880
  0.7242092817881951  0.6966916201802121  0.1887921910132610
  0.6060046224170407  0.5744776871520987  0.1913244804807947
 
  0.00000000E+00  0.00000000E+00  0.00000000E+00
  0.00000000E+00  0.00000000E+00  0.00000000E+00
  0.00000000E+00  0.00000000E+00  0.00000000E+00
  0.00000000E+00  0.00000000E+00  0.00000000E+00
  0.00000000E+00  0.00000000E+00  0.00000000E+00
  0.00000000E+00  0.00000000E+00  0.00000000E+00
  0.00000000E+00  0.00000000E+00  0.00000000E+00
  0.00000000E+00  0.00000000E+00  0.00000000E+00
  0.00000000E+00  0.00000000E+00  0.00000000E+00
  0.00000000E+00  0.00000000E+00  0.00000000E+00
  0.00000000E+00  0.00000000E+00  0.00000000E+00
  0.00000000E+00  0.00000000E+00  0.00000000E+00
  0.00000000E+00  0.00000000E+00  0.00000000E+00
  0.00000000E+00  0.00000000E+00  0.00000000E+00
  0.00000000E+00  0.00000000E+00  0.00000000E+00
  0.00000000E+00  0.00000000E+00  0.00000000E+00
  0.00000000E+00  0.00000000E+00  0.00000000E+00
  0.00000000E+00  0.00000000E+00  0.00000000E+00
  0.00000000E+00  0.00000000E+00  0.00000000E+00
  0.00000000E+00  0.00000000E+00  0.00000000E+00
  0.00000000E+00  0.00000000E+00  0.00000000E+00
  0.00000000E+00  0.00000000E+00  0.00000000E+00
  0.00000000E+00  0.00000000E+00  0.00000000E+00
  0.00000000E+00  0.00000000E+00  0.00000000E+00
  0.00000000E+00  0.00000000E+00  0.00000000E+00
  0.00000000E+00  0.00000000E+00  0.00000000E+00
  0.00000000E+00  0.00000000E+00  0.00000000E+00
  0.00000000E+00  0.00000000E+00  0.00000000E+00
  0.00000000E+00  0.00000000E+00  0.00000000E+00
  0.00000000E+00  0.00000000E+00  0.00000000E+00
  0.00000000E+00  0.00000000E+00  0.00000000E+00
  0.00000000E+00  0.00000000E+00  0.00000000E+00
  0.00000000E+00  0.00000000E+00  0.00000000E+00
  0.00000000E+00  0.00000000E+00  0.00000000E+00
  0.00000000E+00  0.00000000E+00  0.00000000E+00
  0.00000000E+00  0.00000000E+00  0.00000000E+00
  0.00000000E+00  0.00000000E+00  0.00000000E+00
  0.00000000E+00  0.00000000E+00  0.00000000E+00
  0.00000000E+00  0.00000000E+00  0.00000000E+00
  0.00000000E+00  0.00000000E+00  0.00000000E+00
  0.00000000E+00  0.00000000E+00  0.00000000E+00
  0.00000000E+00  0.00000000E+00  0.00000000E+00
  0.00000000E+00  0.00000000E+00  0.00000000E+00
  0.00000000E+00  0.00000000E+00  0.00000000E+00
  0.00000000E+00  0.00000000E+00  0.00000000E+00
  0.00000000E+00  0.00000000E+00  0.00000000E+00
  0.00000000E+00  0.00000000E+00  0.00000000E+00
  0.00000000E+00  0.00000000E+00  0.00000000E+00
  0.00000000E+00  0.00000000E+00  0.00000000E+00
  0.00000000E+00  0.00000000E+00  0.00000000E+00
  0.00000000E+00  0.00000000E+00  0.00000000E+00
  0.00000000E+00  0.00000000E+00  0.00000000E+00
  0.00000000E+00  0.00000000E+00  0.00000000E+00
  0.00000000E+00  0.00000000E+00  0.00000000E+00
  0.00000000E+00  0.00000000E+00  0.00000000E+00
  0.00000000E+00  0.00000000E+00  0.00000000E+00
  0.00000000E+00  0.00000000E+00  0.00000000E+00
  0.00000000E+00  0.00000000E+00  0.00000000E+00
  0.00000000E+00  0.00000000E+00  0.00000000E+00
  0.00000000E+00  0.00000000E+00  0.00000000E+00
  0.00000000E+00  0.00000000E+00  0.00000000E+00
  0.00000000E+00  0.00000000E+00  0.00000000E+00
