12456                                   
   1.00000000000000     
    12.3312997818000003    0.0000000000000000    0.0000000000000000
     0.0001127485000000   12.8291997905000006    0.0000000000000000
     0.0005937186000000    0.0011528207000000   19.9943999824000009
   C    N    Fe   Ni   O 
    51     5     1     1     1
Direct
  0.0560208442793870  0.0543847682792988  0.0514450921954783
  0.1565866325600292  0.1096657615522826  0.0513012537774934
  0.1560596947254406  0.2204476655230523  0.0497575818113031
  0.0559125638179439  0.2760244626161391  0.0486960997331142
  0.2573518584926973  0.0548500283267527  0.0532600663163012
  0.3576361709007392  0.1108916220458484  0.0562144287480682
  0.3566542711432178  0.2229302106394681  0.0552087237742553
  0.2556576715339903  0.2762637778222360  0.0505168059491173
  0.4579844945461582  0.0551158792235062  0.0599925470790267
  0.5573551739645579  0.1137897345251603  0.0625687814353796
  0.5574239102929385  0.2288265589869210  0.0632582363602552
  0.4548630308805159  0.2835728978046121  0.0595920615997572
  0.6559193140193811  0.0534117305572560  0.0625412582029447
  0.7551033455120176  0.1109976210274747  0.0595930243786896
  0.7558543500447046  0.2237687799878788  0.0594689024547434
  0.6588383764071195  0.2857651845682794  0.0637756010805450
  0.8550370879933289  0.0542571053485451  0.0561336128012492
  0.9555726284971300  0.1094586496990292  0.0530335745375375
  0.9559436119131387  0.2209015875331925  0.0519391448420024
  0.8567070132304497  0.2775145288690566  0.0547594650653605
  0.0561947393299734  0.3869963396825209  0.0459950741233617
  0.1550667673017204  0.4431139979845548  0.0447570332697867
  0.1550119685672446  0.5539862584424925  0.0439989705240347
  0.0564212073435060  0.6105809535627555  0.0438813017819650
  0.2540329698726985  0.3872940534143288  0.0479054894947386
  0.3525798391883169  0.4421536685604473  0.0520452387467676
  0.3523249160971989  0.5547541950983217  0.0523716508697437
  0.2536471001792813  0.6098688828913287  0.0472640372360760
  0.7609203275606704  0.4473075332139769  0.0579262107193192
  0.8586099406053209  0.3886434235015802  0.0525995365552292
  0.9575560269064229  0.4433726858077778  0.0470958089937577
  0.9576484820854159  0.5546638030296031  0.0456963346638113
  0.8581054131486009  0.6084742902074239  0.0494165875214231
  0.0562399261739279  0.7213190819250818  0.0452439990128742
  0.1554852513314837  0.7773755272147058  0.0472014748006519
  0.1566397205319986  0.8882226593494287  0.0497207608576728
  0.0562549792160779  0.9435133987282782  0.0504931749953169
  0.2542385022658068  0.7211406246402712  0.0491461556743911
  0.3539647370479376  0.7748687303536754  0.0550845822709767
  0.3568252675875010  0.8868447838390122  0.0560668119339832
  0.2571619079095721  0.9431773775962086  0.0527884070989523
  0.4511595492816100  0.7146260888905230  0.0612003372078580
  0.5556496155189692  0.8814601644334357  0.0645770513695624
  0.4574996950893382  0.9421854743468743  0.0602454673718795
  0.7572531354453679  0.8827089505474790  0.0605612969045806
  0.6560135936724761  0.9390490957048385  0.0637352018948664
  0.8576582649531086  0.7215515647533560  0.0514883439831448
  0.9567020069055506  0.7766156247074660  0.0482740692855786
  0.9563554867764419  0.8880089555265254  0.0513032469613868
  0.8557292687033223  0.9421326582146868  0.0557624790611507
  0.5509951883757780  0.7690796682091112  0.0685258081108542
  0.4491876438590945  0.3909973928300836  0.0594272977320164
  0.6646016222516367  0.3952796198933081  0.0662535987787674
  0.7623751522039327  0.5548981178628573  0.0546067152920696
  0.7609042958579340  0.7741698030398193  0.0607296602438789
  0.4480438077717312  0.6059479828302027  0.0602091545740139
  0.6578014455958002  0.6690166821147339  0.0868538314526340
  0.5521641488147151  0.4963402682535322  0.0809918875348722
  0.6121840089176416  0.5834209468614117  0.1442496479534059
 
  0.00000000E+00  0.00000000E+00  0.00000000E+00
  0.00000000E+00  0.00000000E+00  0.00000000E+00
  0.00000000E+00  0.00000000E+00  0.00000000E+00
  0.00000000E+00  0.00000000E+00  0.00000000E+00
  0.00000000E+00  0.00000000E+00  0.00000000E+00
  0.00000000E+00  0.00000000E+00  0.00000000E+00
  0.00000000E+00  0.00000000E+00  0.00000000E+00
  0.00000000E+00  0.00000000E+00  0.00000000E+00
  0.00000000E+00  0.00000000E+00  0.00000000E+00
  0.00000000E+00  0.00000000E+00  0.00000000E+00
  0.00000000E+00  0.00000000E+00  0.00000000E+00
  0.00000000E+00  0.00000000E+00  0.00000000E+00
  0.00000000E+00  0.00000000E+00  0.00000000E+00
  0.00000000E+00  0.00000000E+00  0.00000000E+00
  0.00000000E+00  0.00000000E+00  0.00000000E+00
  0.00000000E+00  0.00000000E+00  0.00000000E+00
  0.00000000E+00  0.00000000E+00  0.00000000E+00
  0.00000000E+00  0.00000000E+00  0.00000000E+00
  0.00000000E+00  0.00000000E+00  0.00000000E+00
  0.00000000E+00  0.00000000E+00  0.00000000E+00
  0.00000000E+00  0.00000000E+00  0.00000000E+00
  0.00000000E+00  0.00000000E+00  0.00000000E+00
  0.00000000E+00  0.00000000E+00  0.00000000E+00
  0.00000000E+00  0.00000000E+00  0.00000000E+00
  0.00000000E+00  0.00000000E+00  0.00000000E+00
  0.00000000E+00  0.00000000E+00  0.00000000E+00
  0.00000000E+00  0.00000000E+00  0.00000000E+00
  0.00000000E+00  0.00000000E+00  0.00000000E+00
  0.00000000E+00  0.00000000E+00  0.00000000E+00
  0.00000000E+00  0.00000000E+00  0.00000000E+00
  0.00000000E+00  0.00000000E+00  0.00000000E+00
  0.00000000E+00  0.00000000E+00  0.00000000E+00
  0.00000000E+00  0.00000000E+00  0.00000000E+00
  0.00000000E+00  0.00000000E+00  0.00000000E+00
  0.00000000E+00  0.00000000E+00  0.00000000E+00
  0.00000000E+00  0.00000000E+00  0.00000000E+00
  0.00000000E+00  0.00000000E+00  0.00000000E+00
  0.00000000E+00  0.00000000E+00  0.00000000E+00
  0.00000000E+00  0.00000000E+00  0.00000000E+00
  0.00000000E+00  0.00000000E+00  0.00000000E+00
  0.00000000E+00  0.00000000E+00  0.00000000E+00
  0.00000000E+00  0.00000000E+00  0.00000000E+00
  0.00000000E+00  0.00000000E+00  0.00000000E+00
  0.00000000E+00  0.00000000E+00  0.00000000E+00
  0.00000000E+00  0.00000000E+00  0.00000000E+00
  0.00000000E+00  0.00000000E+00  0.00000000E+00
  0.00000000E+00  0.00000000E+00  0.00000000E+00
  0.00000000E+00  0.00000000E+00  0.00000000E+00
  0.00000000E+00  0.00000000E+00  0.00000000E+00
  0.00000000E+00  0.00000000E+00  0.00000000E+00
  0.00000000E+00  0.00000000E+00  0.00000000E+00
  0.00000000E+00  0.00000000E+00  0.00000000E+00
  0.00000000E+00  0.00000000E+00  0.00000000E+00
  0.00000000E+00  0.00000000E+00  0.00000000E+00
  0.00000000E+00  0.00000000E+00  0.00000000E+00
  0.00000000E+00  0.00000000E+00  0.00000000E+00
  0.00000000E+00  0.00000000E+00  0.00000000E+00
  0.00000000E+00  0.00000000E+00  0.00000000E+00
  0.00000000E+00  0.00000000E+00  0.00000000E+00
