CONTCAR\(5)                             
   1.00000000000000     
    12.3312997818000003    0.0000000000000000    0.0000000000000000
     0.0001127485000000   12.8291997905000006    0.0000000000000000
     0.0005937186000000    0.0011528207000000   19.9943999824000009
   C    N    Fe   Ni   H 
    54     2     1     1     1
Direct
  0.0558471294677687  0.0552403291270214  0.0548867035046252
  0.1558431967784830  0.1107917662997710  0.0543025669412761
  0.1559662613355632  0.2216455755689091  0.0534708707768050
  0.0562894978076926  0.2770459096638619  0.0527213436234087
  0.2560840579394934  0.0560992784416508  0.0545471149542778
  0.3565211706351176  0.1117667148217008  0.0556564820144906
  0.3564336980204900  0.2234189997508371  0.0559620018968272
  0.2557406097247003  0.2771443598997158  0.0539578376136599
  0.4561354516787701  0.0559696016397167  0.0565468384054661
  0.5560306507361348  0.1125742193457827  0.0587965067141698
  0.5560010134612697  0.2248190649728490  0.0602813728083253
  0.4553481704815747  0.2817700203202125  0.0581613699423422
  0.6564079060218280  0.0536291394438691  0.0593107080053575
  0.7560627720966743  0.1103872981043623  0.0585640753046112
  0.7567359271407214  0.2222183448039394  0.0584282925065101
  0.6575170551376233  0.2805448927827076  0.0618152519540470
  0.8550978959876921  0.0537613718576461  0.0572367448080425
  0.9555216413275213  0.1098146353157434  0.0554138983742772
  0.9562815779588947  0.2211890838174361  0.0541163527375563
  0.8569089136909690  0.2774397835159110  0.0551134612897047
  0.0573398725436986  0.3884853593380826  0.0518054989833480
  0.1564130619106379  0.4441668446818355  0.0516450252374670
  0.1566402951394413  0.5554573864517214  0.0516481941019927
  0.0568790865204757  0.6110222455417809  0.0526151325950041
  0.2556755857705436  0.3879333839267056  0.0528226734464340
  0.3551983024690929  0.4422016743101336  0.0543313665864962
  0.3573777013239577  0.5554022719321654  0.0534169071309924
  0.2561878087634377  0.6106952468996754  0.0519657371954590
  0.7610593762232127  0.4462182153352063  0.0586754821441889
  0.8592563641667296  0.3888825730418038  0.0537254235542830
  0.9581077331177721  0.4445614617529887  0.0521910630269542
  0.9574996730211901  0.5557538903539232  0.0532365157400787
  0.8573538751093533  0.6117871072604029  0.0560496232527773
  0.0558396680495663  0.7220880067220520  0.0536191657628245
  0.1547999840334863  0.7777329850643357  0.0531462645830587
  0.1556094750608991  0.8890595427009944  0.0538481424923577
  0.0557818562472523  0.9443926912859204  0.0550746951012627
  0.2543770904409799  0.7218689185593358  0.0523866786229575
  0.3527330402829411  0.7781432802049716  0.0526397710754491
  0.3551664035822269  0.8892253052302430  0.0534798548606686
  0.2554990977324824  0.9449867617986056  0.0537946351463543
  0.4518303625894257  0.7216876378791786  0.0535213983327905
  0.5551981938649758  0.8865737609221936  0.0565405324084143
  0.4555821172388007  0.9444163786492505  0.0551758750604758
  0.7559125255677065  0.8822718953729566  0.0602008857346479
  0.6565616180521628  0.9413801933900183  0.0592392967923145
  0.8565961482983517  0.7238101222313599  0.0577414486695316
  0.9561209156443404  0.7782032162466310  0.0556664599343563
  0.9561067240920755  0.8887547998109023  0.0564891593403999
  0.8548688606883069  0.9415452574490111  0.0581624929365814
  0.4568691159465921  0.6097949061771443  0.0554896276969079
  0.6629990023309963  0.3897972465141047  0.0651744528170178
  0.7583868155450871  0.5584433963611782  0.0591441295467633
  0.5502857240793988  0.7778276998223480  0.0557250376126655
  0.4518538034701807  0.3901516278520089  0.0576013308167966
  0.7577997090111801  0.7724784962610634  0.0617542786646446
  0.6351774617602446  0.6583202625700212  0.0677718334379227
  0.5609837495556040  0.4918924473730215  0.0680352661201767
  0.6268271283262142  0.5619452422310736  0.1211988652613796
 
  0.00000000E+00  0.00000000E+00  0.00000000E+00
  0.00000000E+00  0.00000000E+00  0.00000000E+00
  0.00000000E+00  0.00000000E+00  0.00000000E+00
  0.00000000E+00  0.00000000E+00  0.00000000E+00
  0.00000000E+00  0.00000000E+00  0.00000000E+00
  0.00000000E+00  0.00000000E+00  0.00000000E+00
  0.00000000E+00  0.00000000E+00  0.00000000E+00
  0.00000000E+00  0.00000000E+00  0.00000000E+00
  0.00000000E+00  0.00000000E+00  0.00000000E+00
  0.00000000E+00  0.00000000E+00  0.00000000E+00
  0.00000000E+00  0.00000000E+00  0.00000000E+00
  0.00000000E+00  0.00000000E+00  0.00000000E+00
  0.00000000E+00  0.00000000E+00  0.00000000E+00
  0.00000000E+00  0.00000000E+00  0.00000000E+00
  0.00000000E+00  0.00000000E+00  0.00000000E+00
  0.00000000E+00  0.00000000E+00  0.00000000E+00
  0.00000000E+00  0.00000000E+00  0.00000000E+00
  0.00000000E+00  0.00000000E+00  0.00000000E+00
  0.00000000E+00  0.00000000E+00  0.00000000E+00
  0.00000000E+00  0.00000000E+00  0.00000000E+00
  0.00000000E+00  0.00000000E+00  0.00000000E+00
  0.00000000E+00  0.00000000E+00  0.00000000E+00
  0.00000000E+00  0.00000000E+00  0.00000000E+00
  0.00000000E+00  0.00000000E+00  0.00000000E+00
  0.00000000E+00  0.00000000E+00  0.00000000E+00
  0.00000000E+00  0.00000000E+00  0.00000000E+00
  0.00000000E+00  0.00000000E+00  0.00000000E+00
  0.00000000E+00  0.00000000E+00  0.00000000E+00
  0.00000000E+00  0.00000000E+00  0.00000000E+00
  0.00000000E+00  0.00000000E+00  0.00000000E+00
  0.00000000E+00  0.00000000E+00  0.00000000E+00
  0.00000000E+00  0.00000000E+00  0.00000000E+00
  0.00000000E+00  0.00000000E+00  0.00000000E+00
  0.00000000E+00  0.00000000E+00  0.00000000E+00
  0.00000000E+00  0.00000000E+00  0.00000000E+00
  0.00000000E+00  0.00000000E+00  0.00000000E+00
  0.00000000E+00  0.00000000E+00  0.00000000E+00
  0.00000000E+00  0.00000000E+00  0.00000000E+00
  0.00000000E+00  0.00000000E+00  0.00000000E+00
  0.00000000E+00  0.00000000E+00  0.00000000E+00
  0.00000000E+00  0.00000000E+00  0.00000000E+00
  0.00000000E+00  0.00000000E+00  0.00000000E+00
  0.00000000E+00  0.00000000E+00  0.00000000E+00
  0.00000000E+00  0.00000000E+00  0.00000000E+00
  0.00000000E+00  0.00000000E+00  0.00000000E+00
  0.00000000E+00  0.00000000E+00  0.00000000E+00
  0.00000000E+00  0.00000000E+00  0.00000000E+00
  0.00000000E+00  0.00000000E+00  0.00000000E+00
  0.00000000E+00  0.00000000E+00  0.00000000E+00
  0.00000000E+00  0.00000000E+00  0.00000000E+00
  0.00000000E+00  0.00000000E+00  0.00000000E+00
  0.00000000E+00  0.00000000E+00  0.00000000E+00
  0.00000000E+00  0.00000000E+00  0.00000000E+00
  0.00000000E+00  0.00000000E+00  0.00000000E+00
  0.00000000E+00  0.00000000E+00  0.00000000E+00
  0.00000000E+00  0.00000000E+00  0.00000000E+00
  0.00000000E+00  0.00000000E+00  0.00000000E+00
  0.00000000E+00  0.00000000E+00  0.00000000E+00
  0.00000000E+00  0.00000000E+00  0.00000000E+00
