345                                     
   1.00000000000000     
    12.3312997818000003    0.0000000000000000    0.0000000000000000
     0.0001127485000000   12.8291997905000006    0.0000000000000000
     0.0005937186000000    0.0011528207000000   19.9943999824000009
   C    N    Fe   Ni   O    H 
    53     3     1     1     1     1
Direct
  0.0559280831097009  0.0547230682427039  0.0509846459539065
  0.1563638247680587  0.1100644917432552  0.0511583191939658
  0.1566893423311751  0.2209632337529359  0.0503956406726250
  0.0563767434949207  0.2759652407558313  0.0500337309986969
  0.2568508103956694  0.0551706075903412  0.0527948632969599
  0.3574479734868111  0.1104118143782103  0.0558246076654221
  0.3578423954055866  0.2222547001937151  0.0552620992138946
  0.2570742188437827  0.2764160081894818  0.0511074627902633
  0.4572175383085015  0.0540826345755133  0.0595317931364793
  0.5575144908411468  0.1101234016789100  0.0628465284652116
  0.5579232963380029  0.2226274908940616  0.0643883325738625
  0.4578374084449819  0.2798051495215667  0.0598210198999707
  0.6565038841585791  0.0506449073427378  0.0626469829066887
  0.7556058712446024  0.1087150980347056  0.0597043630903965
  0.7562664616585980  0.2215825612726106  0.0606882850566956
  0.6582370321477464  0.2807288318124251  0.0665481434144813
  0.8552076975865799  0.0529258828314918  0.0556598723563058
  0.9554270680375322  0.1093566860399284  0.0529115552688141
  0.9559195625072562  0.2210336404899274  0.0526874425536000
  0.8560992590984656  0.2772896344699277  0.0560362435154844
  0.0569733704202524  0.3872371020630457  0.0483347792441595
  0.1563271519523100  0.4429124343095051  0.0471334699846803
  0.1564080489212939  0.5543255769032345  0.0461157293409319
  0.0573231671003529  0.6100686734867096  0.0456606405189191
  0.2563308939866286  0.3875307376709938  0.0492380774519182
  0.3552318236727585  0.4435223913438850  0.0522262585778893
  0.3554086039700711  0.5565732228120961  0.0523068046066266
  0.2554009454267126  0.6108525761383059  0.0481110966239051
  0.7591717245417106  0.4485714444215456  0.0618005358577727
  0.8573574200598677  0.3894024669584265  0.0548048415958343
  0.9576005607424050  0.4430828765028605  0.0496800439632703
  0.9582215612814576  0.5541198203927831  0.0480920871199069
  0.8590184836592429  0.6088409222526991  0.0521675460635069
  0.0572140454049337  0.7211438814233438  0.0461606897872853
  0.1558251321067963  0.7775112844274759  0.0471486591380132
  0.1560145117478360  0.8885090855058809  0.0490611429896146
  0.0559211019331100  0.9436719980116125  0.0496228288326731
  0.2550915977190388  0.7217051424964588  0.0487044742114871
  0.3538220860399138  0.7772096724667953  0.0539842282990566
  0.3552745847117592  0.8880543735105315  0.0552704292757600
  0.2559812678625648  0.9440957789111898  0.0520034670635445
  0.4519318302494807  0.7202590702795301  0.0616759201733568
  0.5538028507859428  0.8818442462841114  0.0653431333653103
  0.4559866882033071  0.9421001639046493  0.0599716131954373
  0.7569785638165800  0.8809574666323514  0.0582246328013757
  0.6561885052976890  0.9369441313909928  0.0632396577178379
  0.8591488282084312  0.7213288734223916  0.0510368834305347
  0.9577016687570374  0.7765547942166079  0.0482338469259106
  0.9565570407203978  0.8876023401801366  0.0501475973418461
  0.8554356072912326  0.9406895622905036  0.0544571246609559
  0.4554826725275739  0.3913104589913767  0.0591416275509014
  0.4546454131594632  0.6093775050360828  0.0608327638960962
  0.6603119456893083  0.3921961575904702  0.0721474619778787
  0.7620364461623539  0.5585696102050877  0.0604037666472715
  0.5484501726499571  0.7750409780394624  0.0707416955786518
  0.7611504912684252  0.7719624705755144  0.0561490282522003
  0.6563124988469553  0.6689480104466373  0.0807333493903172
  0.5547320177580444  0.4911575245294003  0.0855200597155300
  0.6143307431763714  0.5856889461233761  0.1550667844645812
  0.5517849529627250  0.6172712710416890  0.1770932853435018
 
  0.00000000E+00  0.00000000E+00  0.00000000E+00
  0.00000000E+00  0.00000000E+00  0.00000000E+00
  0.00000000E+00  0.00000000E+00  0.00000000E+00
  0.00000000E+00  0.00000000E+00  0.00000000E+00
  0.00000000E+00  0.00000000E+00  0.00000000E+00
  0.00000000E+00  0.00000000E+00  0.00000000E+00
  0.00000000E+00  0.00000000E+00  0.00000000E+00
  0.00000000E+00  0.00000000E+00  0.00000000E+00
  0.00000000E+00  0.00000000E+00  0.00000000E+00
  0.00000000E+00  0.00000000E+00  0.00000000E+00
  0.00000000E+00  0.00000000E+00  0.00000000E+00
  0.00000000E+00  0.00000000E+00  0.00000000E+00
  0.00000000E+00  0.00000000E+00  0.00000000E+00
  0.00000000E+00  0.00000000E+00  0.00000000E+00
  0.00000000E+00  0.00000000E+00  0.00000000E+00
  0.00000000E+00  0.00000000E+00  0.00000000E+00
  0.00000000E+00  0.00000000E+00  0.00000000E+00
  0.00000000E+00  0.00000000E+00  0.00000000E+00
  0.00000000E+00  0.00000000E+00  0.00000000E+00
  0.00000000E+00  0.00000000E+00  0.00000000E+00
  0.00000000E+00  0.00000000E+00  0.00000000E+00
  0.00000000E+00  0.00000000E+00  0.00000000E+00
  0.00000000E+00  0.00000000E+00  0.00000000E+00
  0.00000000E+00  0.00000000E+00  0.00000000E+00
  0.00000000E+00  0.00000000E+00  0.00000000E+00
  0.00000000E+00  0.00000000E+00  0.00000000E+00
  0.00000000E+00  0.00000000E+00  0.00000000E+00
  0.00000000E+00  0.00000000E+00  0.00000000E+00
  0.00000000E+00  0.00000000E+00  0.00000000E+00
  0.00000000E+00  0.00000000E+00  0.00000000E+00
  0.00000000E+00  0.00000000E+00  0.00000000E+00
  0.00000000E+00  0.00000000E+00  0.00000000E+00
  0.00000000E+00  0.00000000E+00  0.00000000E+00
  0.00000000E+00  0.00000000E+00  0.00000000E+00
  0.00000000E+00  0.00000000E+00  0.00000000E+00
  0.00000000E+00  0.00000000E+00  0.00000000E+00
  0.00000000E+00  0.00000000E+00  0.00000000E+00
  0.00000000E+00  0.00000000E+00  0.00000000E+00
  0.00000000E+00  0.00000000E+00  0.00000000E+00
  0.00000000E+00  0.00000000E+00  0.00000000E+00
  0.00000000E+00  0.00000000E+00  0.00000000E+00
  0.00000000E+00  0.00000000E+00  0.00000000E+00
  0.00000000E+00  0.00000000E+00  0.00000000E+00
  0.00000000E+00  0.00000000E+00  0.00000000E+00
  0.00000000E+00  0.00000000E+00  0.00000000E+00
  0.00000000E+00  0.00000000E+00  0.00000000E+00
  0.00000000E+00  0.00000000E+00  0.00000000E+00
  0.00000000E+00  0.00000000E+00  0.00000000E+00
  0.00000000E+00  0.00000000E+00  0.00000000E+00
  0.00000000E+00  0.00000000E+00  0.00000000E+00
  0.00000000E+00  0.00000000E+00  0.00000000E+00
  0.00000000E+00  0.00000000E+00  0.00000000E+00
  0.00000000E+00  0.00000000E+00  0.00000000E+00
  0.00000000E+00  0.00000000E+00  0.00000000E+00
  0.00000000E+00  0.00000000E+00  0.00000000E+00
  0.00000000E+00  0.00000000E+00  0.00000000E+00
  0.00000000E+00  0.00000000E+00  0.00000000E+00
  0.00000000E+00  0.00000000E+00  0.00000000E+00
  0.00000000E+00  0.00000000E+00  0.00000000E+00
  0.00000000E+00  0.00000000E+00  0.00000000E+00
