CONTCAR                                 
   1.00000000000000     
    12.3312997818000003    0.0000000000000000    0.0000000000000000
     0.0001127485000000   12.8291997905000006    0.0000000000000000
     0.0005937186000000    0.0011528207000000   19.9943999824000009
   C    N    Fe   Ni   O    H 
    54     2     1     1     2     2
Direct
  0.0578774533826173  0.0486229157933550  0.0478805007397074
  0.1581729571231748  0.1033730990326447  0.0470440594286466
  0.1572810765806556  0.2142840770061754  0.0457116068677331
  0.0567936284101431  0.2701936690411772  0.0461648780765708
  0.2591288456118053  0.0480849074473810  0.0483262707671578
  0.3594868686256905  0.1039428998203715  0.0513566419118545
  0.3588363940915032  0.2161567843405068  0.0498267610278102
  0.2570992234862181  0.2694611635774682  0.0452526579636224
  0.4594278447430419  0.0473504213012348  0.0561133180686186
  0.5589526592165336  0.1052839994544661  0.0606820255807404
  0.5585078083783427  0.2183704379167302  0.0610970103406889
  0.4582717462135166  0.2753258945187855  0.0541597552461665
  0.6583980947302485  0.0461303752508088  0.0623741523286528
  0.7574829211013621  0.1035362310984165  0.0595121327497447
  0.7579967089714507  0.2159551031321767  0.0600934248338445
  0.6599315868126504  0.2753434735077381  0.0645281803019256
  0.8574611004309344  0.0482797295385280  0.0548658143791861
  0.9574424829023592  0.1037931242695340  0.0508637720835404
  0.9572358616140419  0.2150557108717118  0.0504736148575510
  0.8574644605873335  0.2712719834576699  0.0550571273485062
  0.0552966356821090  0.3816131377278085  0.0438527354312319
  0.1541781733445493  0.4367137110337159  0.0407812077227393
  0.1537186757550444  0.5482115172506132  0.0393169255009787
  0.0547552137852219  0.6042534930894298  0.0406696964415248
  0.2538299784742623  0.3801643428381093  0.0422169958373457
  0.3514358025367628  0.4361028677647899  0.0438250629961536
  0.3509362137063994  0.5476535024169571  0.0440623727447665
  0.2532287599948224  0.6041804110849607  0.0402936657015639
  0.7574305515073472  0.4394847372763696  0.0621444308808124
  0.8568904562581904  0.3830238294627329  0.0541698142046111
  0.9557399353669656  0.4382509543608838  0.0469295430459843
  0.9549358558534355  0.5493130966875664  0.0450881701469890
  0.8543220744331378  0.6047169931657963  0.0511989672365378
  0.0572044923065637  0.7157246573425956  0.0411135979716581
  0.1570150151436485  0.7711051054844669  0.0415875498719783
  0.1583440461202235  0.8821141800970408  0.0443916981893433
  0.0584535245421286  0.9378057477062206  0.0463551909038891
  0.2564778486792899  0.7149085801525670  0.0421174127288295
  0.3575897233297499  0.7675864714135082  0.0479135850382035
  0.3591454147246216  0.8795062619452167  0.0502409892973310
  0.2593173099129295  0.9365400918722707  0.0472343370287510
  0.4562060071989669  0.7071014731433816  0.0557404561507181
  0.5586330004324668  0.8745550237259191  0.0633169343204353
  0.4594927187249729  0.9344050619506477  0.0562554411842523
  0.7605375927767821  0.8781493375390805  0.0607034930779642
  0.6587377869344661  0.9329554649592819  0.0641714337009605
  0.8588180929513329  0.7179017631137335  0.0513201433971567
  0.9583555584127964  0.7719581887313147  0.0453981406875652
  0.9586423154999357  0.8826321680175450  0.0482362465879804
  0.8584114410794125  0.9367090527964522  0.0541096877101251
  0.4530756537011116  0.3869199195290414  0.0505272717483974
  0.7538506301586062  0.5537533318478119  0.0612092127557889
  0.5548170563703246  0.7625635978620218  0.0680032790934836
  0.4516204052654858  0.5954756189476214  0.0539235342328798
  0.6631056151106784  0.3825021675908519  0.0687663585775959
  0.7644133260527616  0.7702005677240706  0.0624701499063341
  0.6653251357450699  0.6755137229947242  0.1045529292898967
  0.5558450303137916  0.4879873526379746  0.0723770393900009
  0.5991031958724252  0.5674005564313527  0.1522590188235376
  0.6762595863321917  0.7468729119208403  0.1824506939715486
  0.6973987221538822  0.8196814088861268  0.1761198028751736
  0.5403556274414907  0.5959714510996632  0.1793810906947532
 
  0.00000000E+00  0.00000000E+00  0.00000000E+00
  0.00000000E+00  0.00000000E+00  0.00000000E+00
  0.00000000E+00  0.00000000E+00  0.00000000E+00
  0.00000000E+00  0.00000000E+00  0.00000000E+00
  0.00000000E+00  0.00000000E+00  0.00000000E+00
  0.00000000E+00  0.00000000E+00  0.00000000E+00
  0.00000000E+00  0.00000000E+00  0.00000000E+00
  0.00000000E+00  0.00000000E+00  0.00000000E+00
  0.00000000E+00  0.00000000E+00  0.00000000E+00
  0.00000000E+00  0.00000000E+00  0.00000000E+00
  0.00000000E+00  0.00000000E+00  0.00000000E+00
  0.00000000E+00  0.00000000E+00  0.00000000E+00
  0.00000000E+00  0.00000000E+00  0.00000000E+00
  0.00000000E+00  0.00000000E+00  0.00000000E+00
  0.00000000E+00  0.00000000E+00  0.00000000E+00
  0.00000000E+00  0.00000000E+00  0.00000000E+00
  0.00000000E+00  0.00000000E+00  0.00000000E+00
  0.00000000E+00  0.00000000E+00  0.00000000E+00
  0.00000000E+00  0.00000000E+00  0.00000000E+00
  0.00000000E+00  0.00000000E+00  0.00000000E+00
  0.00000000E+00  0.00000000E+00  0.00000000E+00
  0.00000000E+00  0.00000000E+00  0.00000000E+00
  0.00000000E+00  0.00000000E+00  0.00000000E+00
  0.00000000E+00  0.00000000E+00  0.00000000E+00
  0.00000000E+00  0.00000000E+00  0.00000000E+00
  0.00000000E+00  0.00000000E+00  0.00000000E+00
  0.00000000E+00  0.00000000E+00  0.00000000E+00
  0.00000000E+00  0.00000000E+00  0.00000000E+00
  0.00000000E+00  0.00000000E+00  0.00000000E+00
  0.00000000E+00  0.00000000E+00  0.00000000E+00
  0.00000000E+00  0.00000000E+00  0.00000000E+00
  0.00000000E+00  0.00000000E+00  0.00000000E+00
  0.00000000E+00  0.00000000E+00  0.00000000E+00
  0.00000000E+00  0.00000000E+00  0.00000000E+00
  0.00000000E+00  0.00000000E+00  0.00000000E+00
  0.00000000E+00  0.00000000E+00  0.00000000E+00
  0.00000000E+00  0.00000000E+00  0.00000000E+00
  0.00000000E+00  0.00000000E+00  0.00000000E+00
  0.00000000E+00  0.00000000E+00  0.00000000E+00
  0.00000000E+00  0.00000000E+00  0.00000000E+00
  0.00000000E+00  0.00000000E+00  0.00000000E+00
  0.00000000E+00  0.00000000E+00  0.00000000E+00
  0.00000000E+00  0.00000000E+00  0.00000000E+00
  0.00000000E+00  0.00000000E+00  0.00000000E+00
  0.00000000E+00  0.00000000E+00  0.00000000E+00
  0.00000000E+00  0.00000000E+00  0.00000000E+00
  0.00000000E+00  0.00000000E+00  0.00000000E+00
  0.00000000E+00  0.00000000E+00  0.00000000E+00
  0.00000000E+00  0.00000000E+00  0.00000000E+00
  0.00000000E+00  0.00000000E+00  0.00000000E+00
  0.00000000E+00  0.00000000E+00  0.00000000E+00
  0.00000000E+00  0.00000000E+00  0.00000000E+00
  0.00000000E+00  0.00000000E+00  0.00000000E+00
  0.00000000E+00  0.00000000E+00  0.00000000E+00
  0.00000000E+00  0.00000000E+00  0.00000000E+00
  0.00000000E+00  0.00000000E+00  0.00000000E+00
  0.00000000E+00  0.00000000E+00  0.00000000E+00
  0.00000000E+00  0.00000000E+00  0.00000000E+00
  0.00000000E+00  0.00000000E+00  0.00000000E+00
  0.00000000E+00  0.00000000E+00  0.00000000E+00
  0.00000000E+00  0.00000000E+00  0.00000000E+00
  0.00000000E+00  0.00000000E+00  0.00000000E+00
