CONTCAR\(5)                             
   1.00000000000000     
    12.3312997818000003    0.0000000000000000    0.0000000000000000
     0.0001127485000000   12.8291997905000006    0.0000000000000000
     0.0005937186000000    0.0011528207000000   19.9943999824000009
   C    N    Fe   Ni   O    H 
    54     2     1     1     1     1
Direct
  0.0558292195838376  0.0551098806946744  0.0491301104810773
  0.1561250993888286  0.1108560424617760  0.0494353310286603
  0.1567168793215908  0.2216811369230306  0.0481860228188461
  0.0565353488585098  0.2763371114478194  0.0470783557626892
  0.2565499609917866  0.0563778411771610  0.0517030971299092
  0.3569613640581768  0.1125359628909036  0.0550171674490034
  0.3575703740782380  0.2244445689793672  0.0540982484009192
  0.2565942242992003  0.2777629153710218  0.0493013247749128
  0.4564321023462500  0.0566137883838571  0.0593723250328221
  0.5566684115327500  0.1133055430742728  0.0624862636322328
  0.5573081599814775  0.2257267799696876  0.0633265339793416
  0.4574071948484052  0.2830226359621679  0.0588081979032241
  0.6551220766284828  0.0530695885684038  0.0619907086253374
  0.7552001708318725  0.1096045673886459  0.0579101134244444
  0.7569543581434715  0.2217702859985904  0.0580693067050110
  0.6595038667684886  0.2819428500501383  0.0640878047358163
  0.8548607887775177  0.0537186332629658  0.0536355709841328
  0.9554189340412422  0.1095993799301600  0.0506215997081792
  0.9566655597039936  0.2205800640355078  0.0498012216462852
  0.8570798522637809  0.2763258761829195  0.0528693972993741
  0.0565629882692826  0.3874775272630182  0.0449662317853333
  0.1552355562847097  0.4437734909194396  0.0444304359230504
  0.1554311060298239  0.5553956623512022  0.0436783573099132
  0.0563865487799666  0.6104164614042541  0.0429972222375026
  0.2549897289451927  0.3886414759658278  0.0473651442323077
  0.3529367550847835  0.4453660427361637  0.0512163393912406
  0.3535828497429782  0.5579032103694139  0.0524062076531913
  0.2543296043903593  0.6123126206848822  0.0468487312290727
  0.7589183764099315  0.4437880402902592  0.0576694827904983
  0.8578840325455639  0.3873640753326901  0.0510274528387685
  0.9570638720704435  0.4428626733932188  0.0457946913034195
  0.9575822874283566  0.5534692093004360  0.0444540163095825
  0.8577952333765300  0.6076498929570980  0.0478895930553778
  0.0565393539794587  0.7221655836091850  0.0439832773073900
  0.1551215841840277  0.7783827740996609  0.0457992473949104
  0.1552661747397970  0.8895130978983009  0.0478169374023212
  0.0552519845499361  0.9442775507169863  0.0480248246351530
  0.2544439231386921  0.7228541189716086  0.0480071382350426
  0.3533736174423452  0.7779900778259544  0.0541089716190295
  0.3546278853599173  0.8893817992326095  0.0551676355169063
  0.2553276270549278  0.9452675611897124  0.0511988816322512
  0.4516095161687778  0.7211718719830036  0.0626919158875375
  0.5522587929148006  0.8845547446206372  0.0656809452072565
  0.4546239799761891  0.9444874292243071  0.0601783428024801
  0.7545568582857831  0.8835852078926881  0.0575846222413443
  0.6543844444437046  0.9405057035449759  0.0630836721212494
  0.8586112552974910  0.7208726871624880  0.0484688394412817
  0.9569922460868420  0.7773725570324017  0.0461079850889304
  0.9552684600063839  0.8882411449406430  0.0484235678128694
  0.8543049204917572  0.9419648496355852  0.0527598890327171
  0.4532501621127447  0.3948092372584122  0.0578814764957305
  0.7581105623911851  0.5555938779631453  0.0555219063023193
  0.7588269155043250  0.7721217985746303  0.0559418299067309
  0.4534389316399709  0.6087066470470676  0.0627211603177135
  0.6636951792999802  0.3885235002300151  0.0677852457710514
  0.5471835397540885  0.7779704803790691  0.0710693417224787
  0.6539321693322961  0.6686190022532057  0.0817691280355102
  0.5584030473480267  0.4929449428596912  0.0796059941406944
  0.6178030432207894  0.5816336621250467  0.1570027321573010
  0.5534408904699476  0.6086921830079949  0.1796318831903098
 
  0.00000000E+00  0.00000000E+00  0.00000000E+00
  0.00000000E+00  0.00000000E+00  0.00000000E+00
  0.00000000E+00  0.00000000E+00  0.00000000E+00
  0.00000000E+00  0.00000000E+00  0.00000000E+00
  0.00000000E+00  0.00000000E+00  0.00000000E+00
  0.00000000E+00  0.00000000E+00  0.00000000E+00
  0.00000000E+00  0.00000000E+00  0.00000000E+00
  0.00000000E+00  0.00000000E+00  0.00000000E+00
  0.00000000E+00  0.00000000E+00  0.00000000E+00
  0.00000000E+00  0.00000000E+00  0.00000000E+00
  0.00000000E+00  0.00000000E+00  0.00000000E+00
  0.00000000E+00  0.00000000E+00  0.00000000E+00
  0.00000000E+00  0.00000000E+00  0.00000000E+00
  0.00000000E+00  0.00000000E+00  0.00000000E+00
  0.00000000E+00  0.00000000E+00  0.00000000E+00
  0.00000000E+00  0.00000000E+00  0.00000000E+00
  0.00000000E+00  0.00000000E+00  0.00000000E+00
  0.00000000E+00  0.00000000E+00  0.00000000E+00
  0.00000000E+00  0.00000000E+00  0.00000000E+00
  0.00000000E+00  0.00000000E+00  0.00000000E+00
  0.00000000E+00  0.00000000E+00  0.00000000E+00
  0.00000000E+00  0.00000000E+00  0.00000000E+00
  0.00000000E+00  0.00000000E+00  0.00000000E+00
  0.00000000E+00  0.00000000E+00  0.00000000E+00
  0.00000000E+00  0.00000000E+00  0.00000000E+00
  0.00000000E+00  0.00000000E+00  0.00000000E+00
  0.00000000E+00  0.00000000E+00  0.00000000E+00
  0.00000000E+00  0.00000000E+00  0.00000000E+00
  0.00000000E+00  0.00000000E+00  0.00000000E+00
  0.00000000E+00  0.00000000E+00  0.00000000E+00
  0.00000000E+00  0.00000000E+00  0.00000000E+00
  0.00000000E+00  0.00000000E+00  0.00000000E+00
  0.00000000E+00  0.00000000E+00  0.00000000E+00
  0.00000000E+00  0.00000000E+00  0.00000000E+00
  0.00000000E+00  0.00000000E+00  0.00000000E+00
  0.00000000E+00  0.00000000E+00  0.00000000E+00
  0.00000000E+00  0.00000000E+00  0.00000000E+00
  0.00000000E+00  0.00000000E+00  0.00000000E+00
  0.00000000E+00  0.00000000E+00  0.00000000E+00
  0.00000000E+00  0.00000000E+00  0.00000000E+00
  0.00000000E+00  0.00000000E+00  0.00000000E+00
  0.00000000E+00  0.00000000E+00  0.00000000E+00
  0.00000000E+00  0.00000000E+00  0.00000000E+00
  0.00000000E+00  0.00000000E+00  0.00000000E+00
  0.00000000E+00  0.00000000E+00  0.00000000E+00
  0.00000000E+00  0.00000000E+00  0.00000000E+00
  0.00000000E+00  0.00000000E+00  0.00000000E+00
  0.00000000E+00  0.00000000E+00  0.00000000E+00
  0.00000000E+00  0.00000000E+00  0.00000000E+00
  0.00000000E+00  0.00000000E+00  0.00000000E+00
  0.00000000E+00  0.00000000E+00  0.00000000E+00
  0.00000000E+00  0.00000000E+00  0.00000000E+00
  0.00000000E+00  0.00000000E+00  0.00000000E+00
  0.00000000E+00  0.00000000E+00  0.00000000E+00
  0.00000000E+00  0.00000000E+00  0.00000000E+00
  0.00000000E+00  0.00000000E+00  0.00000000E+00
  0.00000000E+00  0.00000000E+00  0.00000000E+00
  0.00000000E+00  0.00000000E+00  0.00000000E+00
  0.00000000E+00  0.00000000E+00  0.00000000E+00
  0.00000000E+00  0.00000000E+00  0.00000000E+00
