CONTCAR\(3)                             
   1.00000000000000     
    12.3312997818000003    0.0000000000000000    0.0000000000000000
     0.0001127485000000   12.8291997905000006    0.0000000000000000
     0.0005937186000000    0.0011528207000000   19.9943999824000009
   C    N    Fe   Ni   H 
    54     2     1     1     1
Direct
  0.0558504118713714  0.0540097514214362  0.0503144886216885
  0.1562909899269158  0.1096504616175212  0.0505932072853682
  0.1567707742702463  0.2204792329483266  0.0488785267919555
  0.0569061483464941  0.2754667804400427  0.0473390979056012
  0.2568945805262908  0.0554932545352798  0.0536071246312914
  0.3571270230763429  0.1121604114099299  0.0566535270336228
  0.3575296529751854  0.2239277977382501  0.0555204540057756
  0.2564313471060199  0.2767710660298568  0.0504413574588741
  0.4570088570860190  0.0569162258047634  0.0610414456369573
  0.5573910915517256  0.1144565238933780  0.0629519943409691
  0.5582874255221395  0.2273305742748101  0.0634304134527458
  0.4570713965590764  0.2833448466918603  0.0600055983075773
  0.6560586557472765  0.0546730037227295  0.0619120194841122
  0.7558941170914600  0.1105787367157058  0.0577426941438898
  0.7572450425727775  0.2228901685082155  0.0574964931207110
  0.6604258565264343  0.2839054735304830  0.0632783653916416
  0.8551001310677726  0.0536867449185907  0.0540932460550365
  0.9557416318532563  0.1089069408574255  0.0510962188063816
  0.9569543834702070  0.2200024697446708  0.0497064039070674
  0.8578351403317600  0.2761853236850161  0.0521010845914682
  0.0570551989516684  0.3866696059329574  0.0457015377058341
  0.1553487619419485  0.4433023203646830  0.0462575933976308
  0.1550951474545121  0.5549965186524030  0.0466618365439390
  0.0562910955640704  0.6103285677532001  0.0458775816980958
  0.2543587998031399  0.3876171039626699  0.0489792157965724
  0.3519453869578707  0.4440217312341618  0.0539045694650906
  0.3520447244429509  0.5560892893797972  0.0564825771712869
  0.2538022797746013  0.6116851570515607  0.0509929090560415
  0.7617457620628522  0.4442400905931139  0.0555170431080952
  0.8594314596832386  0.3870802018686751  0.0496359395927863
  0.9582743543560008  0.4422494572085040  0.0459633617116400
  0.9578643945149211  0.5530335517179845  0.0459138451516167
  0.8579144507224362  0.6056155154093740  0.0482677333466215
  0.0556417686138313  0.7215950096826413  0.0473602473356856
  0.1548009291176000  0.7778077484201634  0.0497868308619883
  0.1555087318991829  0.8887407294850980  0.0509895515711062
  0.0551544898200606  0.9430598111370273  0.0501509146603078
  0.2541549594224836  0.7224774956760804  0.0526282008747739
  0.3537820701301080  0.7768916079780742  0.0586449660501025
  0.3556666276330019  0.8885921518847917  0.0587185444212460
  0.2560792503724876  0.9442729149774973  0.0541812371840589
  0.4518656091673038  0.7185290967397790  0.0677405083495518
  0.5546539790101511  0.8863078567643945  0.0674986794754793
  0.4558754551634790  0.9447238187942285  0.0628674181745293
  0.7544279216727292  0.8839565971456051  0.0575457961544716
  0.6554146799849208  0.9425124499654128  0.0631100448444773
  0.8557283327821477  0.7188695679747590  0.0497719857712078
  0.9554118451303730  0.7757174611796477  0.0485940247495462
  0.9548743159465388  0.8869690206588314  0.0503153908371971
  0.8542806454746159  0.9415382973025302  0.0536716244995578
  0.4524968424810961  0.3944085553186349  0.0597937741228185
  0.5509200839906084  0.7761696111047768  0.0737972472807154
  0.7553130510345398  0.7716740454487615  0.0553169139958346
  0.4516269726883865  0.6059058570470516  0.0684765908851009
  0.6661061305157492  0.3923308030738041  0.0667078388397861
  0.7620490191594111  0.5520828084491792  0.0525081886822768
  0.6495115146657412  0.6659931602304329  0.0754991416266108
  0.5583111298610822  0.4957449439412350  0.0809782753451457
  0.6160972185533976  0.5733637880021837  0.1337265566884206
 
  0.00000000E+00  0.00000000E+00  0.00000000E+00
  0.00000000E+00  0.00000000E+00  0.00000000E+00
  0.00000000E+00  0.00000000E+00  0.00000000E+00
  0.00000000E+00  0.00000000E+00  0.00000000E+00
  0.00000000E+00  0.00000000E+00  0.00000000E+00
  0.00000000E+00  0.00000000E+00  0.00000000E+00
  0.00000000E+00  0.00000000E+00  0.00000000E+00
  0.00000000E+00  0.00000000E+00  0.00000000E+00
  0.00000000E+00  0.00000000E+00  0.00000000E+00
  0.00000000E+00  0.00000000E+00  0.00000000E+00
  0.00000000E+00  0.00000000E+00  0.00000000E+00
  0.00000000E+00  0.00000000E+00  0.00000000E+00
  0.00000000E+00  0.00000000E+00  0.00000000E+00
  0.00000000E+00  0.00000000E+00  0.00000000E+00
  0.00000000E+00  0.00000000E+00  0.00000000E+00
  0.00000000E+00  0.00000000E+00  0.00000000E+00
  0.00000000E+00  0.00000000E+00  0.00000000E+00
  0.00000000E+00  0.00000000E+00  0.00000000E+00
  0.00000000E+00  0.00000000E+00  0.00000000E+00
  0.00000000E+00  0.00000000E+00  0.00000000E+00
  0.00000000E+00  0.00000000E+00  0.00000000E+00
  0.00000000E+00  0.00000000E+00  0.00000000E+00
  0.00000000E+00  0.00000000E+00  0.00000000E+00
  0.00000000E+00  0.00000000E+00  0.00000000E+00
  0.00000000E+00  0.00000000E+00  0.00000000E+00
  0.00000000E+00  0.00000000E+00  0.00000000E+00
  0.00000000E+00  0.00000000E+00  0.00000000E+00
  0.00000000E+00  0.00000000E+00  0.00000000E+00
  0.00000000E+00  0.00000000E+00  0.00000000E+00
  0.00000000E+00  0.00000000E+00  0.00000000E+00
  0.00000000E+00  0.00000000E+00  0.00000000E+00
  0.00000000E+00  0.00000000E+00  0.00000000E+00
  0.00000000E+00  0.00000000E+00  0.00000000E+00
  0.00000000E+00  0.00000000E+00  0.00000000E+00
  0.00000000E+00  0.00000000E+00  0.00000000E+00
  0.00000000E+00  0.00000000E+00  0.00000000E+00
  0.00000000E+00  0.00000000E+00  0.00000000E+00
  0.00000000E+00  0.00000000E+00  0.00000000E+00
  0.00000000E+00  0.00000000E+00  0.00000000E+00
  0.00000000E+00  0.00000000E+00  0.00000000E+00
  0.00000000E+00  0.00000000E+00  0.00000000E+00
  0.00000000E+00  0.00000000E+00  0.00000000E+00
  0.00000000E+00  0.00000000E+00  0.00000000E+00
  0.00000000E+00  0.00000000E+00  0.00000000E+00
  0.00000000E+00  0.00000000E+00  0.00000000E+00
  0.00000000E+00  0.00000000E+00  0.00000000E+00
  0.00000000E+00  0.00000000E+00  0.00000000E+00
  0.00000000E+00  0.00000000E+00  0.00000000E+00
  0.00000000E+00  0.00000000E+00  0.00000000E+00
  0.00000000E+00  0.00000000E+00  0.00000000E+00
  0.00000000E+00  0.00000000E+00  0.00000000E+00
  0.00000000E+00  0.00000000E+00  0.00000000E+00
  0.00000000E+00  0.00000000E+00  0.00000000E+00
  0.00000000E+00  0.00000000E+00  0.00000000E+00
  0.00000000E+00  0.00000000E+00  0.00000000E+00
  0.00000000E+00  0.00000000E+00  0.00000000E+00
  0.00000000E+00  0.00000000E+00  0.00000000E+00
  0.00000000E+00  0.00000000E+00  0.00000000E+00
  0.00000000E+00  0.00000000E+00  0.00000000E+00
