CONTCAR\(4)                             
   1.00000000000000     
    12.3312997818000003    0.0000000000000000    0.0000000000000000
     0.0001127485000000   12.8291997905000006    0.0000000000000000
     0.0005937186000000    0.0011528207000000   19.9943999824000009
   C    N    Fe   Ni   O    H 
    53     3     1     1     2     2
Direct
  0.0579439834779281  0.0516204557910315  0.0461052544830837
  0.1582863199028596  0.1065000077378362  0.0459351513862188
  0.1576321533585025  0.2176165423955580  0.0452107887420843
  0.0572274091311541  0.2730300259387986  0.0453838454474493
  0.2589666904130761  0.0508465268247172  0.0474630582354672
  0.3594317030127605  0.1064918202345458  0.0510500539112254
  0.3588747888972342  0.2188416334817140  0.0499824067756944
  0.2576988678108432  0.2731398528681218  0.0454385199250275
  0.4592652300655954  0.0498541885702307  0.0558547065754467
  0.5588657584297787  0.1073909036126018  0.0601506818244055
  0.5585962875880627  0.2201754546255988  0.0601548193154433
  0.4585180972075368  0.2771667607267314  0.0543403149015554
  0.6581871419970364  0.0479268348648074  0.0617073125727053
  0.7572456489356248  0.1059690540242391  0.0582107418013237
  0.7578591832857252  0.2184040050470371  0.0584114286408665
  0.6593543324213907  0.2777368406913190  0.0624877041776078
  0.8573357834257419  0.0510896337150383  0.0530893465856285
  0.9574091367960018  0.1066401851126268  0.0490619125049182
  0.9574045738551246  0.2176785729135171  0.0489659659033992
  0.8575089162410103  0.2735235472487634  0.0533721712582985
  0.0560736344209515  0.3843605387689068  0.0432319455173228
  0.1552118661964604  0.4395930305893038  0.0407650747415719
  0.1545734610209411  0.5509064625710048  0.0391508240139444
  0.0554072257628168  0.6067879897894920  0.0392885554136822
  0.2553056914271024  0.3840208135870607  0.0428262712618903
  0.3540123147066241  0.4402476577171964  0.0451780297526683
  0.3528229770412046  0.5524261966316610  0.0454636029619324
  0.2537549482928818  0.6073275396638699  0.0408470658617561
  0.7578273695932093  0.4417001376684941  0.0595668172550262
  0.8571177204474907  0.3851541014872488  0.0525351167984156
  0.9560904285747551  0.4407420948218893  0.0456245355195250
  0.9552434786512186  0.5517050807414310  0.0432057792932863
  0.8544478534649466  0.6069586711576206  0.0488276101571770
  0.0572050386320249  0.7181809548823160  0.0390970073965126
  0.1566098387918160  0.7739514230155097  0.0400410421970728
  0.1581233074552973  0.8850178525431538  0.0426543453050045
  0.0583339180146202  0.9407518815635388  0.0442140097100929
  0.2559473988375452  0.7177569231677061  0.0417954670768103
  0.3568643666401952  0.7704638669622477  0.0478196468439641
  0.3588785822872874  0.8823554932732250  0.0498362915316051
  0.2590122349940071  0.9393415179483352  0.0461898643158664
  0.4541117589273626  0.7095202546073687  0.0558746937661853
  0.5576010963554424  0.8763716304485024  0.0636519903268639
  0.4592091374762488  0.9367578446866323  0.0560997961339658
  0.7605591735762824  0.8810210894303967  0.0597904671376766
  0.6583514943043229  0.9351206490846778  0.0640094019340172
  0.8588660296220623  0.7205963430024850  0.0491495286677744
  0.9581040578409183  0.7746422244239006  0.0427652871363715
  0.9584564411149995  0.8853742350341708  0.0458384584343283
  0.8581923511115973  0.9395829733176499  0.0521527155383697
  0.4539428811001141  0.3884865436929138  0.0518973578703781
  0.7542321907690678  0.5547150754724077  0.0586852066054889
  0.5530679531139966  0.7642735278140873  0.0690589440681654
  0.6623142601665694  0.3849438587320279  0.0655617454943820
  0.7651497004705319  0.7735811129944248  0.0620431021231727
  0.4493025393407493  0.6008680769566931  0.0535192795674140
  0.6655511486560631  0.6824939834980205  0.1083458502382361
  0.5571124771598717  0.4873090216280297  0.0708785673495138
  0.5961997639023000  0.5742172727520535  0.1554999684806139
  0.6861830347664618  0.7637983503254282  0.1821538945118267
  0.6600266227127662  0.7250402496877556  0.2211176272943070
  0.5314603290058797  0.5972026484343366  0.1794710314279923
 
  0.00000000E+00  0.00000000E+00  0.00000000E+00
  0.00000000E+00  0.00000000E+00  0.00000000E+00
  0.00000000E+00  0.00000000E+00  0.00000000E+00
  0.00000000E+00  0.00000000E+00  0.00000000E+00
  0.00000000E+00  0.00000000E+00  0.00000000E+00
  0.00000000E+00  0.00000000E+00  0.00000000E+00
  0.00000000E+00  0.00000000E+00  0.00000000E+00
  0.00000000E+00  0.00000000E+00  0.00000000E+00
  0.00000000E+00  0.00000000E+00  0.00000000E+00
  0.00000000E+00  0.00000000E+00  0.00000000E+00
  0.00000000E+00  0.00000000E+00  0.00000000E+00
  0.00000000E+00  0.00000000E+00  0.00000000E+00
  0.00000000E+00  0.00000000E+00  0.00000000E+00
  0.00000000E+00  0.00000000E+00  0.00000000E+00
  0.00000000E+00  0.00000000E+00  0.00000000E+00
  0.00000000E+00  0.00000000E+00  0.00000000E+00
  0.00000000E+00  0.00000000E+00  0.00000000E+00
  0.00000000E+00  0.00000000E+00  0.00000000E+00
  0.00000000E+00  0.00000000E+00  0.00000000E+00
  0.00000000E+00  0.00000000E+00  0.00000000E+00
  0.00000000E+00  0.00000000E+00  0.00000000E+00
  0.00000000E+00  0.00000000E+00  0.00000000E+00
  0.00000000E+00  0.00000000E+00  0.00000000E+00
  0.00000000E+00  0.00000000E+00  0.00000000E+00
  0.00000000E+00  0.00000000E+00  0.00000000E+00
  0.00000000E+00  0.00000000E+00  0.00000000E+00
  0.00000000E+00  0.00000000E+00  0.00000000E+00
  0.00000000E+00  0.00000000E+00  0.00000000E+00
  0.00000000E+00  0.00000000E+00  0.00000000E+00
  0.00000000E+00  0.00000000E+00  0.00000000E+00
  0.00000000E+00  0.00000000E+00  0.00000000E+00
  0.00000000E+00  0.00000000E+00  0.00000000E+00
  0.00000000E+00  0.00000000E+00  0.00000000E+00
  0.00000000E+00  0.00000000E+00  0.00000000E+00
  0.00000000E+00  0.00000000E+00  0.00000000E+00
  0.00000000E+00  0.00000000E+00  0.00000000E+00
  0.00000000E+00  0.00000000E+00  0.00000000E+00
  0.00000000E+00  0.00000000E+00  0.00000000E+00
  0.00000000E+00  0.00000000E+00  0.00000000E+00
  0.00000000E+00  0.00000000E+00  0.00000000E+00
  0.00000000E+00  0.00000000E+00  0.00000000E+00
  0.00000000E+00  0.00000000E+00  0.00000000E+00
  0.00000000E+00  0.00000000E+00  0.00000000E+00
  0.00000000E+00  0.00000000E+00  0.00000000E+00
  0.00000000E+00  0.00000000E+00  0.00000000E+00
  0.00000000E+00  0.00000000E+00  0.00000000E+00
  0.00000000E+00  0.00000000E+00  0.00000000E+00
  0.00000000E+00  0.00000000E+00  0.00000000E+00
  0.00000000E+00  0.00000000E+00  0.00000000E+00
  0.00000000E+00  0.00000000E+00  0.00000000E+00
  0.00000000E+00  0.00000000E+00  0.00000000E+00
  0.00000000E+00  0.00000000E+00  0.00000000E+00
  0.00000000E+00  0.00000000E+00  0.00000000E+00
  0.00000000E+00  0.00000000E+00  0.00000000E+00
  0.00000000E+00  0.00000000E+00  0.00000000E+00
  0.00000000E+00  0.00000000E+00  0.00000000E+00
  0.00000000E+00  0.00000000E+00  0.00000000E+00
  0.00000000E+00  0.00000000E+00  0.00000000E+00
  0.00000000E+00  0.00000000E+00  0.00000000E+00
  0.00000000E+00  0.00000000E+00  0.00000000E+00
  0.00000000E+00  0.00000000E+00  0.00000000E+00
  0.00000000E+00  0.00000000E+00  0.00000000E+00
