CONTCAR\(2)                             
   1.00000000000000     
    12.3312997818000003    0.0000000000000000    0.0000000000000000
     0.0001127485000000   12.8291997905000006    0.0000000000000000
     0.0005937186000000    0.0011528207000000   19.9943999824000009
   C    N    Fe   Ni   O    H 
    53     3     1     1     2     2
Direct
  0.0556677842701407  0.0533390922185124  0.0451323496615705
  0.1558958866780854  0.1082783983858282  0.0455527053412312
  0.1554047920759699  0.2191710440069485  0.0447795316244850
  0.0555102258264329  0.2750354616286531  0.0439259511936593
  0.2564544113164552  0.0531432846974045  0.0477779923958436
  0.3565859519587697  0.1089078066736423  0.0505979696313477
  0.3558287567688455  0.2205701720700700  0.0504228293320755
  0.2552374888701164  0.2745197992275573  0.0465907990458939
  0.4565403163749036  0.0535127806988316  0.0542837724162594
  0.5561968127523911  0.1110172532054523  0.0567603217398118
  0.5558644361552536  0.2235343765187264  0.0584837517160126
  0.4544011375722985  0.2789608079004561  0.0554735305041495
  0.6562776481700648  0.0522865151382648  0.0557031212590623
  0.7553117511247113  0.1095966069989495  0.0520377178241382
  0.7553716269650484  0.2220571048641955  0.0526824590668835
  0.6566434082893413  0.2814486008493551  0.0594143880631211
  0.8549750957009858  0.0531732892482602  0.0484835391449936
  0.9552546833390473  0.1088128850143577  0.0460209335445750
  0.9551758470012947  0.2203234579477348  0.0456174780404157
  0.8552916758500921  0.2770989708545106  0.0485445163381792
  0.0563149304050188  0.3864156404652497  0.0432068665565967
  0.1556902351198772  0.4418685702121071  0.0439814047222243
  0.1565834118768356  0.5530087016799349  0.0442989215677791
  0.0571265322989614  0.6090355105794263  0.0429594338934746
  0.2549798089600232  0.3852770927545905  0.0463193690459483
  0.3543057873425120  0.4391950865330944  0.0516361334621457
  0.3568947400961253  0.5520205898554529  0.0553480319118038
  0.2565721827089774  0.6078612472747309  0.0485750408059125
  0.7588949238664832  0.4484784663502470  0.0561056433497995
  0.8567459342147311  0.3888528176835597  0.0482154741166301
  0.9569022897070298  0.4427519940326851  0.0443291930343111
  0.9575226861467043  0.5537482020442278  0.0439496966286365
  0.8570672733650715  0.6081629544286371  0.0477137411278734
  0.0568526270969538  0.7200683838643750  0.0435461266172239
  0.1561237385322038  0.7753659929322527  0.0453609135629704
  0.1564242947326322  0.8866179774112423  0.0457425390855034
  0.0562593079594554  0.9422095154531672  0.0448877233796043
  0.2557133184399513  0.7190098176747756  0.0487637052580473
  0.3548218231486919  0.7739896433737565  0.0537396317225807
  0.3563711850524349  0.8857533209654639  0.0523110307552659
  0.2565852963926205  0.9418732640388887  0.0481943255140636
  0.4529586725853399  0.7163976986066953  0.0642151688178968
  0.5557879044833551  0.8834039662727785  0.0606758263242836
  0.4563054700916905  0.9415389657936990  0.0557165156055180
  0.7570951413089239  0.8826129280601552  0.0520725584679982
  0.6566841835207435  0.9394721483356697  0.0568892028278329
  0.8573727402529584  0.7214069320290785  0.0464797122735290
  0.9569878284907783  0.7757679335061216  0.0443375902182021
  0.9564920450484575  0.8868637357816528  0.0452490048339535
  0.8557021839719041  0.9411320111283970  0.0480971374216349
  0.4554837375841095  0.6043248323223367  0.0683875911210977
  0.6615600320281431  0.3916143547616135  0.0664156839398753
  0.5509606457562403  0.7739065275734925  0.0683494198752476
  0.4502911303524048  0.3867070871546031  0.0569188101745359
  0.7611073309125063  0.5572533159292397  0.0556925473693946
  0.7600013364179169  0.7736506984193785  0.0510644866146191
  0.6585840789316604  0.6763686935996068  0.0862265408671289
  0.5501874963297351  0.4776782581183533  0.0976854732632401
  0.5925765455296721  0.5055358848636302  0.1805295392794998
  0.6778633339246095  0.6939431287865958  0.1766440239471997
  0.6626590496668686  0.7630310143236290  0.1944411439341650
  0.6169570872884556  0.5769974338777346  0.1919714298210016
 
  0.00000000E+00  0.00000000E+00  0.00000000E+00
  0.00000000E+00  0.00000000E+00  0.00000000E+00
  0.00000000E+00  0.00000000E+00  0.00000000E+00
  0.00000000E+00  0.00000000E+00  0.00000000E+00
  0.00000000E+00  0.00000000E+00  0.00000000E+00
  0.00000000E+00  0.00000000E+00  0.00000000E+00
  0.00000000E+00  0.00000000E+00  0.00000000E+00
  0.00000000E+00  0.00000000E+00  0.00000000E+00
  0.00000000E+00  0.00000000E+00  0.00000000E+00
  0.00000000E+00  0.00000000E+00  0.00000000E+00
  0.00000000E+00  0.00000000E+00  0.00000000E+00
  0.00000000E+00  0.00000000E+00  0.00000000E+00
  0.00000000E+00  0.00000000E+00  0.00000000E+00
  0.00000000E+00  0.00000000E+00  0.00000000E+00
  0.00000000E+00  0.00000000E+00  0.00000000E+00
  0.00000000E+00  0.00000000E+00  0.00000000E+00
  0.00000000E+00  0.00000000E+00  0.00000000E+00
  0.00000000E+00  0.00000000E+00  0.00000000E+00
  0.00000000E+00  0.00000000E+00  0.00000000E+00
  0.00000000E+00  0.00000000E+00  0.00000000E+00
  0.00000000E+00  0.00000000E+00  0.00000000E+00
  0.00000000E+00  0.00000000E+00  0.00000000E+00
  0.00000000E+00  0.00000000E+00  0.00000000E+00
  0.00000000E+00  0.00000000E+00  0.00000000E+00
  0.00000000E+00  0.00000000E+00  0.00000000E+00
  0.00000000E+00  0.00000000E+00  0.00000000E+00
  0.00000000E+00  0.00000000E+00  0.00000000E+00
  0.00000000E+00  0.00000000E+00  0.00000000E+00
  0.00000000E+00  0.00000000E+00  0.00000000E+00
  0.00000000E+00  0.00000000E+00  0.00000000E+00
  0.00000000E+00  0.00000000E+00  0.00000000E+00
  0.00000000E+00  0.00000000E+00  0.00000000E+00
  0.00000000E+00  0.00000000E+00  0.00000000E+00
  0.00000000E+00  0.00000000E+00  0.00000000E+00
  0.00000000E+00  0.00000000E+00  0.00000000E+00
  0.00000000E+00  0.00000000E+00  0.00000000E+00
  0.00000000E+00  0.00000000E+00  0.00000000E+00
  0.00000000E+00  0.00000000E+00  0.00000000E+00
  0.00000000E+00  0.00000000E+00  0.00000000E+00
  0.00000000E+00  0.00000000E+00  0.00000000E+00
  0.00000000E+00  0.00000000E+00  0.00000000E+00
  0.00000000E+00  0.00000000E+00  0.00000000E+00
  0.00000000E+00  0.00000000E+00  0.00000000E+00
  0.00000000E+00  0.00000000E+00  0.00000000E+00
  0.00000000E+00  0.00000000E+00  0.00000000E+00
  0.00000000E+00  0.00000000E+00  0.00000000E+00
  0.00000000E+00  0.00000000E+00  0.00000000E+00
  0.00000000E+00  0.00000000E+00  0.00000000E+00
  0.00000000E+00  0.00000000E+00  0.00000000E+00
  0.00000000E+00  0.00000000E+00  0.00000000E+00
  0.00000000E+00  0.00000000E+00  0.00000000E+00
  0.00000000E+00  0.00000000E+00  0.00000000E+00
  0.00000000E+00  0.00000000E+00  0.00000000E+00
  0.00000000E+00  0.00000000E+00  0.00000000E+00
  0.00000000E+00  0.00000000E+00  0.00000000E+00
  0.00000000E+00  0.00000000E+00  0.00000000E+00
  0.00000000E+00  0.00000000E+00  0.00000000E+00
  0.00000000E+00  0.00000000E+00  0.00000000E+00
  0.00000000E+00  0.00000000E+00  0.00000000E+00
  0.00000000E+00  0.00000000E+00  0.00000000E+00
  0.00000000E+00  0.00000000E+00  0.00000000E+00
  0.00000000E+00  0.00000000E+00  0.00000000E+00
