1h\(2)                                  
   1.00000000000000     
    12.3312997818000003    0.0000000000000000    0.0000000000000000
     0.0001127485000000   12.8291997905000006    0.0000000000000000
     0.0005937186000000    0.0011528207000000   19.9943999824000009
   C    N    Fe   Ni
    52     4     1     1
Direct
  0.0557046889396236  0.0538509594679140  0.0539478029431981
  0.1561463054093738  0.1096226787325468  0.0536402702346805
  0.1563145952063052  0.2204456549951330  0.0532333572500231
  0.0566022373119739  0.2756518437192059  0.0531149536457107
  0.2566502592061904  0.0554083963090015  0.0542441989581706
  0.3568035270375610  0.1119875378866278  0.0553562235907525
  0.3563578836487734  0.2234765180234118  0.0550665073927290
  0.2556129433523640  0.2769224073492946  0.0536279383421468
  0.4571410574418178  0.0569614871949194  0.0569611761808370
  0.5566149142202134  0.1153836807154804  0.0583154957709917
  0.5573670155223496  0.2296202581212476  0.0581381646163536
  0.4546632792066308  0.2841919029855818  0.0563553459899870
  0.6550773647620159  0.0549099722728877  0.0591808646606610
  0.7551323374814473  0.1112169032796610  0.0581658676577992
  0.7564312208878370  0.2234929439874646  0.0579433575622177
  0.6593559923097333  0.2857446950985293  0.0590435614706819
  0.8546960672684241  0.0537353714007897  0.0568255925334681
  0.9554033252087604  0.1088546002835675  0.0549227918431907
  0.9566246330347198  0.2200945907936078  0.0544495846360106
  0.8577339969407759  0.2765047497573985  0.0560619397025299
  0.0578187531413806  0.3865325480744551  0.0525011487042435
  0.1560792319573540  0.4434939066560067  0.0521069990295563
  0.1562931020415535  0.5543504610761455  0.0518325402731523
  0.0576561971174620  0.6103999923038725  0.0521921249533873
  0.2548287708523432  0.3880753239440598  0.0531307576143420
  0.3538204487949118  0.4428431306070265  0.0541575962464934
  0.3547687508435831  0.5558212173836853  0.0540347210850547
  0.2552494252343578  0.6104681111195669  0.0525679364486391
  0.7637327282238389  0.4451258031466866  0.0595192972191968
  0.8608700557346866  0.3873095388183435  0.0561420879179905
  0.9595907850955807  0.4423789471299959  0.0538256523861229
  0.9593056822183196  0.5531857947136523  0.0538237233328180
  0.8601194789743725  0.6062394202371957  0.0574613333217534
  0.0564237440569313  0.7211171858506599  0.0527007713051210
  0.1552448445336600  0.7774570465407219  0.0525122042037978
  0.1557634276532316  0.8884519347574280  0.0531449611403170
  0.0553051817308156  0.9431277338751534  0.0538097758365670
  0.2542012575632875  0.7217256743561801  0.0526871665502603
  0.3534050791250222  0.7766683948470355  0.0540906837725701
  0.3558467672404936  0.8883604864272042  0.0548960234037261
  0.2560124288255278  0.9440284259091523  0.0539230669195429
  0.4512881468548186  0.7179189855610583  0.0562455723751053
  0.5542491742377771  0.8851240774814235  0.0595034810696012
  0.4561951550121772  0.9444776408771078  0.0570239943374372
  0.7543154838115290  0.8831065488018744  0.0598670355122804
  0.6544934887879148  0.9421031966025439  0.0601385296137197
  0.8575495618998519  0.7188346163564210  0.0575035221036799
  0.9563608922403843  0.7756548367157089  0.0546906189114812
  0.9551117816735465  0.8870239531689291  0.0551229516767939
  0.8542073848879267  0.9414407083352935  0.0573211722232356
  0.5506918535983116  0.7735294997055047  0.0606994238658612
  0.7569136989164090  0.7712100044315643  0.0610402565167803
  0.4498238488534783  0.3909175422650648  0.0555666684183308
  0.4516999144067336  0.6084181283053507  0.0558995989621845
  0.6661249364410041  0.3947347410652409  0.0602344111495879
  0.7640269442216255  0.5524607800646686  0.0617211312401403
  0.6472771789962252  0.6638356283795825  0.0693634761886546
  0.5601108138046882  0.5012811197341367  0.0575025841883424
 
  0.00000000E+00  0.00000000E+00  0.00000000E+00
  0.00000000E+00  0.00000000E+00  0.00000000E+00
  0.00000000E+00  0.00000000E+00  0.00000000E+00
  0.00000000E+00  0.00000000E+00  0.00000000E+00
  0.00000000E+00  0.00000000E+00  0.00000000E+00
  0.00000000E+00  0.00000000E+00  0.00000000E+00
  0.00000000E+00  0.00000000E+00  0.00000000E+00
  0.00000000E+00  0.00000000E+00  0.00000000E+00
  0.00000000E+00  0.00000000E+00  0.00000000E+00
  0.00000000E+00  0.00000000E+00  0.00000000E+00
  0.00000000E+00  0.00000000E+00  0.00000000E+00
  0.00000000E+00  0.00000000E+00  0.00000000E+00
  0.00000000E+00  0.00000000E+00  0.00000000E+00
  0.00000000E+00  0.00000000E+00  0.00000000E+00
  0.00000000E+00  0.00000000E+00  0.00000000E+00
  0.00000000E+00  0.00000000E+00  0.00000000E+00
  0.00000000E+00  0.00000000E+00  0.00000000E+00
  0.00000000E+00  0.00000000E+00  0.00000000E+00
  0.00000000E+00  0.00000000E+00  0.00000000E+00
  0.00000000E+00  0.00000000E+00  0.00000000E+00
  0.00000000E+00  0.00000000E+00  0.00000000E+00
  0.00000000E+00  0.00000000E+00  0.00000000E+00
  0.00000000E+00  0.00000000E+00  0.00000000E+00
  0.00000000E+00  0.00000000E+00  0.00000000E+00
  0.00000000E+00  0.00000000E+00  0.00000000E+00
  0.00000000E+00  0.00000000E+00  0.00000000E+00
  0.00000000E+00  0.00000000E+00  0.00000000E+00
  0.00000000E+00  0.00000000E+00  0.00000000E+00
  0.00000000E+00  0.00000000E+00  0.00000000E+00
  0.00000000E+00  0.00000000E+00  0.00000000E+00
  0.00000000E+00  0.00000000E+00  0.00000000E+00
  0.00000000E+00  0.00000000E+00  0.00000000E+00
  0.00000000E+00  0.00000000E+00  0.00000000E+00
  0.00000000E+00  0.00000000E+00  0.00000000E+00
  0.00000000E+00  0.00000000E+00  0.00000000E+00
  0.00000000E+00  0.00000000E+00  0.00000000E+00
  0.00000000E+00  0.00000000E+00  0.00000000E+00
  0.00000000E+00  0.00000000E+00  0.00000000E+00
  0.00000000E+00  0.00000000E+00  0.00000000E+00
  0.00000000E+00  0.00000000E+00  0.00000000E+00
  0.00000000E+00  0.00000000E+00  0.00000000E+00
  0.00000000E+00  0.00000000E+00  0.00000000E+00
  0.00000000E+00  0.00000000E+00  0.00000000E+00
  0.00000000E+00  0.00000000E+00  0.00000000E+00
  0.00000000E+00  0.00000000E+00  0.00000000E+00
  0.00000000E+00  0.00000000E+00  0.00000000E+00
  0.00000000E+00  0.00000000E+00  0.00000000E+00
  0.00000000E+00  0.00000000E+00  0.00000000E+00
  0.00000000E+00  0.00000000E+00  0.00000000E+00
  0.00000000E+00  0.00000000E+00  0.00000000E+00
  0.00000000E+00  0.00000000E+00  0.00000000E+00
  0.00000000E+00  0.00000000E+00  0.00000000E+00
  0.00000000E+00  0.00000000E+00  0.00000000E+00
  0.00000000E+00  0.00000000E+00  0.00000000E+00
  0.00000000E+00  0.00000000E+00  0.00000000E+00
  0.00000000E+00  0.00000000E+00  0.00000000E+00
  0.00000000E+00  0.00000000E+00  0.00000000E+00
  0.00000000E+00  0.00000000E+00  0.00000000E+00
