CONTCAR                                 
   1.00000000000000     
    12.3312997818000003    0.0000000000000000    0.0000000000000000
     0.0001127485000000   12.8291997905000006    0.0000000000000000
     0.0005937186000000    0.0011528207000000   19.9943999824000009
   C    N    Fe   Ni   O 
    53     3     1     1     2
Direct
  0.0553774229886161  0.0537725184798135  0.0488920662024386
  0.1557718754381251  0.1094204032507231  0.0491713807904048
  0.1559635584663827  0.2202984805516552  0.0477635478565519
  0.0563414394680544  0.2757430876806419  0.0467805884209246
  0.2564638920126565  0.0553919599604100  0.0517592090533201
  0.3564989357238691  0.1122862347968068  0.0541738929355422
  0.3564631359393309  0.2240928999457209  0.0530661911845597
  0.2553287518658844  0.2766162232726292  0.0490429743022720
  0.4564592848349686  0.0575440082737141  0.0577857861537559
  0.5561265947640973  0.1156169165725614  0.0593303135160607
  0.5570181906087348  0.2292121833009036  0.0601565977482402
  0.4550231480759167  0.2842878911459185  0.0568361459845922
  0.6550854039184977  0.0561038852310469  0.0582718715733703
  0.7552661444556625  0.1112160363991870  0.0548471010642288
  0.7567154950971470  0.2232019040837411  0.0551748481984889
  0.6598003933312758  0.2841995653939667  0.0606624705507051
  0.8546308877781745  0.0540253019018803  0.0517148297312480
  0.9553511828508121  0.1090680895185189  0.0495169753447598
  0.9564960740784696  0.2203075673495357  0.0488255675997414
  0.8574148345838073  0.2766370229442010  0.0513168650148419
  0.0570060788881222  0.3868974728544362  0.0454971459083732
  0.1553449391246021  0.4436139128514244  0.0459588012924649
  0.1555707042550121  0.5547784525849124  0.0464235014213141
  0.0563220033622409  0.6103056632126168  0.0457998842496498
  0.2542736661539828  0.3873393058061790  0.0481842971043843
  0.3524520972555426  0.4423295241444622  0.0526970861509413
  0.3540831057077430  0.5545134373672947  0.0564944077640401
  0.2548849462040467  0.6103961251124487  0.0505629739671054
  0.7615332286158968  0.4446277187061825  0.0557633473026086
  0.8593424950654981  0.3873801200770381  0.0499737847710741
  0.9581318041410494  0.4425900251760984  0.0462464991248722
  0.9577201273800776  0.5532697225316323  0.0462183287963865
  0.8571687690125849  0.6057377849100495  0.0486442675426003
  0.0554714257236130  0.7212864317205866  0.0469528797818092
  0.1549831063052640  0.7771006619262920  0.0492119333413600
  0.1554055517766173  0.8881929491496759  0.0499065200154781
  0.0547547264467534  0.9426695257850941  0.0489282172567418
  0.2548148009707086  0.7214423331578630  0.0521463599261991
  0.3543474763700200  0.7764249510145693  0.0574898550176213
  0.3556781842077876  0.8884483808787590  0.0563865482829391
  0.2557865260865277  0.9438971438974361  0.0524382584179453
  0.4532265418202699  0.7184650707707513  0.0662610183226114
  0.5544033090162529  0.8877705287624211  0.0628143036361738
  0.4553865012229976  0.9453115633586837  0.0593636728131340
  0.7536729237522886  0.8850462282227917  0.0552786094916491
  0.6547801752111493  0.9437973341058685  0.0592978577351928
  0.8549386150155062  0.7187502209437312  0.0492454693440208
  0.9546435322895582  0.7753821454513747  0.0478361152426095
  0.9543840693946704  0.8869128388975243  0.0490730361800149
  0.8538873812931552  0.9419776756918594  0.0515602837407754
  0.4531743120199178  0.6055539893654953  0.0693877483910761
  0.5513672709032639  0.7781394252798792  0.0681785610826502
  0.7544390246302192  0.7730019607105590  0.0547134782593568
  0.4495678803562719  0.3920751133415326  0.0565353281498709
  0.6659429874508017  0.3915931652080175  0.0653574324812142
  0.7615880301174912  0.5517785906253770  0.0526146913021630
  0.6489505089334853  0.6696208749183145  0.0746010540563603
  0.5556262352096424  0.4908432747252030  0.0851260899505587
  0.6204463421451741  0.5409099814431401  0.1620561470102008
  0.6532119998837079  0.6446963132588550  0.1650549891483948
 
  0.00000000E+00  0.00000000E+00  0.00000000E+00
  0.00000000E+00  0.00000000E+00  0.00000000E+00
  0.00000000E+00  0.00000000E+00  0.00000000E+00
  0.00000000E+00  0.00000000E+00  0.00000000E+00
  0.00000000E+00  0.00000000E+00  0.00000000E+00
  0.00000000E+00  0.00000000E+00  0.00000000E+00
  0.00000000E+00  0.00000000E+00  0.00000000E+00
  0.00000000E+00  0.00000000E+00  0.00000000E+00
  0.00000000E+00  0.00000000E+00  0.00000000E+00
  0.00000000E+00  0.00000000E+00  0.00000000E+00
  0.00000000E+00  0.00000000E+00  0.00000000E+00
  0.00000000E+00  0.00000000E+00  0.00000000E+00
  0.00000000E+00  0.00000000E+00  0.00000000E+00
  0.00000000E+00  0.00000000E+00  0.00000000E+00
  0.00000000E+00  0.00000000E+00  0.00000000E+00
  0.00000000E+00  0.00000000E+00  0.00000000E+00
  0.00000000E+00  0.00000000E+00  0.00000000E+00
  0.00000000E+00  0.00000000E+00  0.00000000E+00
  0.00000000E+00  0.00000000E+00  0.00000000E+00
  0.00000000E+00  0.00000000E+00  0.00000000E+00
  0.00000000E+00  0.00000000E+00  0.00000000E+00
  0.00000000E+00  0.00000000E+00  0.00000000E+00
  0.00000000E+00  0.00000000E+00  0.00000000E+00
  0.00000000E+00  0.00000000E+00  0.00000000E+00
  0.00000000E+00  0.00000000E+00  0.00000000E+00
  0.00000000E+00  0.00000000E+00  0.00000000E+00
  0.00000000E+00  0.00000000E+00  0.00000000E+00
  0.00000000E+00  0.00000000E+00  0.00000000E+00
  0.00000000E+00  0.00000000E+00  0.00000000E+00
  0.00000000E+00  0.00000000E+00  0.00000000E+00
  0.00000000E+00  0.00000000E+00  0.00000000E+00
  0.00000000E+00  0.00000000E+00  0.00000000E+00
  0.00000000E+00  0.00000000E+00  0.00000000E+00
  0.00000000E+00  0.00000000E+00  0.00000000E+00
  0.00000000E+00  0.00000000E+00  0.00000000E+00
  0.00000000E+00  0.00000000E+00  0.00000000E+00
  0.00000000E+00  0.00000000E+00  0.00000000E+00
  0.00000000E+00  0.00000000E+00  0.00000000E+00
  0.00000000E+00  0.00000000E+00  0.00000000E+00
  0.00000000E+00  0.00000000E+00  0.00000000E+00
  0.00000000E+00  0.00000000E+00  0.00000000E+00
  0.00000000E+00  0.00000000E+00  0.00000000E+00
  0.00000000E+00  0.00000000E+00  0.00000000E+00
  0.00000000E+00  0.00000000E+00  0.00000000E+00
  0.00000000E+00  0.00000000E+00  0.00000000E+00
  0.00000000E+00  0.00000000E+00  0.00000000E+00
  0.00000000E+00  0.00000000E+00  0.00000000E+00
  0.00000000E+00  0.00000000E+00  0.00000000E+00
  0.00000000E+00  0.00000000E+00  0.00000000E+00
  0.00000000E+00  0.00000000E+00  0.00000000E+00
  0.00000000E+00  0.00000000E+00  0.00000000E+00
  0.00000000E+00  0.00000000E+00  0.00000000E+00
  0.00000000E+00  0.00000000E+00  0.00000000E+00
  0.00000000E+00  0.00000000E+00  0.00000000E+00
  0.00000000E+00  0.00000000E+00  0.00000000E+00
  0.00000000E+00  0.00000000E+00  0.00000000E+00
  0.00000000E+00  0.00000000E+00  0.00000000E+00
  0.00000000E+00  0.00000000E+00  0.00000000E+00
  0.00000000E+00  0.00000000E+00  0.00000000E+00
  0.00000000E+00  0.00000000E+00  0.00000000E+00
