1234                                    
   1.00000000000000     
    12.3312997818000003    0.0000000000000000    0.0000000000000000
     0.0001127485000000   12.8291997905000006    0.0000000000000000
     0.0005937186000000    0.0011528207000000   19.9943999824000009
   C    N    Fe   Ni   O 
    52     4     1     1     1
Direct
  0.0561871182858569  0.0557021685705073  0.0517745534473069
  0.1566678360970613  0.1107731268815907  0.0512706658337764
  0.1561875111584056  0.2216699392891276  0.0499783145973237
  0.0555912302272899  0.2769783697260729  0.0492926551261730
  0.2571399329592561  0.0554563585087948  0.0526247594669737
  0.3576477673447387  0.1105680465293863  0.0558660078299571
  0.3568340552251675  0.2228926146216606  0.0553634326017011
  0.2560420488351341  0.2769311766908192  0.0506350000203566
  0.4574347856115341  0.0533940040236753  0.0595052525618870
  0.5563047241511492  0.1109764474054501  0.0633603094809873
  0.5558167101750680  0.2248572881905735  0.0647889636327159
  0.4554205150883556  0.2820827904970892  0.0599952265174844
  0.6553428938754641  0.0509041109844932  0.0640109195352893
  0.7546720562709067  0.1095841268879948  0.0616845768586094
  0.7550333387327953  0.2225332845229726  0.0620001790299256
  0.6561029170937619  0.2821825662297645  0.0672276438979179
  0.8550488989151751  0.0541964793923531  0.0577015660030949
  0.9552294949845516  0.1103541891399005  0.0540799995870294
  0.9552750277861963  0.2218891132893699  0.0530861902031096
  0.8553551619850730  0.2781757542266490  0.0566992346191562
  0.0560717025546863  0.3879927357093301  0.0463133638275520
  0.1557125902773100  0.4436466150034720  0.0443628038675741
  0.1556730984821314  0.5544711137043606  0.0426457713077518
  0.0569385198642718  0.6110711261143376  0.0431775293559087
  0.2555503265445656  0.3883209499724016  0.0478053890053094
  0.3547160320591871  0.4433401787876029  0.0511743624996407
  0.3540511744874051  0.5562239779522212  0.0497397200660603
  0.2544883785308854  0.6102427213004348  0.0445817149623376
  0.7584844856855617  0.4491438857735796  0.0621668752192347
  0.8570443381983696  0.3900451190295408  0.0547206542840879
  0.9566748448968628  0.4443313948135591  0.0479167793665419
  0.9577214343070564  0.5558249704791712  0.0461563207945442
  0.8595786835042399  0.6128085119254905  0.0517280747564553
  0.0574174765236830  0.7220807683245427  0.0444406304267275
  0.1563075541129723  0.7778938400094388  0.0454276139850317
  0.1568044028861547  0.8890112210787406  0.0484626818675714
  0.0568591008475121  0.9449993803784968  0.0504528036012675
  0.2550460193799876  0.7213006711959995  0.0462220491515078
  0.3543737947692924  0.7756855991108130  0.0514365161669208
  0.3562133370037377  0.8869372553474064  0.0535455168462525
  0.2568644733753521  0.9438704454632233  0.0511946496474884
  0.4520359102059125  0.7166544185740008  0.0566899810613850
  0.5543743211699291  0.8785524589569774  0.0625031909009017
  0.4570300842168590  0.9404671026493874  0.0585750388623995
  0.7581821975156068  0.8814612687687066  0.0628412029408934
  0.6555096525320487  0.9359949478400612  0.0644788356080222
  0.8607977898732220  0.7245620909298154  0.0540253412330341
  0.9586513758416845  0.7789626529934838  0.0489094535037571
  0.9573814179129602  0.8895395384260975  0.0521793892980911
  0.8561219384463304  0.9422456358058816  0.0574273295397878
  0.6609834579216497  0.3932584955981437  0.0717058378610595
  0.7602587423941720  0.5618236681165327  0.0609382053289276
  0.4521434197931058  0.3908360906413927  0.0586927984105117
  0.4496381579496224  0.6092697509160312  0.0568298168466216
  0.5496953812634213  0.7684817358607414  0.0631926979666283
  0.7636028178746999  0.7736572501690168  0.0646497142394540
  0.6579894898573290  0.6642337926938364  0.0907767125390217
  0.5534146174916217  0.4936005697448040  0.0803321328328663
  0.6077934016456693  0.5817141132326571  0.1467250421700683
 
  0.00000000E+00  0.00000000E+00  0.00000000E+00
  0.00000000E+00  0.00000000E+00  0.00000000E+00
  0.00000000E+00  0.00000000E+00  0.00000000E+00
  0.00000000E+00  0.00000000E+00  0.00000000E+00
  0.00000000E+00  0.00000000E+00  0.00000000E+00
  0.00000000E+00  0.00000000E+00  0.00000000E+00
  0.00000000E+00  0.00000000E+00  0.00000000E+00
  0.00000000E+00  0.00000000E+00  0.00000000E+00
  0.00000000E+00  0.00000000E+00  0.00000000E+00
  0.00000000E+00  0.00000000E+00  0.00000000E+00
  0.00000000E+00  0.00000000E+00  0.00000000E+00
  0.00000000E+00  0.00000000E+00  0.00000000E+00
  0.00000000E+00  0.00000000E+00  0.00000000E+00
  0.00000000E+00  0.00000000E+00  0.00000000E+00
  0.00000000E+00  0.00000000E+00  0.00000000E+00
  0.00000000E+00  0.00000000E+00  0.00000000E+00
  0.00000000E+00  0.00000000E+00  0.00000000E+00
  0.00000000E+00  0.00000000E+00  0.00000000E+00
  0.00000000E+00  0.00000000E+00  0.00000000E+00
  0.00000000E+00  0.00000000E+00  0.00000000E+00
  0.00000000E+00  0.00000000E+00  0.00000000E+00
  0.00000000E+00  0.00000000E+00  0.00000000E+00
  0.00000000E+00  0.00000000E+00  0.00000000E+00
  0.00000000E+00  0.00000000E+00  0.00000000E+00
  0.00000000E+00  0.00000000E+00  0.00000000E+00
  0.00000000E+00  0.00000000E+00  0.00000000E+00
  0.00000000E+00  0.00000000E+00  0.00000000E+00
  0.00000000E+00  0.00000000E+00  0.00000000E+00
  0.00000000E+00  0.00000000E+00  0.00000000E+00
  0.00000000E+00  0.00000000E+00  0.00000000E+00
  0.00000000E+00  0.00000000E+00  0.00000000E+00
  0.00000000E+00  0.00000000E+00  0.00000000E+00
  0.00000000E+00  0.00000000E+00  0.00000000E+00
  0.00000000E+00  0.00000000E+00  0.00000000E+00
  0.00000000E+00  0.00000000E+00  0.00000000E+00
  0.00000000E+00  0.00000000E+00  0.00000000E+00
  0.00000000E+00  0.00000000E+00  0.00000000E+00
  0.00000000E+00  0.00000000E+00  0.00000000E+00
  0.00000000E+00  0.00000000E+00  0.00000000E+00
  0.00000000E+00  0.00000000E+00  0.00000000E+00
  0.00000000E+00  0.00000000E+00  0.00000000E+00
  0.00000000E+00  0.00000000E+00  0.00000000E+00
  0.00000000E+00  0.00000000E+00  0.00000000E+00
  0.00000000E+00  0.00000000E+00  0.00000000E+00
  0.00000000E+00  0.00000000E+00  0.00000000E+00
  0.00000000E+00  0.00000000E+00  0.00000000E+00
  0.00000000E+00  0.00000000E+00  0.00000000E+00
  0.00000000E+00  0.00000000E+00  0.00000000E+00
  0.00000000E+00  0.00000000E+00  0.00000000E+00
  0.00000000E+00  0.00000000E+00  0.00000000E+00
  0.00000000E+00  0.00000000E+00  0.00000000E+00
  0.00000000E+00  0.00000000E+00  0.00000000E+00
  0.00000000E+00  0.00000000E+00  0.00000000E+00
  0.00000000E+00  0.00000000E+00  0.00000000E+00
  0.00000000E+00  0.00000000E+00  0.00000000E+00
  0.00000000E+00  0.00000000E+00  0.00000000E+00
  0.00000000E+00  0.00000000E+00  0.00000000E+00
  0.00000000E+00  0.00000000E+00  0.00000000E+00
  0.00000000E+00  0.00000000E+00  0.00000000E+00
