CONTCAR\(3)                             
   1.00000000000000     
    12.3312997818000003    0.0000000000000000    0.0000000000000000
     0.0001127485000000   12.8291997905000006    0.0000000000000000
     0.0005937186000000    0.0011528207000000   19.9943999824000009
   C    N    Fe   Ni   H 
    53     3     1     1     1
Direct
  0.0557329050698103  0.0555530810021399  0.0518440969733590
  0.1558074136060237  0.1110738230819010  0.0509354937790170
  0.1557698402567378  0.2216956407668306  0.0497606639330991
  0.0558788148391538  0.2769161233385684  0.0498245688836641
  0.2562157572261593  0.0563396521611778  0.0519715969687282
  0.3566188352933392  0.1117008403872834  0.0546846143757007
  0.3564455116685875  0.2235654767662179  0.0540852125019187
  0.2557378724014572  0.2771754158892902  0.0500075636952693
  0.4561887774792370  0.0555955582419747  0.0582114987622693
  0.5559017122424553  0.1123863064649611  0.0622760541044584
  0.5560424109331545  0.2253237480811748  0.0638429753726877
  0.4550233131585664  0.2825059422801214  0.0581946494898418
  0.6553958564520711  0.0519755129632321  0.0633646459069988
  0.7550149202098904  0.1096421209480382  0.0614164343342611
  0.7559053070404838  0.2221497672240732  0.0624849046163213
  0.6573087327962566  0.2814792665116382  0.0679799270451629
  0.8547844143301858  0.0537924275589016  0.0576960681784068
  0.9551863613562092  0.1099595037572542  0.0542111012914797
  0.9558018731740830  0.2212908634329285  0.0534492962991323
  0.8563462606101567  0.2772836362931405  0.0573982246152092
  0.0569832009525233  0.3882423753792236  0.0479867925600826
  0.1561115571423804  0.4439772586733544  0.0459805939821495
  0.1566195343551444  0.5551772311164509  0.0449948330673038
  0.0575894277232506  0.6109963599986067  0.0463098077646172
  0.2554317930028457  0.3879390400464964  0.0478240858438891
  0.3546725790159218  0.4424109757896458  0.0503415253839817
  0.3562444767444885  0.5561371842107845  0.0502230584244676
  0.2557216318856569  0.6109030250424734  0.0462258974110531
  0.7615640103626550  0.4465124995314944  0.0662091694802325
  0.8588819871402221  0.3887808368784234  0.0565326073876998
  0.9579144390757121  0.4441374931082079  0.0505713028465574
  0.9587394165776354  0.5554377699404671  0.0501586069718982
  0.8603775371352658  0.6119014816197286  0.0566091437968462
  0.0570507769352855  0.7222213128882987  0.0472182011242374
  0.1555952818764918  0.7781379496845424  0.0469976377197882
  0.1557154708942859  0.8893020354052095  0.0490745869995542
  0.0558979787254821  0.9447721336277446  0.0509513979126505
  0.2547580873918981  0.7219589734103672  0.0471667762842275
  0.3529434764274323  0.7782293531609202  0.0514231119847938
  0.3546241268354821  0.8893616508361604  0.0531190332239112
  0.2553771926904752  0.9452736023578815  0.0509345457660409
  0.4510079170600422  0.7221179896020559  0.0577081647681304
  0.5525474378005085  0.8830823091599986  0.0630219514856476
  0.4549140793343445  0.9437981762350561  0.0578991448634911
  0.7568343068857891  0.8817393592791821  0.0619342759807274
  0.6553652368421462  0.9382401239425776  0.0639698024766084
  0.8599851639524807  0.7239316730173639  0.0561772220266868
  0.9580288983339602  0.7786403231823924  0.0510726868916166
  0.9565314674170206  0.8891629067587438  0.0529303245048886
  0.8551758624665762  0.9418668563760617  0.0575593212458637
  0.4549211364792736  0.6102273736358553  0.0575107169544128
  0.7620061800178010  0.5588444298106966  0.0663428064601268
  0.6625420084818288  0.3917524619938816  0.0744562026048170
  0.4512044360202747  0.3908109104607306  0.0560486286092415
  0.5468829311728948  0.7768700535292479  0.0654268020884974
  0.7620436232665712  0.7730561071760955  0.0628656331186049
  0.6483236746348732  0.6590056394093073  0.0761529265258273
  0.5579189582632907  0.4947402943003493  0.0745688694520089
  0.6154156955357695  0.5595979252730697  0.1300022058798307
 
  0.00000000E+00  0.00000000E+00  0.00000000E+00
  0.00000000E+00  0.00000000E+00  0.00000000E+00
  0.00000000E+00  0.00000000E+00  0.00000000E+00
  0.00000000E+00  0.00000000E+00  0.00000000E+00
  0.00000000E+00  0.00000000E+00  0.00000000E+00
  0.00000000E+00  0.00000000E+00  0.00000000E+00
  0.00000000E+00  0.00000000E+00  0.00000000E+00
  0.00000000E+00  0.00000000E+00  0.00000000E+00
  0.00000000E+00  0.00000000E+00  0.00000000E+00
  0.00000000E+00  0.00000000E+00  0.00000000E+00
  0.00000000E+00  0.00000000E+00  0.00000000E+00
  0.00000000E+00  0.00000000E+00  0.00000000E+00
  0.00000000E+00  0.00000000E+00  0.00000000E+00
  0.00000000E+00  0.00000000E+00  0.00000000E+00
  0.00000000E+00  0.00000000E+00  0.00000000E+00
  0.00000000E+00  0.00000000E+00  0.00000000E+00
  0.00000000E+00  0.00000000E+00  0.00000000E+00
  0.00000000E+00  0.00000000E+00  0.00000000E+00
  0.00000000E+00  0.00000000E+00  0.00000000E+00
  0.00000000E+00  0.00000000E+00  0.00000000E+00
  0.00000000E+00  0.00000000E+00  0.00000000E+00
  0.00000000E+00  0.00000000E+00  0.00000000E+00
  0.00000000E+00  0.00000000E+00  0.00000000E+00
  0.00000000E+00  0.00000000E+00  0.00000000E+00
  0.00000000E+00  0.00000000E+00  0.00000000E+00
  0.00000000E+00  0.00000000E+00  0.00000000E+00
  0.00000000E+00  0.00000000E+00  0.00000000E+00
  0.00000000E+00  0.00000000E+00  0.00000000E+00
  0.00000000E+00  0.00000000E+00  0.00000000E+00
  0.00000000E+00  0.00000000E+00  0.00000000E+00
  0.00000000E+00  0.00000000E+00  0.00000000E+00
  0.00000000E+00  0.00000000E+00  0.00000000E+00
  0.00000000E+00  0.00000000E+00  0.00000000E+00
  0.00000000E+00  0.00000000E+00  0.00000000E+00
  0.00000000E+00  0.00000000E+00  0.00000000E+00
  0.00000000E+00  0.00000000E+00  0.00000000E+00
  0.00000000E+00  0.00000000E+00  0.00000000E+00
  0.00000000E+00  0.00000000E+00  0.00000000E+00
  0.00000000E+00  0.00000000E+00  0.00000000E+00
  0.00000000E+00  0.00000000E+00  0.00000000E+00
  0.00000000E+00  0.00000000E+00  0.00000000E+00
  0.00000000E+00  0.00000000E+00  0.00000000E+00
  0.00000000E+00  0.00000000E+00  0.00000000E+00
  0.00000000E+00  0.00000000E+00  0.00000000E+00
  0.00000000E+00  0.00000000E+00  0.00000000E+00
  0.00000000E+00  0.00000000E+00  0.00000000E+00
  0.00000000E+00  0.00000000E+00  0.00000000E+00
  0.00000000E+00  0.00000000E+00  0.00000000E+00
  0.00000000E+00  0.00000000E+00  0.00000000E+00
  0.00000000E+00  0.00000000E+00  0.00000000E+00
  0.00000000E+00  0.00000000E+00  0.00000000E+00
  0.00000000E+00  0.00000000E+00  0.00000000E+00
  0.00000000E+00  0.00000000E+00  0.00000000E+00
  0.00000000E+00  0.00000000E+00  0.00000000E+00
  0.00000000E+00  0.00000000E+00  0.00000000E+00
  0.00000000E+00  0.00000000E+00  0.00000000E+00
  0.00000000E+00  0.00000000E+00  0.00000000E+00
  0.00000000E+00  0.00000000E+00  0.00000000E+00
  0.00000000E+00  0.00000000E+00  0.00000000E+00
