1h\(2)                                  
   1.00000000000000     
    12.3312997818000003    0.0000000000000000    0.0000000000000000
     0.0001127485000000   12.8291997905000006    0.0000000000000000
     0.0005937186000000    0.0011528207000000   19.9943999824000009
   C    N    Fe   Ni
    53     3     1     1
Direct
  0.0557755714662964  0.0543130841818123  0.0545796278658863
  0.1561680461791617  0.1100018966635438  0.0546211923055683
  0.1566877803628584  0.2209420464160572  0.0542758493068047
  0.0569099371628362  0.2758836063572433  0.0537170953151130
  0.2564236196242524  0.0556825029767209  0.0555434750518292
  0.3567303171609713  0.1120342999310046  0.0567047816467584
  0.3568890842063789  0.2238340407134036  0.0566198170319688
  0.2562439589613966  0.2772915099751999  0.0551293063268171
  0.4562934803160226  0.0563200236136360  0.0578175487948737
  0.5558997578017577  0.1139087340020119  0.0583449436241824
  0.5565332650329297  0.2264798235938019  0.0582722414239901
  0.4559151607408019  0.2831184042528443  0.0577346059224909
  0.6552907534106968  0.0543112383140962  0.0582277865136199
  0.7555927632468482  0.1106703308212626  0.0572481642468942
  0.7565688144416298  0.2227690694966349  0.0568657094526376
  0.6580990630531421  0.2830237268659850  0.0578465420985618
  0.8547827169208285  0.0534000524341318  0.0562458135226479
  0.9554751602649088  0.1091527416660458  0.0549852206024543
  0.9565901330450982  0.2204912334678598  0.0544607914643563
  0.8573506660273816  0.2769854722494122  0.0552931263531945
  0.0585940722025278  0.3868461107388388  0.0532555036417531
  0.1570786484434193  0.4436573252571007  0.0534923421609318
  0.1568755443460269  0.5545153316494755  0.0534556490161129
  0.0577506461527387  0.6103919021942752  0.0532979114520452
  0.2564279741028801  0.3884874877793686  0.0547624973315563
  0.3557264948464922  0.4435119658380916  0.0562097437534707
  0.3560418634148184  0.5565173041937714  0.0561310950100634
  0.2557124058854007  0.6106612275202375  0.0546134994159061
  0.7637194606201981  0.4470988463106271  0.0563903347561877
  0.8607969572162086  0.3881776518153531  0.0548676802282468
  0.9600629450774056  0.4426268550265798  0.0536115212501823
  0.9595782946277853  0.5533021889631458  0.0536920647250675
  0.8598219772437197  0.6072232667240430  0.0551737673082839
  0.0563741702499594  0.7213212961260089  0.0537837990319028
  0.1550472596981804  0.7775398457091852  0.0541752425430814
  0.1555120731649441  0.8886499285945252  0.0545876927773617
  0.0552211453703009  0.9433734760367061  0.0546332917732086
  0.2541653056664179  0.7217991353947441  0.0548356955192747
  0.3530380043451937  0.7770963156290956  0.0562882284707864
  0.3552575961744383  0.8885909182369135  0.0565548727880340
  0.2556678261570174  0.9443318803293703  0.0554601492741223
  0.4510890607994675  0.7189401707957561  0.0576898192305123
  0.5537526213464036  0.8858072668850089  0.0586100708851890
  0.4554301627694521  0.9444059095911606  0.0578262868472851
  0.7538514987663160  0.8826842182266531  0.0575612292443534
  0.6547834471721504  0.9421550124370347  0.0583912195318133
  0.8573565350195748  0.7194185069278037  0.0556704323037367
  0.9562190879147219  0.7760305962408096  0.0547153513023659
  0.9551246198843902  0.8871682689278794  0.0551750803691289
  0.8538990769217306  0.9409849368537152  0.0563965468919533
  0.6636224837505739  0.3934025999113681  0.0578824554788179
  0.5506295578136050  0.7754402590663574  0.0588128856459456
  0.7556580710702978  0.7697419584660594  0.0573159352943247
  0.4525701376159775  0.3913176665079816  0.0577626675211618
  0.4523607109491139  0.6098624199271314  0.0577340946631622
  0.7638520976646451  0.5554093670921569  0.0565724710824982
  0.6425169680196620  0.6632876823190103  0.0584852914676456
  0.5618031920896525  0.4949192997639281  0.0586919361418860
 
  0.00000000E+00  0.00000000E+00  0.00000000E+00
  0.00000000E+00  0.00000000E+00  0.00000000E+00
  0.00000000E+00  0.00000000E+00  0.00000000E+00
  0.00000000E+00  0.00000000E+00  0.00000000E+00
  0.00000000E+00  0.00000000E+00  0.00000000E+00
  0.00000000E+00  0.00000000E+00  0.00000000E+00
  0.00000000E+00  0.00000000E+00  0.00000000E+00
  0.00000000E+00  0.00000000E+00  0.00000000E+00
  0.00000000E+00  0.00000000E+00  0.00000000E+00
  0.00000000E+00  0.00000000E+00  0.00000000E+00
  0.00000000E+00  0.00000000E+00  0.00000000E+00
  0.00000000E+00  0.00000000E+00  0.00000000E+00
  0.00000000E+00  0.00000000E+00  0.00000000E+00
  0.00000000E+00  0.00000000E+00  0.00000000E+00
  0.00000000E+00  0.00000000E+00  0.00000000E+00
  0.00000000E+00  0.00000000E+00  0.00000000E+00
  0.00000000E+00  0.00000000E+00  0.00000000E+00
  0.00000000E+00  0.00000000E+00  0.00000000E+00
  0.00000000E+00  0.00000000E+00  0.00000000E+00
  0.00000000E+00  0.00000000E+00  0.00000000E+00
  0.00000000E+00  0.00000000E+00  0.00000000E+00
  0.00000000E+00  0.00000000E+00  0.00000000E+00
  0.00000000E+00  0.00000000E+00  0.00000000E+00
  0.00000000E+00  0.00000000E+00  0.00000000E+00
  0.00000000E+00  0.00000000E+00  0.00000000E+00
  0.00000000E+00  0.00000000E+00  0.00000000E+00
  0.00000000E+00  0.00000000E+00  0.00000000E+00
  0.00000000E+00  0.00000000E+00  0.00000000E+00
  0.00000000E+00  0.00000000E+00  0.00000000E+00
  0.00000000E+00  0.00000000E+00  0.00000000E+00
  0.00000000E+00  0.00000000E+00  0.00000000E+00
  0.00000000E+00  0.00000000E+00  0.00000000E+00
  0.00000000E+00  0.00000000E+00  0.00000000E+00
  0.00000000E+00  0.00000000E+00  0.00000000E+00
  0.00000000E+00  0.00000000E+00  0.00000000E+00
  0.00000000E+00  0.00000000E+00  0.00000000E+00
  0.00000000E+00  0.00000000E+00  0.00000000E+00
  0.00000000E+00  0.00000000E+00  0.00000000E+00
  0.00000000E+00  0.00000000E+00  0.00000000E+00
  0.00000000E+00  0.00000000E+00  0.00000000E+00
  0.00000000E+00  0.00000000E+00  0.00000000E+00
  0.00000000E+00  0.00000000E+00  0.00000000E+00
  0.00000000E+00  0.00000000E+00  0.00000000E+00
  0.00000000E+00  0.00000000E+00  0.00000000E+00
  0.00000000E+00  0.00000000E+00  0.00000000E+00
  0.00000000E+00  0.00000000E+00  0.00000000E+00
  0.00000000E+00  0.00000000E+00  0.00000000E+00
  0.00000000E+00  0.00000000E+00  0.00000000E+00
  0.00000000E+00  0.00000000E+00  0.00000000E+00
  0.00000000E+00  0.00000000E+00  0.00000000E+00
  0.00000000E+00  0.00000000E+00  0.00000000E+00
  0.00000000E+00  0.00000000E+00  0.00000000E+00
  0.00000000E+00  0.00000000E+00  0.00000000E+00
  0.00000000E+00  0.00000000E+00  0.00000000E+00
  0.00000000E+00  0.00000000E+00  0.00000000E+00
  0.00000000E+00  0.00000000E+00  0.00000000E+00
  0.00000000E+00  0.00000000E+00  0.00000000E+00
  0.00000000E+00  0.00000000E+00  0.00000000E+00
