an23456                                 
   1.00000000000000     
    12.3312997818000003    0.0000000000000000    0.0000000000000000
     0.0001127485000000   12.8291997905000006    0.0000000000000000
     0.0005937186000000    0.0011528207000000   19.9943999824000009
   C    N    Fe   Ni
    51     5     1     1
Direct
  0.0559802241595252  0.0550048206518432  0.0557750515925001
  0.1563257939337090  0.1104435298974989  0.0557830541507795
  0.1564136833151756  0.2212485049774924  0.0557653123724598
  0.0562801367209226  0.2762594060729235  0.0557476064882483
  0.2566817338369517  0.0556792357540228  0.0557895961528013
  0.3572815092335787  0.1110207768606887  0.0557633520944522
  0.3569175324163714  0.2230886757870849  0.0557397180730695
  0.2561303491061319  0.2770496569788602  0.0557563349843228
  0.4571501981621351  0.0545370707815726  0.0557380771791312
  0.5564937415538366  0.1121457437837940  0.0557003114468492
  0.5566632230154019  0.2261089768473154  0.0556707411509349
  0.4554805143656555  0.2827705000095159  0.0556793531757705
  0.6550766570991230  0.0512942376350761  0.0556802531462815
  0.7545201952425750  0.1097149242547534  0.0556980024040706
  0.7551785717440584  0.2227181910332193  0.0557006434472329
  0.6570332605301634  0.2839656808980113  0.0556631686846425
  0.8548150923573947  0.0536786633988389  0.0557177426671237
  0.9553303686721372  0.1095434736300841  0.0557470102297730
  0.9559746554351635  0.2209393216351509  0.0557401642073252
  0.8563847446499645  0.2772078149900526  0.0557194735819000
  0.0576601531556610  0.3872029135464971  0.0557472710543474
  0.1563474091319678  0.4436013845904507  0.0557672126966621
  0.1560489541364283  0.5541568140745206  0.0557675994606508
  0.0576497442111147  0.6106346045448033  0.0557613026426927
  0.2557908049763677  0.3884029819766238  0.0557588477942319
  0.3548279706275122  0.4435581647390734  0.0557234047699289
  0.3543264295775839  0.5563724756972721  0.0557271894149314
  0.2548833958848949  0.6102177675655809  0.0557609608258458
  0.7629336904799732  0.4479161540537903  0.0556479856699636
  0.8600069793755082  0.3886811897963833  0.0556990212470427
  0.9592544801594832  0.4432819637057088  0.0557248048623654
  0.9592603479771233  0.5545079602174934  0.0557255562683165
  0.8601949713716409  0.6095218843126243  0.0556763471099026
  0.0570495836286484  0.7214166373384553  0.0557726610467962
  0.1553421661487836  0.7777050269603664  0.0557925894876071
  0.1560377555167040  0.8887647917021954  0.0557996779711040
  0.0561103145289302  0.9441698744591447  0.0557857090568564
  0.2537329304262321  0.7214712460334088  0.0557701992247064
  0.3520601354319064  0.7770100364849258  0.0557408439643610
  0.3550427822336809  0.8881582051978955  0.0557601088463418
  0.2559272755159487  0.9443483774592567  0.0557961798224605
  0.4492540793782357  0.7191346360570542  0.0556820342534809
  0.5530744030225998  0.8804699781299045  0.0556693695656707
  0.4561597669843080  0.9419501454485740  0.0557238399008827
  0.7572044041126464  0.8809596856896503  0.0556556470869316
  0.6547096459814141  0.9363651761308002  0.0556581363284059
  0.8594737357482066  0.7221243880709378  0.0556797192658544
  0.9580822667364646  0.7770509023798875  0.0557403387981715
  0.9566373001658565  0.8881851814509852  0.0557521567958692
  0.8554106413426890  0.9416262704322784  0.0557073975503935
  0.6621536055668322  0.3961430605580775  0.0556386745340922
  0.4516937639563289  0.3907806479655114  0.0556623801774682
  0.4509951215077163  0.6113144102468017  0.0556714708965383
  0.7641457312404681  0.5568080928816178  0.0556330838335188
  0.5464760494062452  0.7709311877940891  0.0556392102388030
  0.7622270222241853  0.7730712068631955  0.0556270947067662
  0.6484422881893500  0.6572287792762539  0.0556256917367754
  0.5585897573904012  0.4988765382900934  0.0556433258635591
 
  0.00000000E+00  0.00000000E+00  0.00000000E+00
  0.00000000E+00  0.00000000E+00  0.00000000E+00
  0.00000000E+00  0.00000000E+00  0.00000000E+00
  0.00000000E+00  0.00000000E+00  0.00000000E+00
  0.00000000E+00  0.00000000E+00  0.00000000E+00
  0.00000000E+00  0.00000000E+00  0.00000000E+00
  0.00000000E+00  0.00000000E+00  0.00000000E+00
  0.00000000E+00  0.00000000E+00  0.00000000E+00
  0.00000000E+00  0.00000000E+00  0.00000000E+00
  0.00000000E+00  0.00000000E+00  0.00000000E+00
  0.00000000E+00  0.00000000E+00  0.00000000E+00
  0.00000000E+00  0.00000000E+00  0.00000000E+00
  0.00000000E+00  0.00000000E+00  0.00000000E+00
  0.00000000E+00  0.00000000E+00  0.00000000E+00
  0.00000000E+00  0.00000000E+00  0.00000000E+00
  0.00000000E+00  0.00000000E+00  0.00000000E+00
  0.00000000E+00  0.00000000E+00  0.00000000E+00
  0.00000000E+00  0.00000000E+00  0.00000000E+00
  0.00000000E+00  0.00000000E+00  0.00000000E+00
  0.00000000E+00  0.00000000E+00  0.00000000E+00
  0.00000000E+00  0.00000000E+00  0.00000000E+00
  0.00000000E+00  0.00000000E+00  0.00000000E+00
  0.00000000E+00  0.00000000E+00  0.00000000E+00
  0.00000000E+00  0.00000000E+00  0.00000000E+00
  0.00000000E+00  0.00000000E+00  0.00000000E+00
  0.00000000E+00  0.00000000E+00  0.00000000E+00
  0.00000000E+00  0.00000000E+00  0.00000000E+00
  0.00000000E+00  0.00000000E+00  0.00000000E+00
  0.00000000E+00  0.00000000E+00  0.00000000E+00
  0.00000000E+00  0.00000000E+00  0.00000000E+00
  0.00000000E+00  0.00000000E+00  0.00000000E+00
  0.00000000E+00  0.00000000E+00  0.00000000E+00
  0.00000000E+00  0.00000000E+00  0.00000000E+00
  0.00000000E+00  0.00000000E+00  0.00000000E+00
  0.00000000E+00  0.00000000E+00  0.00000000E+00
  0.00000000E+00  0.00000000E+00  0.00000000E+00
  0.00000000E+00  0.00000000E+00  0.00000000E+00
  0.00000000E+00  0.00000000E+00  0.00000000E+00
  0.00000000E+00  0.00000000E+00  0.00000000E+00
  0.00000000E+00  0.00000000E+00  0.00000000E+00
  0.00000000E+00  0.00000000E+00  0.00000000E+00
  0.00000000E+00  0.00000000E+00  0.00000000E+00
  0.00000000E+00  0.00000000E+00  0.00000000E+00
  0.00000000E+00  0.00000000E+00  0.00000000E+00
  0.00000000E+00  0.00000000E+00  0.00000000E+00
  0.00000000E+00  0.00000000E+00  0.00000000E+00
  0.00000000E+00  0.00000000E+00  0.00000000E+00
  0.00000000E+00  0.00000000E+00  0.00000000E+00
  0.00000000E+00  0.00000000E+00  0.00000000E+00
  0.00000000E+00  0.00000000E+00  0.00000000E+00
  0.00000000E+00  0.00000000E+00  0.00000000E+00
  0.00000000E+00  0.00000000E+00  0.00000000E+00
  0.00000000E+00  0.00000000E+00  0.00000000E+00
  0.00000000E+00  0.00000000E+00  0.00000000E+00
  0.00000000E+00  0.00000000E+00  0.00000000E+00
  0.00000000E+00  0.00000000E+00  0.00000000E+00
  0.00000000E+00  0.00000000E+00  0.00000000E+00
  0.00000000E+00  0.00000000E+00  0.00000000E+00
