CONTCAR\(2)                             
   1.00000000000000     
    12.3312997818000003    0.0000000000000000    0.0000000000000000
     0.0001127485000000   12.8291997905000006    0.0000000000000000
     0.0005937186000000    0.0011528207000000   19.9943999824000009
   C    N    Fe   Ni   O    H 
    55     1     1     1     1     1
Direct
  0.0564971180968260  0.0559701591008785  0.0498360100836368
  0.1567871484163753  0.1112087352483448  0.0496965264595092
  0.1570899802095675  0.2222149200214055  0.0487285378018458
  0.0568393696092153  0.2770760460042851  0.0478460181875378
  0.2568882805989112  0.0560047577014303  0.0513169551599149
  0.3570949092931042  0.1117319286324896  0.0540230768149086
  0.3575604654248379  0.2236605481976178  0.0537528983038220
  0.2570749794275731  0.2781107949264300  0.0498620707324885
  0.4565098906386142  0.0552746817833093  0.0574725752923755
  0.5563015751665025  0.1118058347981238  0.0604344354330177
  0.5566562570221142  0.2232595225044106  0.0617474563379974
  0.4572564001613814  0.2811115661897839  0.0581334056216469
  0.6560340217364892  0.0537331054510116  0.0607117259122950
  0.7561016945009107  0.1105993601688414  0.0577229219439137
  0.7566246515129371  0.2222973937999551  0.0579057831941045
  0.6572055371983339  0.2800141786684225  0.0633249752271255
  0.8559606448855408  0.0549941035706653  0.0542551438226700
  0.9561543079609608  0.1107308226417539  0.0512682852261684
  0.9565477969255566  0.2217188098962810  0.0503437952318597
  0.8567681875913145  0.2773850316504971  0.0530726478150722
  0.0571485752147908  0.3880758892564499  0.0460929608590634
  0.1562760329664505  0.4440054912491002  0.0459389573532040
  0.1558254894574896  0.5553354122251724  0.0453853659901741
  0.0567551196621087  0.6108764587114179  0.0448898224541698
  0.2564157862580353  0.3892303625997390  0.0485195747368647
  0.3557728818775834  0.4454883279366124  0.0518969324621282
  0.3541479716675947  0.5584473704010156  0.0523316535853975
  0.2543414294759133  0.6121727965977571  0.0478230760574522
  0.7585741569323834  0.4460806246611054  0.0577978457400533
  0.8577525696420581  0.3885717835703175  0.0513448626005675
  0.9572858114886141  0.4436071732637612  0.0466568765168125
  0.9576790114217032  0.5544610131606018  0.0457078105624066
  0.8581253831420680  0.6096022403588309  0.0486975344457081
  0.0566651399549937  0.7224395269512721  0.0458805341675976
  0.1553515189964274  0.7786187579797923  0.0470295345526331
  0.1560758724307542  0.8897593444148467  0.0485915148005068
  0.0561691429362140  0.9451204874100503  0.0492081703054954
  0.2545253912233044  0.7228420733937774  0.0485468916752371
  0.3541879227764768  0.7769739999906600  0.0528665454927627
  0.3559866350147189  0.8883786179469860  0.0537764141726798
  0.2563557325405297  0.9447085340073810  0.0508475676776321
  0.4519784057601574  0.7179211433115965  0.0595965945165260
  0.5547270622348839  0.8844116949139929  0.0636954162452759
  0.4560839950899602  0.9432451014606454  0.0581210452119014
  0.7560210574601858  0.8860501473306081  0.0591628238145820
  0.6555223059811507  0.9421849313357878  0.0624216102038489
  0.8584996527410460  0.7224973633448538  0.0509430041824015
  0.9571950732387978  0.7783383192605110  0.0481649240348685
  0.9562843006956233  0.8893202148133513  0.0502653447618516
  0.8556686334590997  0.9435207650147558  0.0541528169512934
  0.4559513828640831  0.3926907263713409  0.0580089768603491
  0.6597877034237877  0.3899249038334781  0.0676564169590162
  0.7590726820523264  0.5571554706853744  0.0561073092922329
  0.5512065257079170  0.7735838035990950  0.0687400517391624
  0.7591102500528433  0.7753115753211118  0.0597238294636852
  0.4493621156243823  0.6095713200140251  0.0594940685073848
  0.6592648749521660  0.6720908208883966  0.0897417185780979
  0.5582059060503176  0.4911762872001681  0.0799751463458788
  0.6124255652918773  0.5796119647031164  0.1582432650888744
  0.5496617948621281  0.6042649335551753  0.1833799434322922
 
  0.00000000E+00  0.00000000E+00  0.00000000E+00
  0.00000000E+00  0.00000000E+00  0.00000000E+00
  0.00000000E+00  0.00000000E+00  0.00000000E+00
  0.00000000E+00  0.00000000E+00  0.00000000E+00
  0.00000000E+00  0.00000000E+00  0.00000000E+00
  0.00000000E+00  0.00000000E+00  0.00000000E+00
  0.00000000E+00  0.00000000E+00  0.00000000E+00
  0.00000000E+00  0.00000000E+00  0.00000000E+00
  0.00000000E+00  0.00000000E+00  0.00000000E+00
  0.00000000E+00  0.00000000E+00  0.00000000E+00
  0.00000000E+00  0.00000000E+00  0.00000000E+00
  0.00000000E+00  0.00000000E+00  0.00000000E+00
  0.00000000E+00  0.00000000E+00  0.00000000E+00
  0.00000000E+00  0.00000000E+00  0.00000000E+00
  0.00000000E+00  0.00000000E+00  0.00000000E+00
  0.00000000E+00  0.00000000E+00  0.00000000E+00
  0.00000000E+00  0.00000000E+00  0.00000000E+00
  0.00000000E+00  0.00000000E+00  0.00000000E+00
  0.00000000E+00  0.00000000E+00  0.00000000E+00
  0.00000000E+00  0.00000000E+00  0.00000000E+00
  0.00000000E+00  0.00000000E+00  0.00000000E+00
  0.00000000E+00  0.00000000E+00  0.00000000E+00
  0.00000000E+00  0.00000000E+00  0.00000000E+00
  0.00000000E+00  0.00000000E+00  0.00000000E+00
  0.00000000E+00  0.00000000E+00  0.00000000E+00
  0.00000000E+00  0.00000000E+00  0.00000000E+00
  0.00000000E+00  0.00000000E+00  0.00000000E+00
  0.00000000E+00  0.00000000E+00  0.00000000E+00
  0.00000000E+00  0.00000000E+00  0.00000000E+00
  0.00000000E+00  0.00000000E+00  0.00000000E+00
  0.00000000E+00  0.00000000E+00  0.00000000E+00
  0.00000000E+00  0.00000000E+00  0.00000000E+00
  0.00000000E+00  0.00000000E+00  0.00000000E+00
  0.00000000E+00  0.00000000E+00  0.00000000E+00
  0.00000000E+00  0.00000000E+00  0.00000000E+00
  0.00000000E+00  0.00000000E+00  0.00000000E+00
  0.00000000E+00  0.00000000E+00  0.00000000E+00
  0.00000000E+00  0.00000000E+00  0.00000000E+00
  0.00000000E+00  0.00000000E+00  0.00000000E+00
  0.00000000E+00  0.00000000E+00  0.00000000E+00
  0.00000000E+00  0.00000000E+00  0.00000000E+00
  0.00000000E+00  0.00000000E+00  0.00000000E+00
  0.00000000E+00  0.00000000E+00  0.00000000E+00
  0.00000000E+00  0.00000000E+00  0.00000000E+00
  0.00000000E+00  0.00000000E+00  0.00000000E+00
  0.00000000E+00  0.00000000E+00  0.00000000E+00
  0.00000000E+00  0.00000000E+00  0.00000000E+00
  0.00000000E+00  0.00000000E+00  0.00000000E+00
  0.00000000E+00  0.00000000E+00  0.00000000E+00
  0.00000000E+00  0.00000000E+00  0.00000000E+00
  0.00000000E+00  0.00000000E+00  0.00000000E+00
  0.00000000E+00  0.00000000E+00  0.00000000E+00
  0.00000000E+00  0.00000000E+00  0.00000000E+00
  0.00000000E+00  0.00000000E+00  0.00000000E+00
  0.00000000E+00  0.00000000E+00  0.00000000E+00
  0.00000000E+00  0.00000000E+00  0.00000000E+00
  0.00000000E+00  0.00000000E+00  0.00000000E+00
  0.00000000E+00  0.00000000E+00  0.00000000E+00
  0.00000000E+00  0.00000000E+00  0.00000000E+00
  0.00000000E+00  0.00000000E+00  0.00000000E+00
