CONTCAR\(3)                             
   1.00000000000000     
    12.3312997818000003    0.0000000000000000    0.0000000000000000
     0.0001127485000000   12.8291997905000006    0.0000000000000000
     0.0005937186000000    0.0011528207000000   19.9943999824000009
   C    N    Fe   Ni   H 
    53     3     1     1     2
Direct
  0.0549793125056683  0.0531266835579878  0.0537766419194006
  0.1553661775826714  0.1094495832405441  0.0537030517206864
  0.1565414677666942  0.2202750386960048  0.0534517463218502
  0.0567162093367353  0.2747476961577270  0.0532028251061294
  0.2558461393471347  0.0554740540434528  0.0540941645608433
  0.3564242728791805  0.1117551140504833  0.0547150399890850
  0.3574622481676794  0.2235718239299555  0.0546485958772185
  0.2566307440561107  0.2769514157921979  0.0537485382520241
  0.4561184654607842  0.0561563703273809  0.0554926954741469
  0.5568959803046607  0.1125411847094293  0.0562762829992408
  0.5583077440049264  0.2250627221401504  0.0563262599207701
  0.4578291050060277  0.2821858542967229  0.0554618613225407
  0.6549820919511160  0.0519994096153345  0.0566629398933824
  0.7550717249135684  0.1080823954039822  0.0557565642845854
  0.7569780550040529  0.2205540365959216  0.0554283032324877
  0.6600454820800074  0.2810415040325830  0.0564097125451953
  0.8542353672498101  0.0513323202961392  0.0549956110400234
  0.9549502020684583  0.1074786806581902  0.0540976313960603
  0.9566871939146162  0.2187878186925866  0.0537075985489004
  0.8575382552473492  0.2747152760714585  0.0541658308956330
  0.0575711847034704  0.3859791739420690  0.0527656166546145
  0.1560010693106184  0.4429292561673503  0.0528208305978982
  0.1558088112990398  0.5542282858976391  0.0526407887697885
  0.0563369522576484  0.6090236587080636  0.0524791860886609
  0.2556692477153406  0.3879768160307367  0.0534167506843045
  0.3540886996248389  0.4449113589011426  0.0541585885450226
  0.3556289748059135  0.5577692231315393  0.0542664708873562
  0.2551840909073736  0.6112894446183512  0.0531891987132789
  0.7617832062546382  0.4429521091080827  0.0550170836300546
  0.8596458817716943  0.3857863422148660  0.0535771332284020
  0.9587328320372360  0.4411144175285533  0.0527512627616673
  0.9576192654939397  0.5516033216448002  0.0526860029108974
  0.8569551484407043  0.6041427351355221  0.0536700654125545
  0.0552677381928878  0.7202805579871264  0.0527145931157244
  0.1538980835069745  0.7770367822427017  0.0529021150706633
  0.1541573015453308  0.8879688382529078  0.0533704219322091
  0.0538737146997615  0.9419486003179686  0.0536616198891199
  0.2534416301235465  0.7220052111553332  0.0532582569078688
  0.3519433041553753  0.7781378172675245  0.0543783845229581
  0.3535449937483934  0.8893835494134898  0.0545828961009366
  0.2542287964750254  0.9444667864750502  0.0539162204573213
  0.4507163018326381  0.7223036184405122  0.0558713696676036
  0.5516551729690805  0.8849799796684394  0.0571260902919602
  0.4538842818903153  0.9444318254360268  0.0555416123191753
  0.7528710510171583  0.8803603613472761  0.0569112704487330
  0.6539765539519254  0.9392220380730104  0.0573824420965588
  0.8560070648905288  0.7164315596254198  0.0545012254144620
  0.9550815553908582  0.7738618240650137  0.0534899768477858
  0.9540052506439519  0.8852052947261877  0.0541246112203985
  0.8529244615984061  0.9390222331232215  0.0552899096123628
  0.4536801187598891  0.3929937284902831  0.0552537886009353
  0.4569316149505288  0.6103831417096887  0.0558965974229213
  0.7547860834061423  0.7669536881004864  0.0574339083297608
  0.6651499790170861  0.3892781535742610  0.0571512363274731
  0.7596714761499603  0.5512908474149569  0.0549093863228878
  0.5465914835730498  0.7786904014438476  0.0584646028442367
  0.6392934130380064  0.6678053008492594  0.0639246198971281
  0.5637042761466969  0.4935664856926490  0.0591117771136042
  0.6555751009397288  0.6635793667855605  0.1550239622884061
  0.6144075539170576  0.6157169499848345  0.1492362277521502
 
  0.00000000E+00  0.00000000E+00  0.00000000E+00
  0.00000000E+00  0.00000000E+00  0.00000000E+00
  0.00000000E+00  0.00000000E+00  0.00000000E+00
  0.00000000E+00  0.00000000E+00  0.00000000E+00
  0.00000000E+00  0.00000000E+00  0.00000000E+00
  0.00000000E+00  0.00000000E+00  0.00000000E+00
  0.00000000E+00  0.00000000E+00  0.00000000E+00
  0.00000000E+00  0.00000000E+00  0.00000000E+00
  0.00000000E+00  0.00000000E+00  0.00000000E+00
  0.00000000E+00  0.00000000E+00  0.00000000E+00
  0.00000000E+00  0.00000000E+00  0.00000000E+00
  0.00000000E+00  0.00000000E+00  0.00000000E+00
  0.00000000E+00  0.00000000E+00  0.00000000E+00
  0.00000000E+00  0.00000000E+00  0.00000000E+00
  0.00000000E+00  0.00000000E+00  0.00000000E+00
  0.00000000E+00  0.00000000E+00  0.00000000E+00
  0.00000000E+00  0.00000000E+00  0.00000000E+00
  0.00000000E+00  0.00000000E+00  0.00000000E+00
  0.00000000E+00  0.00000000E+00  0.00000000E+00
  0.00000000E+00  0.00000000E+00  0.00000000E+00
  0.00000000E+00  0.00000000E+00  0.00000000E+00
  0.00000000E+00  0.00000000E+00  0.00000000E+00
  0.00000000E+00  0.00000000E+00  0.00000000E+00
  0.00000000E+00  0.00000000E+00  0.00000000E+00
  0.00000000E+00  0.00000000E+00  0.00000000E+00
  0.00000000E+00  0.00000000E+00  0.00000000E+00
  0.00000000E+00  0.00000000E+00  0.00000000E+00
  0.00000000E+00  0.00000000E+00  0.00000000E+00
  0.00000000E+00  0.00000000E+00  0.00000000E+00
  0.00000000E+00  0.00000000E+00  0.00000000E+00
  0.00000000E+00  0.00000000E+00  0.00000000E+00
  0.00000000E+00  0.00000000E+00  0.00000000E+00
  0.00000000E+00  0.00000000E+00  0.00000000E+00
  0.00000000E+00  0.00000000E+00  0.00000000E+00
  0.00000000E+00  0.00000000E+00  0.00000000E+00
  0.00000000E+00  0.00000000E+00  0.00000000E+00
  0.00000000E+00  0.00000000E+00  0.00000000E+00
  0.00000000E+00  0.00000000E+00  0.00000000E+00
  0.00000000E+00  0.00000000E+00  0.00000000E+00
  0.00000000E+00  0.00000000E+00  0.00000000E+00
  0.00000000E+00  0.00000000E+00  0.00000000E+00
  0.00000000E+00  0.00000000E+00  0.00000000E+00
  0.00000000E+00  0.00000000E+00  0.00000000E+00
  0.00000000E+00  0.00000000E+00  0.00000000E+00
  0.00000000E+00  0.00000000E+00  0.00000000E+00
  0.00000000E+00  0.00000000E+00  0.00000000E+00
  0.00000000E+00  0.00000000E+00  0.00000000E+00
  0.00000000E+00  0.00000000E+00  0.00000000E+00
  0.00000000E+00  0.00000000E+00  0.00000000E+00
  0.00000000E+00  0.00000000E+00  0.00000000E+00
  0.00000000E+00  0.00000000E+00  0.00000000E+00
  0.00000000E+00  0.00000000E+00  0.00000000E+00
  0.00000000E+00  0.00000000E+00  0.00000000E+00
  0.00000000E+00  0.00000000E+00  0.00000000E+00
  0.00000000E+00  0.00000000E+00  0.00000000E+00
  0.00000000E+00  0.00000000E+00  0.00000000E+00
  0.00000000E+00  0.00000000E+00  0.00000000E+00
  0.00000000E+00  0.00000000E+00  0.00000000E+00
  0.00000000E+00  0.00000000E+00  0.00000000E+00
  0.00000000E+00  0.00000000E+00  0.00000000E+00
