CONTCAR                                 
   1.00000000000000     
    12.3312997818000003    0.0000000000000000    0.0000000000000000
     0.0001127485000000   12.8291997905000006    0.0000000000000000
     0.0005937186000000    0.0011528207000000   19.9943999824000009
   C    N    Fe   Ni   H 
    54     2     1     1     2
Direct
  0.0570718675679888  0.0538858692595961  0.0504199944878091
  0.1571982076300397  0.1092438110570878  0.0507830140845195
  0.1575125945767583  0.2203294143052305  0.0506811102165528
  0.0573555044160304  0.2750899756414399  0.0499490658635307
  0.2573366173321066  0.0539696862139595  0.0519096638683340
  0.3577867334063514  0.1095454302031801  0.0541656390064652
  0.3583679344046905  0.2218026098273621  0.0544417693626249
  0.2576700792036825  0.2762067096088078  0.0519670160281527
  0.4569249308877032  0.0526295270297874  0.0566291074304294
  0.5572254628124346  0.1087678662470592  0.0587610755205238
  0.5573414346569530  0.2202292658429218  0.0590526672986879
  0.4582781581154002  0.2792804974059553  0.0571673339941585
  0.6572056013564511  0.0500094484364996  0.0590133098109640
  0.7567307159993483  0.1074449601035571  0.0561018404139114
  0.7573751644520791  0.2193693888236267  0.0560899297734375
  0.6580411840712279  0.2769489091546444  0.0595681008100567
  0.8564103602664315  0.0523277283114780  0.0533661091513454
  0.9567342723937614  0.1083073022910437  0.0513992507558614
  0.9572946025387787  0.2192749111793934  0.0509858365797902
  0.8574504775311875  0.2747513643750636  0.0526442854695251
  0.0575489161406446  0.3864335118897132  0.0492396592994000
  0.1565719721194303  0.4420120697297790  0.0494634922977000
  0.1554524161974303  0.5532077989863553  0.0489264268514379
  0.0560061314400485  0.6086358410033129  0.0482726557901462
  0.2569468184454686  0.3872487571938913  0.0513023131984128
  0.3564385652884731  0.4434097904958592  0.0534807906890797
  0.3546184638926865  0.5563686089015041  0.0534724395616902
  0.2542672664776636  0.6099927962950217  0.0503624553315634
  0.7598860021014350  0.4426468890232042  0.0568460973578964
  0.8588075682223753  0.3860733836890206  0.0517919758584036
  0.9576798823642870  0.4421768340311047  0.0494037725437790
  0.9563089884075141  0.5532322253229542  0.0490351103809777
  0.8551569382587098  0.6084270079733172  0.0513289887551622
  0.0562855670075851  0.7199999215917758  0.0482669675409759
  0.1549113352524856  0.7762821148989931  0.0485665355246399
  0.1562941593434593  0.8875268467904497  0.0494175240296056
  0.0567511172579004  0.9429323339073072  0.0496767944156622
  0.2540119018211519  0.7205116108851146  0.0499107476192348
  0.3535460301998364  0.7747863717274335  0.0530791646626483
  0.3560124695836749  0.8862799540291442  0.0537865667241512
  0.2565880836037746  0.9426921662730871  0.0513396648564221
  0.4507693843365968  0.7161300713814404  0.0590784919713992
  0.5548837292261501  0.8812565987348870  0.0628996873153942
  0.4562557658011812  0.9406940718871510  0.0572253335939501
  0.7576919811958595  0.8823811739548755  0.0572433329643390
  0.6568236167553958  0.9378467153919332  0.0609943265023202
  0.8575864403640419  0.7219617434700247  0.0518172757179158
  0.9570320048357612  0.7762591221096427  0.0495395069051300
  0.9570499163116778  0.8871389905932523  0.0504147175508931
  0.8563912373331066  0.9407640431095134  0.0532253899554716
  0.4571487106309869  0.3915769079949492  0.0569958654463702
  0.6611409537288763  0.3864487063340675  0.0617687077155376
  0.7554416478141225  0.5546985533593254  0.0572844765167115
  0.5493526697635431  0.7715521825269333  0.0692265780649763
  0.4503562272214492  0.6077878986381893  0.0577046356831661
  0.7612255827883215  0.7739225824976681  0.0568912290054538
  0.6570698363844628  0.6729332379435418  0.0883766560324205
  0.5650832200246230  0.4927862815159814  0.0632700717123900
  0.5977151033477121  0.6585993640942093  0.1587728728280292
  0.6036493570906962  0.5911202085063818  0.1427545883024337
 
  0.00000000E+00  0.00000000E+00  0.00000000E+00
  0.00000000E+00  0.00000000E+00  0.00000000E+00
  0.00000000E+00  0.00000000E+00  0.00000000E+00
  0.00000000E+00  0.00000000E+00  0.00000000E+00
  0.00000000E+00  0.00000000E+00  0.00000000E+00
  0.00000000E+00  0.00000000E+00  0.00000000E+00
  0.00000000E+00  0.00000000E+00  0.00000000E+00
  0.00000000E+00  0.00000000E+00  0.00000000E+00
  0.00000000E+00  0.00000000E+00  0.00000000E+00
  0.00000000E+00  0.00000000E+00  0.00000000E+00
  0.00000000E+00  0.00000000E+00  0.00000000E+00
  0.00000000E+00  0.00000000E+00  0.00000000E+00
  0.00000000E+00  0.00000000E+00  0.00000000E+00
  0.00000000E+00  0.00000000E+00  0.00000000E+00
  0.00000000E+00  0.00000000E+00  0.00000000E+00
  0.00000000E+00  0.00000000E+00  0.00000000E+00
  0.00000000E+00  0.00000000E+00  0.00000000E+00
  0.00000000E+00  0.00000000E+00  0.00000000E+00
  0.00000000E+00  0.00000000E+00  0.00000000E+00
  0.00000000E+00  0.00000000E+00  0.00000000E+00
  0.00000000E+00  0.00000000E+00  0.00000000E+00
  0.00000000E+00  0.00000000E+00  0.00000000E+00
  0.00000000E+00  0.00000000E+00  0.00000000E+00
  0.00000000E+00  0.00000000E+00  0.00000000E+00
  0.00000000E+00  0.00000000E+00  0.00000000E+00
  0.00000000E+00  0.00000000E+00  0.00000000E+00
  0.00000000E+00  0.00000000E+00  0.00000000E+00
  0.00000000E+00  0.00000000E+00  0.00000000E+00
  0.00000000E+00  0.00000000E+00  0.00000000E+00
  0.00000000E+00  0.00000000E+00  0.00000000E+00
  0.00000000E+00  0.00000000E+00  0.00000000E+00
  0.00000000E+00  0.00000000E+00  0.00000000E+00
  0.00000000E+00  0.00000000E+00  0.00000000E+00
  0.00000000E+00  0.00000000E+00  0.00000000E+00
  0.00000000E+00  0.00000000E+00  0.00000000E+00
  0.00000000E+00  0.00000000E+00  0.00000000E+00
  0.00000000E+00  0.00000000E+00  0.00000000E+00
  0.00000000E+00  0.00000000E+00  0.00000000E+00
  0.00000000E+00  0.00000000E+00  0.00000000E+00
  0.00000000E+00  0.00000000E+00  0.00000000E+00
  0.00000000E+00  0.00000000E+00  0.00000000E+00
  0.00000000E+00  0.00000000E+00  0.00000000E+00
  0.00000000E+00  0.00000000E+00  0.00000000E+00
  0.00000000E+00  0.00000000E+00  0.00000000E+00
  0.00000000E+00  0.00000000E+00  0.00000000E+00
  0.00000000E+00  0.00000000E+00  0.00000000E+00
  0.00000000E+00  0.00000000E+00  0.00000000E+00
  0.00000000E+00  0.00000000E+00  0.00000000E+00
  0.00000000E+00  0.00000000E+00  0.00000000E+00
  0.00000000E+00  0.00000000E+00  0.00000000E+00
  0.00000000E+00  0.00000000E+00  0.00000000E+00
  0.00000000E+00  0.00000000E+00  0.00000000E+00
  0.00000000E+00  0.00000000E+00  0.00000000E+00
  0.00000000E+00  0.00000000E+00  0.00000000E+00
  0.00000000E+00  0.00000000E+00  0.00000000E+00
  0.00000000E+00  0.00000000E+00  0.00000000E+00
  0.00000000E+00  0.00000000E+00  0.00000000E+00
  0.00000000E+00  0.00000000E+00  0.00000000E+00
  0.00000000E+00  0.00000000E+00  0.00000000E+00
  0.00000000E+00  0.00000000E+00  0.00000000E+00
