235                                     
   1.00000000000000     
    12.3312997818000003    0.0000000000000000    0.0000000000000000
     0.0001127485000000   12.8291997905000006    0.0000000000000000
     0.0005937186000000    0.0011528207000000   19.9943999824000009
   C    N    Fe   Ni   H 
    53     3     1     1     2
Direct
  0.0554313857911847  0.0543774033514030  0.0533050780743273
  0.1558807680643274  0.1103920654761793  0.0531792295838813
  0.1571206353760075  0.2213714505828587  0.0528915761755246
  0.0570283969524420  0.2754629594744262  0.0526920880509762
  0.2559248477960086  0.0559187583052793  0.0536151124647410
  0.3567064289048236  0.1114742879533484  0.0544977580869110
  0.3578870856271931  0.2234143952116673  0.0544793873215649
  0.2574973936255285  0.2779506900694385  0.0531939647479797
  0.4560399259158283  0.0551401776267953  0.0555532093635393
  0.5564364820970493  0.1109491832405598  0.0568309494655503
  0.5575249085897356  0.2228261437524043  0.0573516264235608
  0.4581628260520578  0.2808554488734769  0.0558601330335474
  0.6549211019215095  0.0509195625657353  0.0570199168602844
  0.7550859207336824  0.1080581262211482  0.0560259076174775
  0.7564285911280995  0.2206163346231594  0.0561447565164029
  0.6583326145045587  0.2801641724477251  0.0581253540502281
  0.8544738839604094  0.0518713411285816  0.0547918784624035
  0.9550758324977111  0.1085346854701652  0.0537246493614814
  0.9563680204028147  0.2198422947559084  0.0533993092134871
  0.8568043590409145  0.2757674954006761  0.0543500871564539
  0.0584094327772872  0.3864349029332715  0.0523720702728240
  0.1573238760281281  0.4432565294792919  0.0522418772924541
  0.1567322969441337  0.5543354452681536  0.0521876210074840
  0.0576928405595535  0.6095123288699902  0.0522016220221822
  0.2575523823415225  0.3893024596281006  0.0526665488123424
  0.3573842698058234  0.4464451645258258  0.0533439500389183
  0.3561261178757538  0.5596208491158912  0.0534093411102618
  0.2555548326663519  0.6118238290491125  0.0526348475982098
  0.7617231414782969  0.4463736571360388  0.0559293717414869
  0.8592959662682343  0.3873333850923768  0.0537856806651365
  0.9593663209876961  0.4416263994976169  0.0525901894900439
  0.9592966711636046  0.5521288402246087  0.0524905875219212
  0.8596139046649346  0.6060174265215518  0.0534636916154467
  0.0562199615359035  0.7208324925984679  0.0523968191748600
  0.1542305507048642  0.7777805031808479  0.0525745594441082
  0.1545358019064811  0.8888682869917199  0.0529578013821288
  0.0545620877163694  0.9432866554668609  0.0532190757873188
  0.2531711731100106  0.7225471020925807  0.0527492338805380
  0.3513254594346317  0.7786359278760298  0.0538717190430504
  0.3535271870701341  0.8895014447654487  0.0542272498902465
  0.2544762056535139  0.9449448644284869  0.0534635335802971
  0.4488498764224962  0.7222224902995436  0.0556933481524889
  0.5514596034280832  0.8832522648679582  0.0572985650956995
  0.4543059365907020  0.9431990675847534  0.0554869139394014
  0.7536273770234000  0.8803576049046932  0.0566257458745805
  0.6537931755151997  0.9381455979339723  0.0574336198937263
  0.8581412186404038  0.7181172263386387  0.0539874315545246
  0.9565225223801731  0.7752299711765955  0.0530128833732832
  0.9548360001353171  0.8863400309870085  0.0536436093141964
  0.8534321073018429  0.9395496253802565  0.0549454812985849
  0.4567089491709019  0.3924166975478604  0.0553603372697249
  0.6617351822537092  0.3909245568970144  0.0597141088640615
  0.7569442357357635  0.7676621273489731  0.0569989268274666
  0.7629639768703784  0.5554344344589796  0.0553571999167200
  0.5458654786668277  0.7752684734343824  0.0589334186119376
  0.4523857836680123  0.6146626664709921  0.0549413460220293
  0.6436502339574206  0.6662178780145475  0.0648665476775254
  0.5625266507031802  0.4936236317279796  0.0626629889331641
  0.6339975789747306  0.6493947513185714  0.1505086905304006
  0.6144221658863164  0.5887654730340417  0.1382894834488904
 
  0.00000000E+00  0.00000000E+00  0.00000000E+00
  0.00000000E+00  0.00000000E+00  0.00000000E+00
  0.00000000E+00  0.00000000E+00  0.00000000E+00
  0.00000000E+00  0.00000000E+00  0.00000000E+00
  0.00000000E+00  0.00000000E+00  0.00000000E+00
  0.00000000E+00  0.00000000E+00  0.00000000E+00
  0.00000000E+00  0.00000000E+00  0.00000000E+00
  0.00000000E+00  0.00000000E+00  0.00000000E+00
  0.00000000E+00  0.00000000E+00  0.00000000E+00
  0.00000000E+00  0.00000000E+00  0.00000000E+00
  0.00000000E+00  0.00000000E+00  0.00000000E+00
  0.00000000E+00  0.00000000E+00  0.00000000E+00
  0.00000000E+00  0.00000000E+00  0.00000000E+00
  0.00000000E+00  0.00000000E+00  0.00000000E+00
  0.00000000E+00  0.00000000E+00  0.00000000E+00
  0.00000000E+00  0.00000000E+00  0.00000000E+00
  0.00000000E+00  0.00000000E+00  0.00000000E+00
  0.00000000E+00  0.00000000E+00  0.00000000E+00
  0.00000000E+00  0.00000000E+00  0.00000000E+00
  0.00000000E+00  0.00000000E+00  0.00000000E+00
  0.00000000E+00  0.00000000E+00  0.00000000E+00
  0.00000000E+00  0.00000000E+00  0.00000000E+00
  0.00000000E+00  0.00000000E+00  0.00000000E+00
  0.00000000E+00  0.00000000E+00  0.00000000E+00
  0.00000000E+00  0.00000000E+00  0.00000000E+00
  0.00000000E+00  0.00000000E+00  0.00000000E+00
  0.00000000E+00  0.00000000E+00  0.00000000E+00
  0.00000000E+00  0.00000000E+00  0.00000000E+00
  0.00000000E+00  0.00000000E+00  0.00000000E+00
  0.00000000E+00  0.00000000E+00  0.00000000E+00
  0.00000000E+00  0.00000000E+00  0.00000000E+00
  0.00000000E+00  0.00000000E+00  0.00000000E+00
  0.00000000E+00  0.00000000E+00  0.00000000E+00
  0.00000000E+00  0.00000000E+00  0.00000000E+00
  0.00000000E+00  0.00000000E+00  0.00000000E+00
  0.00000000E+00  0.00000000E+00  0.00000000E+00
  0.00000000E+00  0.00000000E+00  0.00000000E+00
  0.00000000E+00  0.00000000E+00  0.00000000E+00
  0.00000000E+00  0.00000000E+00  0.00000000E+00
  0.00000000E+00  0.00000000E+00  0.00000000E+00
  0.00000000E+00  0.00000000E+00  0.00000000E+00
  0.00000000E+00  0.00000000E+00  0.00000000E+00
  0.00000000E+00  0.00000000E+00  0.00000000E+00
  0.00000000E+00  0.00000000E+00  0.00000000E+00
  0.00000000E+00  0.00000000E+00  0.00000000E+00
  0.00000000E+00  0.00000000E+00  0.00000000E+00
  0.00000000E+00  0.00000000E+00  0.00000000E+00
  0.00000000E+00  0.00000000E+00  0.00000000E+00
  0.00000000E+00  0.00000000E+00  0.00000000E+00
  0.00000000E+00  0.00000000E+00  0.00000000E+00
  0.00000000E+00  0.00000000E+00  0.00000000E+00
  0.00000000E+00  0.00000000E+00  0.00000000E+00
  0.00000000E+00  0.00000000E+00  0.00000000E+00
  0.00000000E+00  0.00000000E+00  0.00000000E+00
  0.00000000E+00  0.00000000E+00  0.00000000E+00
  0.00000000E+00  0.00000000E+00  0.00000000E+00
  0.00000000E+00  0.00000000E+00  0.00000000E+00
  0.00000000E+00  0.00000000E+00  0.00000000E+00
  0.00000000E+00  0.00000000E+00  0.00000000E+00
  0.00000000E+00  0.00000000E+00  0.00000000E+00
