CONTCAR\(2)                             
   1.00000000000000     
    12.3312997818000003    0.0000000000000000    0.0000000000000000
     0.0001127485000000   12.8291997905000006    0.0000000000000000
     0.0005937186000000    0.0011528207000000   19.9943999824000009
   C    N    Fe   Ni   O 
    55     1     1     1     2
Direct
  0.0546092390852840  0.0520908416660214  0.0465456908053651
  0.1549485622785444  0.1063164593812017  0.0469072920039462
  0.1536901354597165  0.2171078602964187  0.0459365398104760
  0.0539124561209582  0.2735271747857130  0.0466489277792464
  0.2556262552987940  0.0509664384702263  0.0491338434428390
  0.3556589492163349  0.1065803981996838  0.0533316711537926
  0.3543010514838066  0.2184320149486086  0.0515605267428175
  0.2533634299804915  0.2719993261729612  0.0460084251938169
  0.4554816541613825  0.0509962578479138  0.0592744349833349
  0.5540121958818653  0.1097958845460053  0.0636037791758090
  0.5534315389202646  0.2223209482201317  0.0640041944281738
  0.4522467684743986  0.2776012132069353  0.0568037651674278
  0.6543219974454159  0.0514474571989275  0.0651184124713345
  0.7542677539960200  0.1084864010661691  0.0607200865906654
  0.7541166639247335  0.2204853882720685  0.0628275763517491
  0.6547398803308804  0.2792797823696254  0.0689038052512011
  0.8540374882556457  0.0526103619917987  0.0540647185079390
  0.9540853681192393  0.1080122567188065  0.0500240505330942
  0.9534829034453099  0.2192715481976000  0.0511872773649421
  0.8538609595885197  0.2761147574930644  0.0579268499842698
  0.0539064113743844  0.3846813309614394  0.0443705862385953
  0.1529707642409243  0.4397803198857649  0.0402113746096569
  0.1535423537527951  0.5513641624942492  0.0380523772116424
  0.0549406885226687  0.6076519350801269  0.0394636333259410
  0.2518794261228485  0.3824694291183223  0.0425053184644199
  0.3508205659459260  0.4364563794210065  0.0458197155442212
  0.3515352326357513  0.5493750271356048  0.0459519831633701
  0.2530959388907036  0.6063829271134451  0.0401300623467496
  0.7571405521212216  0.4469052919585182  0.0727872516110339
  0.8552154003017475  0.3881076700394300  0.0595716574841548
  0.9547012458788025  0.4413152075971346  0.0495435821800860
  0.9559107803766380  0.5520139188372210  0.0466882454036677
  0.8585332347480457  0.6089111765907363  0.0571153015771803
  0.0562770610501562  0.7192804989722617  0.0393921243510404
  0.1561576339116090  0.7740103220733535  0.0405405068094342
  0.1559178185874615  0.8853053468390232  0.0433796084400234
  0.0555546015026434  0.9413034240119429  0.0441542566539200
  0.2559940671809564  0.7173186681444426  0.0428298737515459
  0.3565249554653283  0.7709102511190244  0.0515623735529852
  0.3564701799862108  0.8828521475282304  0.0535353512710285
  0.2563672335414053  0.9396277074250992  0.0481127930568762
  0.4553762980975432  0.7112998409490704  0.0624470559661324
  0.5554027343795271  0.8800167665285581  0.0698472454046633
  0.4561067807121569  0.9382493290106086  0.0608268471775626
  0.7561583026937664  0.8840104982249115  0.0617035263962337
  0.6552878094535701  0.9396732643596473  0.0680405769814000
  0.8587562706436777  0.7210728950656342  0.0527294286907088
  0.9569478308730620  0.7759200824101472  0.0433175273057178
  0.9553793305437357  0.8865427163137098  0.0454070598962829
  0.8548669408578564  0.9410986297206525  0.0523883853153964
  0.4487571846576199  0.6000357320917914  0.0591687898269832
  0.6591224048594599  0.3885451460446339  0.0784173477835204
  0.7628821509743273  0.5594157593693770  0.0757613907983934
  0.5525908934282012  0.7689667289316390  0.0768847348781222
  0.7621175626062483  0.7740063517741560  0.0652548122522474
  0.4473430522987490  0.3857095560661176  0.0540947804499387
  0.6665336637708466  0.6834946666540745  0.1182305900429222
  0.5458302847492403  0.4850106186559625  0.0855340016193027
  0.5906880423537691  0.5765676767040711  0.1423226019262746
  0.7046910124408285  0.7529879497289643  0.1811834544983730
 
  0.00000000E+00  0.00000000E+00  0.00000000E+00
  0.00000000E+00  0.00000000E+00  0.00000000E+00
  0.00000000E+00  0.00000000E+00  0.00000000E+00
  0.00000000E+00  0.00000000E+00  0.00000000E+00
  0.00000000E+00  0.00000000E+00  0.00000000E+00
  0.00000000E+00  0.00000000E+00  0.00000000E+00
  0.00000000E+00  0.00000000E+00  0.00000000E+00
  0.00000000E+00  0.00000000E+00  0.00000000E+00
  0.00000000E+00  0.00000000E+00  0.00000000E+00
  0.00000000E+00  0.00000000E+00  0.00000000E+00
  0.00000000E+00  0.00000000E+00  0.00000000E+00
  0.00000000E+00  0.00000000E+00  0.00000000E+00
  0.00000000E+00  0.00000000E+00  0.00000000E+00
  0.00000000E+00  0.00000000E+00  0.00000000E+00
  0.00000000E+00  0.00000000E+00  0.00000000E+00
  0.00000000E+00  0.00000000E+00  0.00000000E+00
  0.00000000E+00  0.00000000E+00  0.00000000E+00
  0.00000000E+00  0.00000000E+00  0.00000000E+00
  0.00000000E+00  0.00000000E+00  0.00000000E+00
  0.00000000E+00  0.00000000E+00  0.00000000E+00
  0.00000000E+00  0.00000000E+00  0.00000000E+00
  0.00000000E+00  0.00000000E+00  0.00000000E+00
  0.00000000E+00  0.00000000E+00  0.00000000E+00
  0.00000000E+00  0.00000000E+00  0.00000000E+00
  0.00000000E+00  0.00000000E+00  0.00000000E+00
  0.00000000E+00  0.00000000E+00  0.00000000E+00
  0.00000000E+00  0.00000000E+00  0.00000000E+00
  0.00000000E+00  0.00000000E+00  0.00000000E+00
  0.00000000E+00  0.00000000E+00  0.00000000E+00
  0.00000000E+00  0.00000000E+00  0.00000000E+00
  0.00000000E+00  0.00000000E+00  0.00000000E+00
  0.00000000E+00  0.00000000E+00  0.00000000E+00
  0.00000000E+00  0.00000000E+00  0.00000000E+00
  0.00000000E+00  0.00000000E+00  0.00000000E+00
  0.00000000E+00  0.00000000E+00  0.00000000E+00
  0.00000000E+00  0.00000000E+00  0.00000000E+00
  0.00000000E+00  0.00000000E+00  0.00000000E+00
  0.00000000E+00  0.00000000E+00  0.00000000E+00
  0.00000000E+00  0.00000000E+00  0.00000000E+00
  0.00000000E+00  0.00000000E+00  0.00000000E+00
  0.00000000E+00  0.00000000E+00  0.00000000E+00
  0.00000000E+00  0.00000000E+00  0.00000000E+00
  0.00000000E+00  0.00000000E+00  0.00000000E+00
  0.00000000E+00  0.00000000E+00  0.00000000E+00
  0.00000000E+00  0.00000000E+00  0.00000000E+00
  0.00000000E+00  0.00000000E+00  0.00000000E+00
  0.00000000E+00  0.00000000E+00  0.00000000E+00
  0.00000000E+00  0.00000000E+00  0.00000000E+00
  0.00000000E+00  0.00000000E+00  0.00000000E+00
  0.00000000E+00  0.00000000E+00  0.00000000E+00
  0.00000000E+00  0.00000000E+00  0.00000000E+00
  0.00000000E+00  0.00000000E+00  0.00000000E+00
  0.00000000E+00  0.00000000E+00  0.00000000E+00
  0.00000000E+00  0.00000000E+00  0.00000000E+00
  0.00000000E+00  0.00000000E+00  0.00000000E+00
  0.00000000E+00  0.00000000E+00  0.00000000E+00
  0.00000000E+00  0.00000000E+00  0.00000000E+00
  0.00000000E+00  0.00000000E+00  0.00000000E+00
  0.00000000E+00  0.00000000E+00  0.00000000E+00
  0.00000000E+00  0.00000000E+00  0.00000000E+00
