CONTCAR                                 
   1.00000000000000     
    12.3312997818000003    0.0000000000000000    0.0000000000000000
     0.0001127485000000   12.8291997905000006    0.0000000000000000
     0.0005937186000000    0.0011528207000000   19.9943999824000009
   C    N    Fe   Ni   O    H 
    55     1     1     1     1     1
Direct
  0.0553475112091967  0.0555516921019650  0.0486388516228146
  0.1555968515475092  0.1112077570682379  0.0489614112164757
  0.1562433646262069  0.2220051853080375  0.0484094742147006
  0.0560490439127599  0.2768051291982746  0.0475905320741502
  0.2557690869848319  0.0564192868225667  0.0506249825642044
  0.3560382377827093  0.1119337853094097  0.0542012707129087
  0.3567830287932601  0.2234547702383916  0.0542445768573383
  0.2563859586137306  0.2777579891210773  0.0498708699739613
  0.4555545664084678  0.0556485063584052  0.0580632232951018
  0.5557560185643525  0.1112427903537114  0.0616213780048589
  0.5563598535407601  0.2226458289253899  0.0634854970007713
  0.4567308009754081  0.2806144255713096  0.0596660673373167
  0.6549869207601909  0.0522625192165839  0.0613535475381291
  0.7550786697118431  0.1094793527595893  0.0579944401605687
  0.7558609220636940  0.2214109354437447  0.0586739336397441
  0.6568192861908626  0.2795418242142591  0.0649812251895346
  0.8547585608150703  0.0536017009461390  0.0536709357725002
  0.9548595761632451  0.1100454590963020  0.0506026041706867
  0.9555643228622679  0.2213228481996949  0.0502467775249751
  0.8559008036068220  0.2771741910806729  0.0536960129405768
  0.0567919875274074  0.3877705037191017  0.0455858114199075
  0.1563106609767343  0.4438094047736892  0.0450731781648712
  0.1570023521315913  0.5552779609570949  0.0438265040868387
  0.0576119869399683  0.6105373006946354  0.0426318385733848
  0.2562873410344292  0.3887196809424531  0.0483108466130963
  0.3556294655336474  0.4448186336356161  0.0523828507710639
  0.3565661386627329  0.5579972858343761  0.0518456781791655
  0.2560739695624942  0.6119555561947126  0.0463850860670566
  0.7575883107850913  0.4468607484466893  0.0588557490217810
  0.8569199839363502  0.3887071834712469  0.0519886509674932
  0.9569813857089805  0.4431616733508478  0.0463222089075298
  0.9585432613717993  0.5538551307343238  0.0443369696086064
  0.8596540500912488  0.6091994917913456  0.0475967315223476
  0.0570270930345016  0.7220370147782180  0.0430556801428840
  0.1554874618363239  0.7783925773254383  0.0443841272613646
  0.1551047747356265  0.8895615778963556  0.0463375378519594
  0.0550666113970781  0.9447353169061219  0.0471399783450165
  0.2548698122291345  0.7227504587946424  0.0465025383957464
  0.3530383132405250  0.7789213532795949  0.0519843635302530
  0.3539951984422171  0.8897217763346401  0.0530772951459754
  0.2547680239519363  0.9454657690311425  0.0494812218140719
  0.4515175300306075  0.7229832858466662  0.0601893372214992
  0.5521680044580740  0.8850229032625279  0.0639030850436291
  0.4541425600608717  0.9442802240611121  0.0582777459490709
  0.7546867484547993  0.8829431029058240  0.0578899867430457
  0.6543601386432243  0.9402274954699342  0.0623722831696364
  0.8596563154269342  0.7214918126428745  0.0485742203361797
  0.9575582433287112  0.7778114378582143  0.0454480426899997
  0.9553924097990337  0.8885589262057090  0.0479292448130103
  0.8543169058627127  0.9417988854549776  0.0527661787722402
  0.4552718268170479  0.3918149365174058  0.0603839355074288
  0.4555164421757722  0.6116985882891437  0.0608397229160127
  0.6593969250637582  0.3895438456808202  0.0706822309388472
  0.7597036116799875  0.5583242172179819  0.0560839350797613
  0.7590484091024847  0.7717239998529070  0.0571182945026937
  0.5470368733880396  0.7788473322223801  0.0687116716153435
  0.6516949881775755  0.6674821354539519  0.0806665616704196
  0.5564575184613577  0.4896742000348806  0.0876148284290547
  0.6202766405847121  0.5835390914281388  0.1583464666678953
  0.5593262762212688  0.6107812523684980  0.1842297697325108
 
  0.00000000E+00  0.00000000E+00  0.00000000E+00
  0.00000000E+00  0.00000000E+00  0.00000000E+00
  0.00000000E+00  0.00000000E+00  0.00000000E+00
  0.00000000E+00  0.00000000E+00  0.00000000E+00
  0.00000000E+00  0.00000000E+00  0.00000000E+00
  0.00000000E+00  0.00000000E+00  0.00000000E+00
  0.00000000E+00  0.00000000E+00  0.00000000E+00
  0.00000000E+00  0.00000000E+00  0.00000000E+00
  0.00000000E+00  0.00000000E+00  0.00000000E+00
  0.00000000E+00  0.00000000E+00  0.00000000E+00
  0.00000000E+00  0.00000000E+00  0.00000000E+00
  0.00000000E+00  0.00000000E+00  0.00000000E+00
  0.00000000E+00  0.00000000E+00  0.00000000E+00
  0.00000000E+00  0.00000000E+00  0.00000000E+00
  0.00000000E+00  0.00000000E+00  0.00000000E+00
  0.00000000E+00  0.00000000E+00  0.00000000E+00
  0.00000000E+00  0.00000000E+00  0.00000000E+00
  0.00000000E+00  0.00000000E+00  0.00000000E+00
  0.00000000E+00  0.00000000E+00  0.00000000E+00
  0.00000000E+00  0.00000000E+00  0.00000000E+00
  0.00000000E+00  0.00000000E+00  0.00000000E+00
  0.00000000E+00  0.00000000E+00  0.00000000E+00
  0.00000000E+00  0.00000000E+00  0.00000000E+00
  0.00000000E+00  0.00000000E+00  0.00000000E+00
  0.00000000E+00  0.00000000E+00  0.00000000E+00
  0.00000000E+00  0.00000000E+00  0.00000000E+00
  0.00000000E+00  0.00000000E+00  0.00000000E+00
  0.00000000E+00  0.00000000E+00  0.00000000E+00
  0.00000000E+00  0.00000000E+00  0.00000000E+00
  0.00000000E+00  0.00000000E+00  0.00000000E+00
  0.00000000E+00  0.00000000E+00  0.00000000E+00
  0.00000000E+00  0.00000000E+00  0.00000000E+00
  0.00000000E+00  0.00000000E+00  0.00000000E+00
  0.00000000E+00  0.00000000E+00  0.00000000E+00
  0.00000000E+00  0.00000000E+00  0.00000000E+00
  0.00000000E+00  0.00000000E+00  0.00000000E+00
  0.00000000E+00  0.00000000E+00  0.00000000E+00
  0.00000000E+00  0.00000000E+00  0.00000000E+00
  0.00000000E+00  0.00000000E+00  0.00000000E+00
  0.00000000E+00  0.00000000E+00  0.00000000E+00
  0.00000000E+00  0.00000000E+00  0.00000000E+00
  0.00000000E+00  0.00000000E+00  0.00000000E+00
  0.00000000E+00  0.00000000E+00  0.00000000E+00
  0.00000000E+00  0.00000000E+00  0.00000000E+00
  0.00000000E+00  0.00000000E+00  0.00000000E+00
  0.00000000E+00  0.00000000E+00  0.00000000E+00
  0.00000000E+00  0.00000000E+00  0.00000000E+00
  0.00000000E+00  0.00000000E+00  0.00000000E+00
  0.00000000E+00  0.00000000E+00  0.00000000E+00
  0.00000000E+00  0.00000000E+00  0.00000000E+00
  0.00000000E+00  0.00000000E+00  0.00000000E+00
  0.00000000E+00  0.00000000E+00  0.00000000E+00
  0.00000000E+00  0.00000000E+00  0.00000000E+00
  0.00000000E+00  0.00000000E+00  0.00000000E+00
  0.00000000E+00  0.00000000E+00  0.00000000E+00
  0.00000000E+00  0.00000000E+00  0.00000000E+00
  0.00000000E+00  0.00000000E+00  0.00000000E+00
  0.00000000E+00  0.00000000E+00  0.00000000E+00
  0.00000000E+00  0.00000000E+00  0.00000000E+00
  0.00000000E+00  0.00000000E+00  0.00000000E+00
