CONTCAR\(2)                             
   1.00000000000000     
    12.3312997818000003    0.0000000000000000    0.0000000000000000
     0.0001127485000000   12.8291997905000006    0.0000000000000000
     0.0005937186000000    0.0011528207000000   19.9943999824000009
   C    N    Fe   Ni   H 
    52     4     1     1     1
Direct
  0.0563587853401274  0.0550110648599010  0.0508751575048673
  0.1567686131022823  0.1103170425621812  0.0502166688450180
  0.1563024866829928  0.2211642853290342  0.0488032273358723
  0.0561267301480369  0.2765022978173434  0.0484124065766928
  0.2573557585158547  0.0554749299224189  0.0518907112144453
  0.3575881744756175  0.1115873626195743  0.0554033509013569
  0.3568018381617283  0.2234807661055493  0.0543930325527920
  0.2559094747142364  0.2768710008758519  0.0493961681208805
  0.4575708048915000  0.0556442329853447  0.0602252525607564
  0.5569355429914783  0.1136132996642243  0.0641406512100575
  0.5568647922373215  0.2279265910734440  0.0645331730797209
  0.4552559997142698  0.2836915221356995  0.0590150460149090
  0.6560563990591824  0.0529637306744502  0.0650962053400525
  0.7553563155366995  0.1108068071258749  0.0620388082902808
  0.7563261938250008  0.2233491951579274  0.0622263805560085
  0.6583134623684589  0.2848577578036500  0.0669033810804564
  0.8552094062402672  0.0544107338856932  0.0577718308362195
  0.9557217819239796  0.1096978762955203  0.0535946387790955
  0.9563251970876209  0.2209047605582558  0.0525224329343126
  0.8570241733610972  0.2770829796578121  0.0566787047524830
  0.0563127968742043  0.3876009822187354  0.0458082900568781
  0.1552963272378711  0.4435268432295817  0.0437150208328545
  0.1556280870840509  0.5544590348522026  0.0425110972016482
  0.0570788838766781  0.6108494509600070  0.0431464040693846
  0.2546106061266551  0.3878820528985294  0.0467457250726248
  0.3533279538434320  0.4425264031165457  0.0506901143074298
  0.3531745586778030  0.5550945066341735  0.0514803445176615
  0.2544206708172973  0.6102958940298777  0.0453848224461397
  0.7611456989611821  0.4453856014691004  0.0637705688034896
  0.8585907369140710  0.3882293484609243  0.0552515851583280
  0.9573605218683415  0.4439157988519946  0.0483293884398332
  0.9581297508670731  0.5551601152790734  0.0470054083252271
  0.8595123198049891  0.6104908717798130  0.0539217663939871
  0.0569570686204160  0.7218177641003669  0.0444900116330278
  0.1558132630637496  0.7778075966207054  0.0451621658148871
  0.1568084911975391  0.8889140542270904  0.0477841411829551
  0.0566341704116272  0.9444229171359022  0.0495543064722759
  0.2545796094778467  0.7214737309893396  0.0466315904606563
  0.3539204967311415  0.7755245551652267  0.0528863264877022
  0.3566894574668011  0.8874100644417640  0.0545482202353890
  0.2570338964075853  0.9438589330378198  0.0508487544702643
  0.4506870070383067  0.7161644291818030  0.0621196317860678
  0.5543180044605072  0.8824608862444463  0.0676108644071458
  0.4568298846176702  0.9429845585562284  0.0607659929509140
  0.7574935303536305  0.8824983369732435  0.0628822907366888
  0.6559764971514462  0.9392797526745370  0.0666087409859588
  0.8597242763556349  0.7233694566536210  0.0542887808503133
  0.9577829461217607  0.7781405537951435  0.0490219340252093
  0.9568762368252105  0.8890393198468390  0.0516366092415725
  0.8558187744706452  0.9422664797146338  0.0574178304846564
  0.7614243015971054  0.5565582881953970  0.0644085047142688
  0.5488392387113793  0.7713817420068632  0.0733317378921017
  0.4502284726720766  0.3912936207421516  0.0573820945549279
  0.4485248162437042  0.6064293741965882  0.0614212227778332
  0.6637701795657086  0.3925134573011419  0.0714405690466522
  0.7624020332385878  0.7739671902886112  0.0625202156739745
  0.6532113078994323  0.6626286417374759  0.0820629822522935
  0.5552726509809547  0.4982029723169374  0.0745859886581224
  0.6051423689881288  0.5755161769657935  0.1328107590923767
 
  0.00000000E+00  0.00000000E+00  0.00000000E+00
  0.00000000E+00  0.00000000E+00  0.00000000E+00
  0.00000000E+00  0.00000000E+00  0.00000000E+00
  0.00000000E+00  0.00000000E+00  0.00000000E+00
  0.00000000E+00  0.00000000E+00  0.00000000E+00
  0.00000000E+00  0.00000000E+00  0.00000000E+00
  0.00000000E+00  0.00000000E+00  0.00000000E+00
  0.00000000E+00  0.00000000E+00  0.00000000E+00
  0.00000000E+00  0.00000000E+00  0.00000000E+00
  0.00000000E+00  0.00000000E+00  0.00000000E+00
  0.00000000E+00  0.00000000E+00  0.00000000E+00
  0.00000000E+00  0.00000000E+00  0.00000000E+00
  0.00000000E+00  0.00000000E+00  0.00000000E+00
  0.00000000E+00  0.00000000E+00  0.00000000E+00
  0.00000000E+00  0.00000000E+00  0.00000000E+00
  0.00000000E+00  0.00000000E+00  0.00000000E+00
  0.00000000E+00  0.00000000E+00  0.00000000E+00
  0.00000000E+00  0.00000000E+00  0.00000000E+00
  0.00000000E+00  0.00000000E+00  0.00000000E+00
  0.00000000E+00  0.00000000E+00  0.00000000E+00
  0.00000000E+00  0.00000000E+00  0.00000000E+00
  0.00000000E+00  0.00000000E+00  0.00000000E+00
  0.00000000E+00  0.00000000E+00  0.00000000E+00
  0.00000000E+00  0.00000000E+00  0.00000000E+00
  0.00000000E+00  0.00000000E+00  0.00000000E+00
  0.00000000E+00  0.00000000E+00  0.00000000E+00
  0.00000000E+00  0.00000000E+00  0.00000000E+00
  0.00000000E+00  0.00000000E+00  0.00000000E+00
  0.00000000E+00  0.00000000E+00  0.00000000E+00
  0.00000000E+00  0.00000000E+00  0.00000000E+00
  0.00000000E+00  0.00000000E+00  0.00000000E+00
  0.00000000E+00  0.00000000E+00  0.00000000E+00
  0.00000000E+00  0.00000000E+00  0.00000000E+00
  0.00000000E+00  0.00000000E+00  0.00000000E+00
  0.00000000E+00  0.00000000E+00  0.00000000E+00
  0.00000000E+00  0.00000000E+00  0.00000000E+00
  0.00000000E+00  0.00000000E+00  0.00000000E+00
  0.00000000E+00  0.00000000E+00  0.00000000E+00
  0.00000000E+00  0.00000000E+00  0.00000000E+00
  0.00000000E+00  0.00000000E+00  0.00000000E+00
  0.00000000E+00  0.00000000E+00  0.00000000E+00
  0.00000000E+00  0.00000000E+00  0.00000000E+00
  0.00000000E+00  0.00000000E+00  0.00000000E+00
  0.00000000E+00  0.00000000E+00  0.00000000E+00
  0.00000000E+00  0.00000000E+00  0.00000000E+00
  0.00000000E+00  0.00000000E+00  0.00000000E+00
  0.00000000E+00  0.00000000E+00  0.00000000E+00
  0.00000000E+00  0.00000000E+00  0.00000000E+00
  0.00000000E+00  0.00000000E+00  0.00000000E+00
  0.00000000E+00  0.00000000E+00  0.00000000E+00
  0.00000000E+00  0.00000000E+00  0.00000000E+00
  0.00000000E+00  0.00000000E+00  0.00000000E+00
  0.00000000E+00  0.00000000E+00  0.00000000E+00
  0.00000000E+00  0.00000000E+00  0.00000000E+00
  0.00000000E+00  0.00000000E+00  0.00000000E+00
  0.00000000E+00  0.00000000E+00  0.00000000E+00
  0.00000000E+00  0.00000000E+00  0.00000000E+00
  0.00000000E+00  0.00000000E+00  0.00000000E+00
  0.00000000E+00  0.00000000E+00  0.00000000E+00
