CONTCAR\(2)\(3)                         
   1.00000000000000     
    12.3312997818000003    0.0000000000000000    0.0000000000000000
     0.0001127485000000   12.8291997905000006    0.0000000000000000
     0.0005937186000000    0.0011528207000000   19.9943999824000009
   C    N    Fe   Ni   O    H 
    53     3     1     1     1     1
Direct
  0.0555818834373342  0.0559166837770108  0.0487668139450696
  0.1560173116695612  0.1115129008697338  0.0490992240728469
  0.1562873382218028  0.2224131038434435  0.0479876795928139
  0.0559287452990105  0.2771096244835236  0.0469259153675407
  0.2561343393966120  0.0567505145969052  0.0512751777581497
  0.3565067228428148  0.1122485671578109  0.0548369173860815
  0.3564571665039241  0.2241638303425795  0.0541532321904281
  0.2561478284349422  0.2782224105540116  0.0493331349671050
  0.4559411857401512  0.0558068750136580  0.0591065801115045
  0.5551676701744521  0.1126845380093613  0.0624596598011227
  0.5555308398448848  0.2255057487705533  0.0638469321468845
  0.4554232332232012  0.2827871957115796  0.0590435340984347
  0.6540898897531314  0.0528300584204107  0.0622293543316255
  0.7544081432591639  0.1100385786648199  0.0586172534712226
  0.7554820978468569  0.2223242380971193  0.0594466343653096
  0.6566318723665491  0.2814720347521683  0.0661094063058272
  0.8544662928109023  0.0542589640774193  0.0538980542003671
  0.9548063169869666  0.1104000543621683  0.0506636506642137
  0.9554451617090710  0.2217398728120606  0.0500466800518994
  0.8557849715838045  0.2777616782059605  0.0537821293068254
  0.0570069730136101  0.3879506157959997  0.0443765207124694
  0.1566308694585084  0.4442480308921364  0.0436466952223764
  0.1569189103632800  0.5552421767942937  0.0424662859988362
  0.0579807999243868  0.6110176692951937  0.0413788501366929
  0.2564621296016754  0.3896006584828012  0.0472973758550319
  0.3561626623845993  0.4448665176091666  0.0516442879932754
  0.3560740245443721  0.5582702970905802  0.0523987977696638
  0.2559024815846436  0.6112806265679933  0.0460534506254759
  0.7593399971917104  0.4482154738650239  0.0603847070225740
  0.8576746298707214  0.3892422056433437  0.0519378037701397
  0.9575344830511232  0.4434901431668485  0.0452582174731158
  0.9590095077195719  0.5545452787243933  0.0430982356331995
  0.8608562217506276  0.6101898976698762  0.0472365191478420
  0.0573781630026155  0.7224234282624018  0.0424231317997043
  0.1559499878515690  0.7785128992255935  0.0446081405866390
  0.1556873852822246  0.8898341588829878  0.0468714708653500
  0.0555776309365636  0.9451538351036955  0.0473223556300054
  0.2548334402037792  0.7225261775642158  0.0470750887623563
  0.3531985864794157  0.7780321293864058  0.0529795502878984
  0.3546008543388275  0.8892748636324963  0.0542664633303489
  0.2554486927314694  0.9453714779096706  0.0504194685939262
  0.4507394838124171  0.7206561569445354  0.0610120853249332
  0.5519136467466855  0.8831810675646506  0.0648090735141996
  0.4548540705734208  0.9435825871894440  0.0596512314716186
  0.7548139029481379  0.8831837232593145  0.0582597800936969
  0.6534812983964543  0.9395298812919411  0.0631797371954803
  0.8603345598165658  0.7222887473227828  0.0478298945013901
  0.9581192147763984  0.7784389484430680  0.0447718199236865
  0.9556751765026495  0.8892195505580431  0.0478216269556973
  0.8543855474969105  0.9423973838513916  0.0528943014882445
  0.6621742584308647  0.3913001249959876  0.0719277472096787
  0.7611980672104594  0.5599401469032764  0.0574108839278135
  0.7598905676419653  0.7722179986268134  0.0569208656968675
  0.4528335382271091  0.3912363748538183  0.0583831857753411
  0.5466931045584226  0.7744264672982235  0.0689737424810082
  0.4512243012398200  0.6126287333076069  0.0617733086018877
  0.6567958784590386  0.6671210195062746  0.0843939956352734
  0.5550772318831927  0.4881703554538158  0.0840376149695831
  0.6162973517493360  0.5755089092661971  0.1556904229613198
  0.5540112891397119  0.6006956832754248  0.1811573199200978
 
  0.00000000E+00  0.00000000E+00  0.00000000E+00
  0.00000000E+00  0.00000000E+00  0.00000000E+00
  0.00000000E+00  0.00000000E+00  0.00000000E+00
  0.00000000E+00  0.00000000E+00  0.00000000E+00
  0.00000000E+00  0.00000000E+00  0.00000000E+00
  0.00000000E+00  0.00000000E+00  0.00000000E+00
  0.00000000E+00  0.00000000E+00  0.00000000E+00
  0.00000000E+00  0.00000000E+00  0.00000000E+00
  0.00000000E+00  0.00000000E+00  0.00000000E+00
  0.00000000E+00  0.00000000E+00  0.00000000E+00
  0.00000000E+00  0.00000000E+00  0.00000000E+00
  0.00000000E+00  0.00000000E+00  0.00000000E+00
  0.00000000E+00  0.00000000E+00  0.00000000E+00
  0.00000000E+00  0.00000000E+00  0.00000000E+00
  0.00000000E+00  0.00000000E+00  0.00000000E+00
  0.00000000E+00  0.00000000E+00  0.00000000E+00
  0.00000000E+00  0.00000000E+00  0.00000000E+00
  0.00000000E+00  0.00000000E+00  0.00000000E+00
  0.00000000E+00  0.00000000E+00  0.00000000E+00
  0.00000000E+00  0.00000000E+00  0.00000000E+00
  0.00000000E+00  0.00000000E+00  0.00000000E+00
  0.00000000E+00  0.00000000E+00  0.00000000E+00
  0.00000000E+00  0.00000000E+00  0.00000000E+00
  0.00000000E+00  0.00000000E+00  0.00000000E+00
  0.00000000E+00  0.00000000E+00  0.00000000E+00
  0.00000000E+00  0.00000000E+00  0.00000000E+00
  0.00000000E+00  0.00000000E+00  0.00000000E+00
  0.00000000E+00  0.00000000E+00  0.00000000E+00
  0.00000000E+00  0.00000000E+00  0.00000000E+00
  0.00000000E+00  0.00000000E+00  0.00000000E+00
  0.00000000E+00  0.00000000E+00  0.00000000E+00
  0.00000000E+00  0.00000000E+00  0.00000000E+00
  0.00000000E+00  0.00000000E+00  0.00000000E+00
  0.00000000E+00  0.00000000E+00  0.00000000E+00
  0.00000000E+00  0.00000000E+00  0.00000000E+00
  0.00000000E+00  0.00000000E+00  0.00000000E+00
  0.00000000E+00  0.00000000E+00  0.00000000E+00
  0.00000000E+00  0.00000000E+00  0.00000000E+00
  0.00000000E+00  0.00000000E+00  0.00000000E+00
  0.00000000E+00  0.00000000E+00  0.00000000E+00
  0.00000000E+00  0.00000000E+00  0.00000000E+00
  0.00000000E+00  0.00000000E+00  0.00000000E+00
  0.00000000E+00  0.00000000E+00  0.00000000E+00
  0.00000000E+00  0.00000000E+00  0.00000000E+00
  0.00000000E+00  0.00000000E+00  0.00000000E+00
  0.00000000E+00  0.00000000E+00  0.00000000E+00
  0.00000000E+00  0.00000000E+00  0.00000000E+00
  0.00000000E+00  0.00000000E+00  0.00000000E+00
  0.00000000E+00  0.00000000E+00  0.00000000E+00
  0.00000000E+00  0.00000000E+00  0.00000000E+00
  0.00000000E+00  0.00000000E+00  0.00000000E+00
  0.00000000E+00  0.00000000E+00  0.00000000E+00
  0.00000000E+00  0.00000000E+00  0.00000000E+00
  0.00000000E+00  0.00000000E+00  0.00000000E+00
  0.00000000E+00  0.00000000E+00  0.00000000E+00
  0.00000000E+00  0.00000000E+00  0.00000000E+00
  0.00000000E+00  0.00000000E+00  0.00000000E+00
  0.00000000E+00  0.00000000E+00  0.00000000E+00
  0.00000000E+00  0.00000000E+00  0.00000000E+00
  0.00000000E+00  0.00000000E+00  0.00000000E+00
