CONTCAR                                 
   1.00000000000000     
    12.3312997818000003    0.0000000000000000    0.0000000000000000
     0.0001127485000000   12.8291997905000006    0.0000000000000000
     0.0005937186000000    0.0011528207000000   19.9943999824000009
   C    N    Fe   Ni   H 
    53     3     1     1     1
Direct
  0.0557386948394352  0.0539125981451769  0.0515068839026179
  0.1561618895919306  0.1093849617698963  0.0521112026522026
  0.1562028427750656  0.2201777290947890  0.0505145807524412
  0.0566719679500968  0.2756550052851081  0.0487444818091760
  0.2568275113140330  0.0553399551417143  0.0549037962928502
  0.3569265803837207  0.1120000009314405  0.0576496300500900
  0.3565698956279220  0.2237083322965776  0.0565537209355157
  0.2555443364750230  0.2763267435120663  0.0519855912017019
  0.4570452181347788  0.0574183801016768  0.0615052734341216
  0.5566828280192528  0.1158578919366571  0.0626728153542730
  0.5573781950080779  0.2297148079411875  0.0630169605326708
  0.4548405676040369  0.2841751004535686  0.0603440092108405
  0.6555196495321783  0.0558511559226781  0.0613079945194660
  0.7554982842169344  0.1115796040622067  0.0573654973642759
  0.7567034786397620  0.2239446805156503  0.0571235829542868
  0.6599561517628181  0.2858186155431919  0.0624049651179700
  0.8548142540274449  0.0542011126429152  0.0541411905879695
  0.9555926264162268  0.1091406636941351  0.0518859331355068
  0.9566690118253881  0.2203773981788160  0.0506492843018656
  0.8576518985979374  0.2769514050232434  0.0524429603804200
  0.0574904882265663  0.3867751251196884  0.0468798853378359
  0.1557393545702219  0.4434871935230069  0.0475895837469238
  0.1560416614383745  0.5546424708595310  0.0478775227884851
  0.0573082774941974  0.6104290793077164  0.0466714501642813
  0.2543899871647692  0.3870147648535485  0.0504655733411538
  0.3524145384953802  0.4417124189110057  0.0556361330873935
  0.3535803917723552  0.5540433725428566  0.0584968682258024
  0.2551618689963871  0.6102937984480469  0.0525887355315386
  0.7626655431654724  0.4455096236193293  0.0548504125846450
  0.8599611942283905  0.3877488170206207  0.0498649702216846
  0.9589813851339782  0.4426340612408758  0.0465389346752278
  0.9590120031101139  0.5532789676945817  0.0462477698461654
  0.8591125396675755  0.6062496995278857  0.0477425047123063
  0.0563877755742752  0.7215100982112431  0.0481159019813493
  0.1556634057426692  0.7772715890190020  0.0510693791085775
  0.1559580817100008  0.8883177210697185  0.0522102026310804
  0.0553946997847339  0.9428964008967636  0.0511164982990744
  0.2552021764454122  0.7215179929064084  0.0542331374758178
  0.3544741593228918  0.7765657212854089  0.0601183951720152
  0.3560126552996218  0.8885355356288183  0.0598005430849374
  0.2563191777177328  0.9439668663392367  0.0554361058351188
  0.4528244110315282  0.7185688457504629  0.0689486486704168
  0.5548353995368889  0.8869230612961915  0.0672522054049457
  0.4561082039788324  0.9449785290219451  0.0634108067438940
  0.7544348260781618  0.8843700754584056  0.0566694631426374
  0.6552689169508563  0.9432011804716595  0.0623723353471335
  0.8564690789215523  0.7192218048282716  0.0489802027908921
  0.9559690485560216  0.7758600171270644  0.0486244095227259
  0.9550853691947836  0.8871893442470663  0.0505856337887282
  0.8542560907493173  0.9419435824119675  0.0534585976857141
  0.4527729086879663  0.6056339838765189  0.0702420219226587
  0.5520234397335528  0.7765361927503744  0.0730769518279458
  0.7554091508572548  0.7718627460281683  0.0537627043953203
  0.4492834135423269  0.3915393178952140  0.0606756582875060
  0.6664358199821151  0.3941277445269791  0.0655950343238645
  0.7634180439814471  0.5528145191194260  0.0508826251077073
  0.6482012026066393  0.6661896985399988  0.0693612902294518
  0.5560321620187023  0.4970587410334750  0.0809872653852167
  0.6124253127888661  0.5727332783988275  0.1288432960815454
 
  0.00000000E+00  0.00000000E+00  0.00000000E+00
  0.00000000E+00  0.00000000E+00  0.00000000E+00
  0.00000000E+00  0.00000000E+00  0.00000000E+00
  0.00000000E+00  0.00000000E+00  0.00000000E+00
  0.00000000E+00  0.00000000E+00  0.00000000E+00
  0.00000000E+00  0.00000000E+00  0.00000000E+00
  0.00000000E+00  0.00000000E+00  0.00000000E+00
  0.00000000E+00  0.00000000E+00  0.00000000E+00
  0.00000000E+00  0.00000000E+00  0.00000000E+00
  0.00000000E+00  0.00000000E+00  0.00000000E+00
  0.00000000E+00  0.00000000E+00  0.00000000E+00
  0.00000000E+00  0.00000000E+00  0.00000000E+00
  0.00000000E+00  0.00000000E+00  0.00000000E+00
  0.00000000E+00  0.00000000E+00  0.00000000E+00
  0.00000000E+00  0.00000000E+00  0.00000000E+00
  0.00000000E+00  0.00000000E+00  0.00000000E+00
  0.00000000E+00  0.00000000E+00  0.00000000E+00
  0.00000000E+00  0.00000000E+00  0.00000000E+00
  0.00000000E+00  0.00000000E+00  0.00000000E+00
  0.00000000E+00  0.00000000E+00  0.00000000E+00
  0.00000000E+00  0.00000000E+00  0.00000000E+00
  0.00000000E+00  0.00000000E+00  0.00000000E+00
  0.00000000E+00  0.00000000E+00  0.00000000E+00
  0.00000000E+00  0.00000000E+00  0.00000000E+00
  0.00000000E+00  0.00000000E+00  0.00000000E+00
  0.00000000E+00  0.00000000E+00  0.00000000E+00
  0.00000000E+00  0.00000000E+00  0.00000000E+00
  0.00000000E+00  0.00000000E+00  0.00000000E+00
  0.00000000E+00  0.00000000E+00  0.00000000E+00
  0.00000000E+00  0.00000000E+00  0.00000000E+00
  0.00000000E+00  0.00000000E+00  0.00000000E+00
  0.00000000E+00  0.00000000E+00  0.00000000E+00
  0.00000000E+00  0.00000000E+00  0.00000000E+00
  0.00000000E+00  0.00000000E+00  0.00000000E+00
  0.00000000E+00  0.00000000E+00  0.00000000E+00
  0.00000000E+00  0.00000000E+00  0.00000000E+00
  0.00000000E+00  0.00000000E+00  0.00000000E+00
  0.00000000E+00  0.00000000E+00  0.00000000E+00
  0.00000000E+00  0.00000000E+00  0.00000000E+00
  0.00000000E+00  0.00000000E+00  0.00000000E+00
  0.00000000E+00  0.00000000E+00  0.00000000E+00
  0.00000000E+00  0.00000000E+00  0.00000000E+00
  0.00000000E+00  0.00000000E+00  0.00000000E+00
  0.00000000E+00  0.00000000E+00  0.00000000E+00
  0.00000000E+00  0.00000000E+00  0.00000000E+00
  0.00000000E+00  0.00000000E+00  0.00000000E+00
  0.00000000E+00  0.00000000E+00  0.00000000E+00
  0.00000000E+00  0.00000000E+00  0.00000000E+00
  0.00000000E+00  0.00000000E+00  0.00000000E+00
  0.00000000E+00  0.00000000E+00  0.00000000E+00
  0.00000000E+00  0.00000000E+00  0.00000000E+00
  0.00000000E+00  0.00000000E+00  0.00000000E+00
  0.00000000E+00  0.00000000E+00  0.00000000E+00
  0.00000000E+00  0.00000000E+00  0.00000000E+00
  0.00000000E+00  0.00000000E+00  0.00000000E+00
  0.00000000E+00  0.00000000E+00  0.00000000E+00
  0.00000000E+00  0.00000000E+00  0.00000000E+00
  0.00000000E+00  0.00000000E+00  0.00000000E+00
  0.00000000E+00  0.00000000E+00  0.00000000E+00
