12                                      
   1.00000000000000     
    12.3312997818000003    0.0000000000000000    0.0000000000000000
     0.0001127485000000   12.8291997905000006    0.0000000000000000
     0.0005937186000000    0.0011528207000000   19.9943999824000009
   C    N    Fe   Ni   O 
    54     2     1     1     1
Direct
  0.0560878668191637  0.0555272696588785  0.0516363928877192
  0.1564025874511744  0.1103107016618651  0.0506222280227211
  0.1556507057062312  0.2212111787377225  0.0491089107530670
  0.0556607860692003  0.2768487869848445  0.0488610924212193
  0.2568113047386761  0.0550259086932684  0.0515811151483540
  0.3570156074787652  0.1107069751912384  0.0541504844649097
  0.3560228138581712  0.2227703829109650  0.0533852953691255
  0.2554250079511848  0.2766835242677088  0.0492005005128403
  0.4566997295863094  0.0545431913875697  0.0576853342017517
  0.5554221717546753  0.1128952006077086  0.0614947098447202
  0.5551879857510956  0.2252480569475551  0.0630188506157973
  0.4544498603557613  0.2818806050353513  0.0576147091905014
  0.6553768192532912  0.0541831010944427  0.0629434855456556
  0.7554051134143470  0.1111413263167773  0.0608212293820349
  0.7555343308438681  0.2232361889748788  0.0612315321636487
  0.6561324862303988  0.2817696805441333  0.0665977677438684
  0.8553605943560406  0.0551790539193069  0.0574321313432803
  0.9555806154062274  0.1107865797799725  0.0537863341406937
  0.9553428150346590  0.2220078523734772  0.0526998489706343
  0.8555898558664932  0.2783625475955889  0.0563895074478049
  0.0559794905765661  0.3879641245628687  0.0462007765764026
  0.1552681415069177  0.4435034095893415  0.0442513115496487
  0.1553738905583817  0.5546704479304994  0.0432932735610850
  0.0566883398674368  0.6108241014664575  0.0445607168924148
  0.2546955703904295  0.3877169731648648  0.0467250688748077
  0.3543481158440502  0.4421070504696298  0.0494653640072154
  0.3543693659331233  0.5558478128294083  0.0490033004965044
  0.2547012272298117  0.6102250062401594  0.0447993081481033
  0.7582832855598125  0.4481217447857329  0.0634080256580423
  0.8569308477696195  0.3898524973008163  0.0549487174053251
  0.9565446675527285  0.4440471057454344  0.0482655330408480
  0.9572707222682509  0.5550691498293709  0.0473593904909035
  0.8589283363654806  0.6114555402575895  0.0535195555082522
  0.0569624909491878  0.7224262856396099  0.0462154185234357
  0.1563075671599482  0.7777546713854202  0.0464445422305830
  0.1566268189566256  0.8889792843551194  0.0488300619887207
  0.0565975784783532  0.9446797545543344  0.0509222879678977
  0.2556200461180068  0.7213833654529070  0.0464748291480958
  0.3558059107174293  0.7750762434944399  0.0506086425473607
  0.3570755891677655  0.8869677170638169  0.0524184022380236
  0.2570697974103927  0.9436032228524066  0.0505116816302154
  0.4540467953576338  0.7150339154158544  0.0555607853239766
  0.5562107878450642  0.8823642831489266  0.0619462989638894
  0.4571631735565539  0.9418899399470836  0.0573275990263740
  0.7565812245679356  0.8858620176096833  0.0644653970372939
  0.6558415045410354  0.9421187804433483  0.0643834293940098
  0.8590089312669814  0.7236083338596632  0.0568392293133269
  0.9577638479018353  0.7787188189729080  0.0509258231852408
  0.9566404103332408  0.8894764100749525  0.0533335722916866
  0.8558754400307179  0.9435786794163490  0.0582280800335142
  0.6607373184217618  0.3915689223722293  0.0731268467899179
  0.7602836664762601  0.5600249359455931  0.0625571431552997
  0.5544329978491815  0.7704494815226224  0.0628703605105162
  0.7596774191704690  0.7749005253421808  0.0679392720795400
  0.4509134184930539  0.3900880417553543  0.0557722214070972
  0.4498104777801983  0.6067391132966868  0.0557794219288380
  0.6553455619304344  0.6679566740903375  0.0955841456491671
  0.5529441382042825  0.4890373211802923  0.0824735412230761
  0.6176359329673372  0.5706400929524774  0.1485091580330060
 
  0.00000000E+00  0.00000000E+00  0.00000000E+00
  0.00000000E+00  0.00000000E+00  0.00000000E+00
  0.00000000E+00  0.00000000E+00  0.00000000E+00
  0.00000000E+00  0.00000000E+00  0.00000000E+00
  0.00000000E+00  0.00000000E+00  0.00000000E+00
  0.00000000E+00  0.00000000E+00  0.00000000E+00
  0.00000000E+00  0.00000000E+00  0.00000000E+00
  0.00000000E+00  0.00000000E+00  0.00000000E+00
  0.00000000E+00  0.00000000E+00  0.00000000E+00
  0.00000000E+00  0.00000000E+00  0.00000000E+00
  0.00000000E+00  0.00000000E+00  0.00000000E+00
  0.00000000E+00  0.00000000E+00  0.00000000E+00
  0.00000000E+00  0.00000000E+00  0.00000000E+00
  0.00000000E+00  0.00000000E+00  0.00000000E+00
  0.00000000E+00  0.00000000E+00  0.00000000E+00
  0.00000000E+00  0.00000000E+00  0.00000000E+00
  0.00000000E+00  0.00000000E+00  0.00000000E+00
  0.00000000E+00  0.00000000E+00  0.00000000E+00
  0.00000000E+00  0.00000000E+00  0.00000000E+00
  0.00000000E+00  0.00000000E+00  0.00000000E+00
  0.00000000E+00  0.00000000E+00  0.00000000E+00
  0.00000000E+00  0.00000000E+00  0.00000000E+00
  0.00000000E+00  0.00000000E+00  0.00000000E+00
  0.00000000E+00  0.00000000E+00  0.00000000E+00
  0.00000000E+00  0.00000000E+00  0.00000000E+00
  0.00000000E+00  0.00000000E+00  0.00000000E+00
  0.00000000E+00  0.00000000E+00  0.00000000E+00
  0.00000000E+00  0.00000000E+00  0.00000000E+00
  0.00000000E+00  0.00000000E+00  0.00000000E+00
  0.00000000E+00  0.00000000E+00  0.00000000E+00
  0.00000000E+00  0.00000000E+00  0.00000000E+00
  0.00000000E+00  0.00000000E+00  0.00000000E+00
  0.00000000E+00  0.00000000E+00  0.00000000E+00
  0.00000000E+00  0.00000000E+00  0.00000000E+00
  0.00000000E+00  0.00000000E+00  0.00000000E+00
  0.00000000E+00  0.00000000E+00  0.00000000E+00
  0.00000000E+00  0.00000000E+00  0.00000000E+00
  0.00000000E+00  0.00000000E+00  0.00000000E+00
  0.00000000E+00  0.00000000E+00  0.00000000E+00
  0.00000000E+00  0.00000000E+00  0.00000000E+00
  0.00000000E+00  0.00000000E+00  0.00000000E+00
  0.00000000E+00  0.00000000E+00  0.00000000E+00
  0.00000000E+00  0.00000000E+00  0.00000000E+00
  0.00000000E+00  0.00000000E+00  0.00000000E+00
  0.00000000E+00  0.00000000E+00  0.00000000E+00
  0.00000000E+00  0.00000000E+00  0.00000000E+00
  0.00000000E+00  0.00000000E+00  0.00000000E+00
  0.00000000E+00  0.00000000E+00  0.00000000E+00
  0.00000000E+00  0.00000000E+00  0.00000000E+00
  0.00000000E+00  0.00000000E+00  0.00000000E+00
  0.00000000E+00  0.00000000E+00  0.00000000E+00
  0.00000000E+00  0.00000000E+00  0.00000000E+00
  0.00000000E+00  0.00000000E+00  0.00000000E+00
  0.00000000E+00  0.00000000E+00  0.00000000E+00
  0.00000000E+00  0.00000000E+00  0.00000000E+00
  0.00000000E+00  0.00000000E+00  0.00000000E+00
  0.00000000E+00  0.00000000E+00  0.00000000E+00
  0.00000000E+00  0.00000000E+00  0.00000000E+00
  0.00000000E+00  0.00000000E+00  0.00000000E+00
