CONTCAR\(2)                             
   1.00000000000000     
    12.3312997818000003    0.0000000000000000    0.0000000000000000
     0.0001127485000000   12.8291997905000006    0.0000000000000000
     0.0005937186000000    0.0011528207000000   19.9943999824000009
   C    N    Fe   Ni   H 
    52     4     1     1     1
Direct
  0.0554614693044545  0.0547534648069634  0.0511954099459106
  0.1557844027248912  0.1101263532144950  0.0505397202133568
  0.1558064437250304  0.2206938584809548  0.0490239786732688
  0.0557938877196151  0.2760540450588065  0.0485553655435104
  0.2564307428604302  0.0554969140713576  0.0520756783050062
  0.3569324893936546  0.1108904083928102  0.0550122925861675
  0.3566729853298260  0.2228985246443264  0.0541536844572984
  0.2557774743919864  0.2762138857505700  0.0495142240502863
  0.4567515861485723  0.0548636519351538  0.0589803290710807
  0.5562910927294189  0.1125375559387705  0.0627138327470580
  0.5564981655538864  0.2260180776567435  0.0640556480886729
  0.4551394025914849  0.2824571437014828  0.0585846430119598
  0.6553941306840986  0.0518354191882944  0.0632191062834830
  0.7547438232412124  0.1098036360642080  0.0607099945159233
  0.7555762300384218  0.2227686243914554  0.0614304008940303
  0.6577676995904004  0.2835484978524027  0.0671263148154364
  0.8544823551793584  0.0533590225699921  0.0568477148173838
  0.9549011817373719  0.1094983975858613  0.0533152242586309
  0.9555029211551702  0.2210883461956155  0.0522733818675493
  0.8559716565357608  0.2776944394747629  0.0560254152734435
  0.0571700076165673  0.3872607763167411  0.0462642280568071
  0.1560522441974456  0.4432738872646685  0.0444948641592767
  0.1563441164737737  0.5542944751598767  0.0435912122268662
  0.0576285546957328  0.6104557678093724  0.0445975771175872
  0.2553907557710804  0.3870662874012757  0.0469773581509498
  0.3541281781728688  0.4417185536168293  0.0502317063986024
  0.3552462779792664  0.5550917493176365  0.0502247781335646
  0.2554449219954560  0.6101056292909832  0.0456209817852256
  0.7622384699388655  0.4487797082143224  0.0631372380571413
  0.8589007721673383  0.3894222407791661  0.0545492995212856
  0.9584747126185245  0.4434179499374458  0.0485599395111722
  0.9591672657813185  0.5544365667991916  0.0479162053602254
  0.8605505143737806  0.6095732923734662  0.0540210204520459
  0.0570946815574929  0.7214623461570141  0.0460018716395756
  0.1556814111785741  0.7775281897817645  0.0464115692993190
  0.1557939881967863  0.8885689174408975  0.0487724854122284
  0.0556538163611150  0.9438109093722674  0.0503329725458280
  0.2548196267942740  0.7212479622187444  0.0470053682818947
  0.3531712467266113  0.7772726489973812  0.0521661483586780
  0.3549591217145811  0.8884650832633465  0.0539217149333161
  0.2556174073275586  0.9444168304542798  0.0511637965573184
  0.4506883550431784  0.7204100193145048  0.0591773814789000
  0.5532632401582201  0.8815115960414001  0.0640279021036951
  0.4555133230408652  0.9426608769178459  0.0590196340415393
  0.7565351864017100  0.8808795353644430  0.0605947172802314
  0.6554222646537655  0.9374512483770682  0.0637236396878229
  0.8594549165495764  0.7218721636581010  0.0540108662999533
  0.9577172357840751  0.7770110884142315  0.0499239275158369
  0.9562581445386852  0.8880037098812884  0.0519888841787044
  0.8549443803530230  0.9410928766701179  0.0564968397873495
  0.4537903158704929  0.6090246212044232  0.0590856449570504
  0.6629341494198595  0.3949824753291856  0.0730060874912620
  0.4510235376474590  0.3906495932450441  0.0567720459963485
  0.7648067161830143  0.5583918863112537  0.0624800360849641
  0.5475152838790155  0.7744636406875713  0.0669160126277300
  0.7613515628681067  0.7717532490097092  0.0602894473221349
  0.6505047354989874  0.6618535216420136  0.0718367154896665
  0.5563619403914678  0.4963726261552413  0.0761004176883285
  0.6125563714444283  0.5677552878348814  0.1288050955900884
 
  0.00000000E+00  0.00000000E+00  0.00000000E+00
  0.00000000E+00  0.00000000E+00  0.00000000E+00
  0.00000000E+00  0.00000000E+00  0.00000000E+00
  0.00000000E+00  0.00000000E+00  0.00000000E+00
  0.00000000E+00  0.00000000E+00  0.00000000E+00
  0.00000000E+00  0.00000000E+00  0.00000000E+00
  0.00000000E+00  0.00000000E+00  0.00000000E+00
  0.00000000E+00  0.00000000E+00  0.00000000E+00
  0.00000000E+00  0.00000000E+00  0.00000000E+00
  0.00000000E+00  0.00000000E+00  0.00000000E+00
  0.00000000E+00  0.00000000E+00  0.00000000E+00
  0.00000000E+00  0.00000000E+00  0.00000000E+00
  0.00000000E+00  0.00000000E+00  0.00000000E+00
  0.00000000E+00  0.00000000E+00  0.00000000E+00
  0.00000000E+00  0.00000000E+00  0.00000000E+00
  0.00000000E+00  0.00000000E+00  0.00000000E+00
  0.00000000E+00  0.00000000E+00  0.00000000E+00
  0.00000000E+00  0.00000000E+00  0.00000000E+00
  0.00000000E+00  0.00000000E+00  0.00000000E+00
  0.00000000E+00  0.00000000E+00  0.00000000E+00
  0.00000000E+00  0.00000000E+00  0.00000000E+00
  0.00000000E+00  0.00000000E+00  0.00000000E+00
  0.00000000E+00  0.00000000E+00  0.00000000E+00
  0.00000000E+00  0.00000000E+00  0.00000000E+00
  0.00000000E+00  0.00000000E+00  0.00000000E+00
  0.00000000E+00  0.00000000E+00  0.00000000E+00
  0.00000000E+00  0.00000000E+00  0.00000000E+00
  0.00000000E+00  0.00000000E+00  0.00000000E+00
  0.00000000E+00  0.00000000E+00  0.00000000E+00
  0.00000000E+00  0.00000000E+00  0.00000000E+00
  0.00000000E+00  0.00000000E+00  0.00000000E+00
  0.00000000E+00  0.00000000E+00  0.00000000E+00
  0.00000000E+00  0.00000000E+00  0.00000000E+00
  0.00000000E+00  0.00000000E+00  0.00000000E+00
  0.00000000E+00  0.00000000E+00  0.00000000E+00
  0.00000000E+00  0.00000000E+00  0.00000000E+00
  0.00000000E+00  0.00000000E+00  0.00000000E+00
  0.00000000E+00  0.00000000E+00  0.00000000E+00
  0.00000000E+00  0.00000000E+00  0.00000000E+00
  0.00000000E+00  0.00000000E+00  0.00000000E+00
  0.00000000E+00  0.00000000E+00  0.00000000E+00
  0.00000000E+00  0.00000000E+00  0.00000000E+00
  0.00000000E+00  0.00000000E+00  0.00000000E+00
  0.00000000E+00  0.00000000E+00  0.00000000E+00
  0.00000000E+00  0.00000000E+00  0.00000000E+00
  0.00000000E+00  0.00000000E+00  0.00000000E+00
  0.00000000E+00  0.00000000E+00  0.00000000E+00
  0.00000000E+00  0.00000000E+00  0.00000000E+00
  0.00000000E+00  0.00000000E+00  0.00000000E+00
  0.00000000E+00  0.00000000E+00  0.00000000E+00
  0.00000000E+00  0.00000000E+00  0.00000000E+00
  0.00000000E+00  0.00000000E+00  0.00000000E+00
  0.00000000E+00  0.00000000E+00  0.00000000E+00
  0.00000000E+00  0.00000000E+00  0.00000000E+00
  0.00000000E+00  0.00000000E+00  0.00000000E+00
  0.00000000E+00  0.00000000E+00  0.00000000E+00
  0.00000000E+00  0.00000000E+00  0.00000000E+00
  0.00000000E+00  0.00000000E+00  0.00000000E+00
  0.00000000E+00  0.00000000E+00  0.00000000E+00
