CONTCAR\(2)                             
   1.00000000000000     
    12.3312997818000003    0.0000000000000000    0.0000000000000000
     0.0001127485000000   12.8291997905000006    0.0000000000000000
     0.0005937186000000    0.0011528207000000   19.9943999824000009
   C    N    Fe   Ni   H 
    55     1     1     1     2
Direct
  0.0561977306006724  0.0523108596861172  0.0524909333795123
  0.1562378221846380  0.1080215941349716  0.0524728722991999
  0.1569155394338890  0.2190878895562814  0.0523854105712227
  0.0570433567352724  0.2736886875753921  0.0518715463765225
  0.2562259998855525  0.0530868525301681  0.0527574166782389
  0.3564947725273316  0.1091402153689579  0.0530618243795372
  0.3574252056703903  0.2212940034347635  0.0531807023134237
  0.2569567162317988  0.2755230324665922  0.0529206356239428
  0.4554806026096851  0.0526330589552487  0.0536831090065289
  0.5556217206031105  0.1089176933566353  0.0539201025402757
  0.5562166292387899  0.2196530977053904  0.0533054821054951
  0.4574441007394748  0.2788584915597316  0.0534509607710093
  0.6554642733625742  0.0509578754703966  0.0546227435535933
  0.7560255783806807  0.1067530550495237  0.0531724517962104
  0.7569773872527690  0.2180220723330865  0.0522739004382257
  0.6573366649595654  0.2750825175375110  0.0528100679707616
  0.8557313987324385  0.0512999150872467  0.0529372341550944
  0.9562160371170741  0.1069613282517158  0.0522869450789399
  0.9570938890857927  0.2176724669007172  0.0516454103767709
  0.8573941826682038  0.2728399076012722  0.0512866443877044
  0.0575070564695713  0.3849554552021727  0.0520439381829720
  0.1563014403654222  0.4410760873376172  0.0527219196644402
  0.1551527946443052  0.5523113713670991  0.0528182171331054
  0.0554856471654725  0.6072506990701482  0.0528930822596501
  0.2565393481692175  0.3866002584533107  0.0531817380431980
  0.3563100897149961  0.4429272030117032  0.0538979531057133
  0.3550977984071901  0.5560815002763952  0.0543461521790601
  0.2543826204661387  0.6092010897851577  0.0532264379116199
  0.7598132928807541  0.4391134575853939  0.0527238367798169
  0.8592206067750582  0.3835646517698870  0.0510781734271764
  0.9577311722061447  0.4400212733284323  0.0518114566825397
  0.9558553977913321  0.5509464348308191  0.0528298438976075
  0.8546423720946810  0.6051105614609895  0.0537030104257658
  0.0552230127818389  0.7188808674737605  0.0529821419631381
  0.1540370643326293  0.7751798429525292  0.0524253387347108
  0.1550095318301692  0.8863758810446095  0.0525089761356258
  0.0553503991967354  0.9413129734663959  0.0527187042810954
  0.2534629327329084  0.7198222407990635  0.0526574334582241
  0.3529696902493816  0.7744394511702598  0.0533385951175361
  0.3547822952247793  0.8859281147001982  0.0534700070283597
  0.2552678732211652  0.9418924586000222  0.0527493969736393
  0.4512418940527725  0.7164876245425658  0.0558833344295768
  0.5536480876151386  0.8827738571382202  0.0577910252728098
  0.4547254155187813  0.9409915200573802  0.0544313495846149
  0.7546212380823676  0.8837669154190705  0.0562280058710719
  0.6546567621604948  0.9400552310179371  0.0569569985605819
  0.8558939939316552  0.7185294983535010  0.0546093181878456
  0.9555496140374974  0.7742751140428410  0.0537528745626807
  0.9553239651056905  0.8853746236498077  0.0534333205205620
  0.8550089335138408  0.9400819727654084  0.0538505882407643
  0.4564537658396153  0.3907266295454868  0.0539039985868050
  0.6608079497496940  0.3839795894030032  0.0531680505255729
  0.7546727805061061  0.5501594609590579  0.0553594280330717
  0.5504189484547711  0.7730007186781171  0.0620767385535838
  0.7570687616484817  0.7733077481508065  0.0579157680305358
  0.4515423585503505  0.6077862301607587  0.0557819278169867
  0.6551197257040865  0.6698182068208605  0.0796936823046884
  0.5661652966357003  0.4909333329904743  0.0530834578652038
  0.6027262125057504  0.6787346596896144  0.1644041359409386
  0.6437823146476208  0.6306206243673776  0.1685532459248792
 
  0.00000000E+00  0.00000000E+00  0.00000000E+00
  0.00000000E+00  0.00000000E+00  0.00000000E+00
  0.00000000E+00  0.00000000E+00  0.00000000E+00
  0.00000000E+00  0.00000000E+00  0.00000000E+00
  0.00000000E+00  0.00000000E+00  0.00000000E+00
  0.00000000E+00  0.00000000E+00  0.00000000E+00
  0.00000000E+00  0.00000000E+00  0.00000000E+00
  0.00000000E+00  0.00000000E+00  0.00000000E+00
  0.00000000E+00  0.00000000E+00  0.00000000E+00
  0.00000000E+00  0.00000000E+00  0.00000000E+00
  0.00000000E+00  0.00000000E+00  0.00000000E+00
  0.00000000E+00  0.00000000E+00  0.00000000E+00
  0.00000000E+00  0.00000000E+00  0.00000000E+00
  0.00000000E+00  0.00000000E+00  0.00000000E+00
  0.00000000E+00  0.00000000E+00  0.00000000E+00
  0.00000000E+00  0.00000000E+00  0.00000000E+00
  0.00000000E+00  0.00000000E+00  0.00000000E+00
  0.00000000E+00  0.00000000E+00  0.00000000E+00
  0.00000000E+00  0.00000000E+00  0.00000000E+00
  0.00000000E+00  0.00000000E+00  0.00000000E+00
  0.00000000E+00  0.00000000E+00  0.00000000E+00
  0.00000000E+00  0.00000000E+00  0.00000000E+00
  0.00000000E+00  0.00000000E+00  0.00000000E+00
  0.00000000E+00  0.00000000E+00  0.00000000E+00
  0.00000000E+00  0.00000000E+00  0.00000000E+00
  0.00000000E+00  0.00000000E+00  0.00000000E+00
  0.00000000E+00  0.00000000E+00  0.00000000E+00
  0.00000000E+00  0.00000000E+00  0.00000000E+00
  0.00000000E+00  0.00000000E+00  0.00000000E+00
  0.00000000E+00  0.00000000E+00  0.00000000E+00
  0.00000000E+00  0.00000000E+00  0.00000000E+00
  0.00000000E+00  0.00000000E+00  0.00000000E+00
  0.00000000E+00  0.00000000E+00  0.00000000E+00
  0.00000000E+00  0.00000000E+00  0.00000000E+00
  0.00000000E+00  0.00000000E+00  0.00000000E+00
  0.00000000E+00  0.00000000E+00  0.00000000E+00
  0.00000000E+00  0.00000000E+00  0.00000000E+00
  0.00000000E+00  0.00000000E+00  0.00000000E+00
  0.00000000E+00  0.00000000E+00  0.00000000E+00
  0.00000000E+00  0.00000000E+00  0.00000000E+00
  0.00000000E+00  0.00000000E+00  0.00000000E+00
  0.00000000E+00  0.00000000E+00  0.00000000E+00
  0.00000000E+00  0.00000000E+00  0.00000000E+00
  0.00000000E+00  0.00000000E+00  0.00000000E+00
  0.00000000E+00  0.00000000E+00  0.00000000E+00
  0.00000000E+00  0.00000000E+00  0.00000000E+00
  0.00000000E+00  0.00000000E+00  0.00000000E+00
  0.00000000E+00  0.00000000E+00  0.00000000E+00
  0.00000000E+00  0.00000000E+00  0.00000000E+00
  0.00000000E+00  0.00000000E+00  0.00000000E+00
  0.00000000E+00  0.00000000E+00  0.00000000E+00
  0.00000000E+00  0.00000000E+00  0.00000000E+00
  0.00000000E+00  0.00000000E+00  0.00000000E+00
  0.00000000E+00  0.00000000E+00  0.00000000E+00
  0.00000000E+00  0.00000000E+00  0.00000000E+00
  0.00000000E+00  0.00000000E+00  0.00000000E+00
  0.00000000E+00  0.00000000E+00  0.00000000E+00
  0.00000000E+00  0.00000000E+00  0.00000000E+00
  0.00000000E+00  0.00000000E+00  0.00000000E+00
  0.00000000E+00  0.00000000E+00  0.00000000E+00
