CONTCAR\(4)                             
   1.00000000000000     
    12.3312997818000003    0.0000000000000000    0.0000000000000000
     0.0001127485000000   12.8291997905000006    0.0000000000000000
     0.0005937186000000    0.0011528207000000   19.9943999824000009
   C    N    Fe   Ni   H 
    54     2     1     1     2
Direct
  0.0553912209236820  0.0538442587850202  0.0525960760410488
  0.1558086303698867  0.1094113130320215  0.0520994391575245
  0.1567660795729163  0.2203942998196581  0.0511817792246424
  0.0565844743168401  0.2749739399778227  0.0504165835592285
  0.2561827140689978  0.0548241940318149  0.0527870266319922
  0.3564868074829809  0.1108027861674557  0.0552112928466429
  0.3574572176022032  0.2226987165762120  0.0552393226903257
  0.2568061598361774  0.2767700519470181  0.0517703404555092
  0.4560823648443325  0.0547421615332245  0.0578487102144006
  0.5563497523253289  0.1112850147752963  0.0608559432651374
  0.5571704084033147  0.2234013509674558  0.0620428665210211
  0.4573171906429308  0.2805798595614507  0.0588546894841286
  0.6555543948878110  0.0523527552116108  0.0614130000690991
  0.7553599056469098  0.1092175555933231  0.0595286348256157
  0.7563324220588913  0.2215697722350214  0.0592810625990849
  0.6578736837058651  0.2812310221575869  0.0633753764507467
  0.8545817242057145  0.0522820027079179  0.0569307553009472
  0.9549920317150608  0.1083947099639980  0.0540348488531379
  0.9561442165839567  0.2197500959648758  0.0527431777068187
  0.8566111709304759  0.2761014437434985  0.0547199472783642
  0.0578015434716193  0.3859746303435146  0.0486443558730318
  0.1564192694684020  0.4425493871124973  0.0477830664573408
  0.1558493387924231  0.5538003698710831  0.0468705048243988
  0.0565904462105318  0.6093151828841010  0.0470785590104262
  0.2564838055476115  0.3879580636843448  0.0498299284630406
  0.3555451037047245  0.4445459227330518  0.0520823859141998
  0.3541510286826773  0.5574023414240130  0.0510936339149410
  0.2538976931794532  0.6110783500454419  0.0479944339359956
  0.7615345538971411  0.4467572076173106  0.0578768982160914
  0.8588986383545921  0.3875117764248481  0.0526992112917834
  0.9586940010568616  0.4415973408783849  0.0492529986212333
  0.9587350252964084  0.5520865632464108  0.0487053257625350
  0.8589849501127956  0.6061512534014957  0.0523371106089720
  0.0553622993489393  0.7205656681292495  0.0479779586239877
  0.1537667262776386  0.7771721994036643  0.0483666306967533
  0.1547477242585778  0.8881732622166264  0.0500915710371278
  0.0544837840222889  0.9427632827605424  0.0517518051770199
  0.2530092743574792  0.7216473749492019  0.0485618519498481
  0.3522895568231149  0.7763994651497530  0.0512559904848077
  0.3547118247575109  0.8878293022827574  0.0530063100562963
  0.2551778134133743  0.9436163598812091  0.0515810807487297
  0.4497662838067622  0.7180410704003251  0.0553971391277666
  0.5535024924973191  0.8840584105715406  0.0615110873867138
  0.4551016029274114  0.9427764949837744  0.0572367408355891
  0.7538466666083788  0.8812436520707372  0.0610370059856367
  0.6547222150156841  0.9399550204485906  0.0623567057346551
  0.8567745497240208  0.7183426046363863  0.0536228511222227
  0.9551997720404594  0.7751622841705686  0.0507614073316223
  0.9546433449363794  0.8863545612220466  0.0530960051364528
  0.8534131225828607  0.9398034368053089  0.0571842755808354
  0.4557261872928203  0.3922622269103734  0.0579398866679102
  0.6614418146014056  0.3924062871061965  0.0661863973947659
  0.5504703647738513  0.7729375061238664  0.0627050563299146
  0.7546271556679841  0.7675592239690771  0.0604923457533438
  0.7635307228061498  0.5553403039124798  0.0574152308324461
  0.4492698056788085  0.6097467414931375  0.0558838623402487
  0.6440256080354416  0.6655761478619936  0.0731500732030539
  0.5597244766877372  0.4945735487274232  0.0724921233683422
  0.6531490103401880  0.6987841534597367  0.1431082958156912
  0.6181079318179366  0.5756037209346475  0.1282310242087997
 
  0.00000000E+00  0.00000000E+00  0.00000000E+00
  0.00000000E+00  0.00000000E+00  0.00000000E+00
  0.00000000E+00  0.00000000E+00  0.00000000E+00
  0.00000000E+00  0.00000000E+00  0.00000000E+00
  0.00000000E+00  0.00000000E+00  0.00000000E+00
  0.00000000E+00  0.00000000E+00  0.00000000E+00
  0.00000000E+00  0.00000000E+00  0.00000000E+00
  0.00000000E+00  0.00000000E+00  0.00000000E+00
  0.00000000E+00  0.00000000E+00  0.00000000E+00
  0.00000000E+00  0.00000000E+00  0.00000000E+00
  0.00000000E+00  0.00000000E+00  0.00000000E+00
  0.00000000E+00  0.00000000E+00  0.00000000E+00
  0.00000000E+00  0.00000000E+00  0.00000000E+00
  0.00000000E+00  0.00000000E+00  0.00000000E+00
  0.00000000E+00  0.00000000E+00  0.00000000E+00
  0.00000000E+00  0.00000000E+00  0.00000000E+00
  0.00000000E+00  0.00000000E+00  0.00000000E+00
  0.00000000E+00  0.00000000E+00  0.00000000E+00
  0.00000000E+00  0.00000000E+00  0.00000000E+00
  0.00000000E+00  0.00000000E+00  0.00000000E+00
  0.00000000E+00  0.00000000E+00  0.00000000E+00
  0.00000000E+00  0.00000000E+00  0.00000000E+00
  0.00000000E+00  0.00000000E+00  0.00000000E+00
  0.00000000E+00  0.00000000E+00  0.00000000E+00
  0.00000000E+00  0.00000000E+00  0.00000000E+00
  0.00000000E+00  0.00000000E+00  0.00000000E+00
  0.00000000E+00  0.00000000E+00  0.00000000E+00
  0.00000000E+00  0.00000000E+00  0.00000000E+00
  0.00000000E+00  0.00000000E+00  0.00000000E+00
  0.00000000E+00  0.00000000E+00  0.00000000E+00
  0.00000000E+00  0.00000000E+00  0.00000000E+00
  0.00000000E+00  0.00000000E+00  0.00000000E+00
  0.00000000E+00  0.00000000E+00  0.00000000E+00
  0.00000000E+00  0.00000000E+00  0.00000000E+00
  0.00000000E+00  0.00000000E+00  0.00000000E+00
  0.00000000E+00  0.00000000E+00  0.00000000E+00
  0.00000000E+00  0.00000000E+00  0.00000000E+00
  0.00000000E+00  0.00000000E+00  0.00000000E+00
  0.00000000E+00  0.00000000E+00  0.00000000E+00
  0.00000000E+00  0.00000000E+00  0.00000000E+00
  0.00000000E+00  0.00000000E+00  0.00000000E+00
  0.00000000E+00  0.00000000E+00  0.00000000E+00
  0.00000000E+00  0.00000000E+00  0.00000000E+00
  0.00000000E+00  0.00000000E+00  0.00000000E+00
  0.00000000E+00  0.00000000E+00  0.00000000E+00
  0.00000000E+00  0.00000000E+00  0.00000000E+00
  0.00000000E+00  0.00000000E+00  0.00000000E+00
  0.00000000E+00  0.00000000E+00  0.00000000E+00
  0.00000000E+00  0.00000000E+00  0.00000000E+00
  0.00000000E+00  0.00000000E+00  0.00000000E+00
  0.00000000E+00  0.00000000E+00  0.00000000E+00
  0.00000000E+00  0.00000000E+00  0.00000000E+00
  0.00000000E+00  0.00000000E+00  0.00000000E+00
  0.00000000E+00  0.00000000E+00  0.00000000E+00
  0.00000000E+00  0.00000000E+00  0.00000000E+00
  0.00000000E+00  0.00000000E+00  0.00000000E+00
  0.00000000E+00  0.00000000E+00  0.00000000E+00
  0.00000000E+00  0.00000000E+00  0.00000000E+00
  0.00000000E+00  0.00000000E+00  0.00000000E+00
  0.00000000E+00  0.00000000E+00  0.00000000E+00
