CONTCAR\(2)                             
   1.00000000000000     
    12.3312997818000003    0.0000000000000000    0.0000000000000000
     0.0001127485000000   12.8291997905000006    0.0000000000000000
     0.0005937186000000    0.0011528207000000   19.9943999824000009
   C    N    Fe   Ni   H 
    52     4     1     1     2
Direct
  0.0556526733238201  0.0538260340383387  0.0512444135716421
  0.1561560554336557  0.1094823159363703  0.0503358825103976
  0.1567305201621508  0.2204120199454157  0.0496499554129305
  0.0562348119722036  0.2749813228206812  0.0502355372273345
  0.2565117540622771  0.0544870496465753  0.0506518396567108
  0.3572777555497329  0.1096279456126454  0.0523777993199990
  0.3578622749326116  0.2217521381203338  0.0518292039967579
  0.2572053859575844  0.2763915551758596  0.0492402565508417
  0.4569332182091626  0.0527512567033795  0.0550330387153876
  0.5571760514102265  0.1088199351866990  0.0583373538630409
  0.5576830462434832  0.2215595489356097  0.0591416380426028
  0.4579038268784405  0.2794527029996460  0.0546352336777964
  0.6557288259199516  0.0486119795368012  0.0595972318974010
  0.7549274024734179  0.1070373708524116  0.0586441612236896
  0.7557620435295404  0.2200225482173330  0.0594225611629633
  0.6576193270558033  0.2796512607415752  0.0622520049099353
  0.8547538750145417  0.0513164504470775  0.0558256090551303
  0.9550860960125556  0.1080135745924832  0.0533743322688033
  0.9557501950397359  0.2196332253172097  0.0530931265818619
  0.8559576555433595  0.2757606323817671  0.0560123583242140
  0.0569747233238052  0.3861046972602663  0.0489106876425034
  0.1563216079093110  0.4422342780085582  0.0467933193971665
  0.1557205270265591  0.5530867874925569  0.0459154291069598
  0.0569091203838802  0.6090114871200503  0.0467984939833744
  0.2565868965552180  0.3878013088546765  0.0474116905746198
  0.3561260615842702  0.4445522155305771  0.0479398125496103
  0.3544325429026958  0.5573708357618921  0.0473567648862767
  0.2544483576544825  0.6102771995851177  0.0460796351841098
  0.7601082250177134  0.4471455749090819  0.0601526704049916
  0.8578841944820368  0.3877338732654067  0.0551267321345275
  0.9579695290559821  0.4417708665679689  0.0508816278415766
  0.9580327551420514  0.5528880135546702  0.0497108821437286
  0.8591638873986982  0.6077813830531633  0.0538491649433376
  0.0563979873529757  0.7199534958234504  0.0471373497195811
  0.1546883193492160  0.7767934824785352  0.0468819487557979
  0.1553982965764214  0.8877042569048375  0.0485137615513240
  0.0554659220583621  0.9427952988673030  0.0502403035035199
  0.2533997620275688  0.7210255300182876  0.0466071680973751
  0.3521437715643594  0.7762744447682012  0.0492363437838853
  0.3545900937872638  0.8872156866809729  0.0510961181996386
  0.2555014167621973  0.9432770897124351  0.0497829908504654
  0.4492817012421298  0.7186233209815235  0.0530138549629186
  0.5526517760850727  0.8792406492995886  0.0589238416395696
  0.4556264262435522  0.9405105284196283  0.0547488523350649
  0.7564766966563887  0.8784024253771413  0.0582990545764522
  0.6549365073959971  0.9342652566090013  0.0599579585541238
  0.8588278141669166  0.7197239986648745  0.0532165804184759
  0.9571780474383381  0.7752797927432019  0.0498402147835430
  0.9561436766055081  0.8863357925617678  0.0515785528276280
  0.8548387293597658  0.9391362211875486  0.0552093994789325
  0.4560068420830048  0.3908884721756177  0.0524181755717404
  0.6604688615894581  0.3915036804819280  0.0651352133544252
  0.4507615912245102  0.6114052662158032  0.0504504965458824
  0.7618947589848939  0.5572997370831302  0.0604438991995496
  0.5464453923948726  0.7705099001787016  0.0610234218514137
  0.7608795566871926  0.7697592362751934  0.0585393459918336
  0.6496766248069763  0.6635565902680175  0.0718495144949488
  0.5591669867227984  0.4938906313781098  0.0650132816188651
  0.6044225417858222  0.5824248951018197  0.1300034176774066
  0.6343486198874887  0.6507548135711801  0.1483984838934292
 
  0.00000000E+00  0.00000000E+00  0.00000000E+00
  0.00000000E+00  0.00000000E+00  0.00000000E+00
  0.00000000E+00  0.00000000E+00  0.00000000E+00
  0.00000000E+00  0.00000000E+00  0.00000000E+00
  0.00000000E+00  0.00000000E+00  0.00000000E+00
  0.00000000E+00  0.00000000E+00  0.00000000E+00
  0.00000000E+00  0.00000000E+00  0.00000000E+00
  0.00000000E+00  0.00000000E+00  0.00000000E+00
  0.00000000E+00  0.00000000E+00  0.00000000E+00
  0.00000000E+00  0.00000000E+00  0.00000000E+00
  0.00000000E+00  0.00000000E+00  0.00000000E+00
  0.00000000E+00  0.00000000E+00  0.00000000E+00
  0.00000000E+00  0.00000000E+00  0.00000000E+00
  0.00000000E+00  0.00000000E+00  0.00000000E+00
  0.00000000E+00  0.00000000E+00  0.00000000E+00
  0.00000000E+00  0.00000000E+00  0.00000000E+00
  0.00000000E+00  0.00000000E+00  0.00000000E+00
  0.00000000E+00  0.00000000E+00  0.00000000E+00
  0.00000000E+00  0.00000000E+00  0.00000000E+00
  0.00000000E+00  0.00000000E+00  0.00000000E+00
  0.00000000E+00  0.00000000E+00  0.00000000E+00
  0.00000000E+00  0.00000000E+00  0.00000000E+00
  0.00000000E+00  0.00000000E+00  0.00000000E+00
  0.00000000E+00  0.00000000E+00  0.00000000E+00
  0.00000000E+00  0.00000000E+00  0.00000000E+00
  0.00000000E+00  0.00000000E+00  0.00000000E+00
  0.00000000E+00  0.00000000E+00  0.00000000E+00
  0.00000000E+00  0.00000000E+00  0.00000000E+00
  0.00000000E+00  0.00000000E+00  0.00000000E+00
  0.00000000E+00  0.00000000E+00  0.00000000E+00
  0.00000000E+00  0.00000000E+00  0.00000000E+00
  0.00000000E+00  0.00000000E+00  0.00000000E+00
  0.00000000E+00  0.00000000E+00  0.00000000E+00
  0.00000000E+00  0.00000000E+00  0.00000000E+00
  0.00000000E+00  0.00000000E+00  0.00000000E+00
  0.00000000E+00  0.00000000E+00  0.00000000E+00
  0.00000000E+00  0.00000000E+00  0.00000000E+00
  0.00000000E+00  0.00000000E+00  0.00000000E+00
  0.00000000E+00  0.00000000E+00  0.00000000E+00
  0.00000000E+00  0.00000000E+00  0.00000000E+00
  0.00000000E+00  0.00000000E+00  0.00000000E+00
  0.00000000E+00  0.00000000E+00  0.00000000E+00
  0.00000000E+00  0.00000000E+00  0.00000000E+00
  0.00000000E+00  0.00000000E+00  0.00000000E+00
  0.00000000E+00  0.00000000E+00  0.00000000E+00
  0.00000000E+00  0.00000000E+00  0.00000000E+00
  0.00000000E+00  0.00000000E+00  0.00000000E+00
  0.00000000E+00  0.00000000E+00  0.00000000E+00
  0.00000000E+00  0.00000000E+00  0.00000000E+00
  0.00000000E+00  0.00000000E+00  0.00000000E+00
  0.00000000E+00  0.00000000E+00  0.00000000E+00
  0.00000000E+00  0.00000000E+00  0.00000000E+00
  0.00000000E+00  0.00000000E+00  0.00000000E+00
  0.00000000E+00  0.00000000E+00  0.00000000E+00
  0.00000000E+00  0.00000000E+00  0.00000000E+00
  0.00000000E+00  0.00000000E+00  0.00000000E+00
  0.00000000E+00  0.00000000E+00  0.00000000E+00
  0.00000000E+00  0.00000000E+00  0.00000000E+00
  0.00000000E+00  0.00000000E+00  0.00000000E+00
  0.00000000E+00  0.00000000E+00  0.00000000E+00
