CONTCAR                                 
   1.00000000000000     
    12.3312997818000003    0.0000000000000000    0.0000000000000000
     0.0001127485000000   12.8291997905000006    0.0000000000000000
     0.0005937186000000    0.0011528207000000   19.9943999824000009
   C    N    Fe   Ni   O 
    52     4     1     1     1
Direct
  0.0559168506716279  0.0551109169866448  0.0506299094578471
  0.1564050568725521  0.1101231671392963  0.0506476740580582
  0.1561102947369595  0.2209509879649075  0.0491977648792041
  0.0558946905841717  0.2764170307610051  0.0479159469553855
  0.2569760288817864  0.0550989297554842  0.0527616504407224
  0.3572735643995366  0.1108670515097278  0.0564096400063794
  0.3566645764828670  0.2228644205911308  0.0556438227540534
  0.2558558773836211  0.2765263995917818  0.0503503780185492
  0.4570843010695685  0.0546206074608076  0.0608677082318629
  0.5564029481300107  0.1125522120289944  0.0644483630675503
  0.5563795688529702  0.2261033830610896  0.0657709929682331
  0.4551737820349756  0.2821605357648695  0.0609718084165527
  0.6559945690776166  0.0528583678867416  0.0643130385621384
  0.7551334083021993  0.1108787477937180  0.0606202773927879
  0.7555729087300923  0.2235638149125005  0.0609013087334306
  0.6572286618405767  0.2840057625240173  0.0672713247413992
  0.8549548595032664  0.0544191524679601  0.0561688009454921
  0.9553148315523083  0.1101388097899048  0.0525457305485743
  0.9555486909710251  0.2216099464451093  0.0514234064203923
  0.8559045409015147  0.2782849003032819  0.0550746847181416
  0.0568241569384507  0.3873880542445119  0.0447165075968438
  0.1558639248316636  0.4433679031066974  0.0434297278231618
  0.1557219370052677  0.5542485367106402  0.0419500855503684
  0.0571201771394141  0.6108675242637350  0.0414490355732626
  0.2554001879136679  0.3875901541796355  0.0475472164872745
  0.3541945619025585  0.4423638712702376  0.0521747450421848
  0.3531912050997000  0.5553962122644499  0.0524793956483067
  0.2540966067002374  0.6101652389059952  0.0457160695891490
  0.7611862915457551  0.4500784224991194  0.0606767070463142
  0.8582094174201907  0.3898322208815510  0.0529202091626269
  0.9577734149520849  0.4437855857011513  0.0459486451999624
  0.9587064077714523  0.5549258308907282  0.0438373795824914
  0.8596220693081142  0.6098332084386381  0.0488729858723008
  0.0566946451393648  0.7217905775222286  0.0430962885221797
  0.1555276227447089  0.7777571486833081  0.0452911116466890
  0.1564340559575756  0.8887051802893974  0.0482753484685165
  0.0562168244355999  0.9442476438911108  0.0492491024431704
  0.2544926836867175  0.7212756371137755  0.0476179976382329
  0.3537199111810438  0.7753968354813715  0.0548133111432070
  0.3563251876390440  0.8870478219582469  0.0559176838630721
  0.2567569358796137  0.9436042691088677  0.0518603152636075
  0.4504634351557816  0.7153655760573790  0.0636951210695356
  0.5548789444437364  0.8819336579584274  0.0673907113491520
  0.4566696132613800  0.9421182181501405  0.0613413823152604
  0.7572157337650016  0.8827611420739916  0.0607058386795948
  0.6560083520386646  0.9390946940140886  0.0655738168605175
  0.8583689101124404  0.7227976996630904  0.0501436180974195
  0.9571323828183694  0.7776038842188109  0.0466775083402984
  0.9565115952428719  0.8886497126599460  0.0500942244346069
  0.8555528230693422  0.9423308805567151  0.0554079127031483
  0.6623386347399454  0.3954147013349955  0.0723757560834778
  0.5499580614849553  0.7706366961423352  0.0733145879139324
  0.4511366311207654  0.3904439058621456  0.0605203917091058
  0.4470803088138709  0.6071941657839008  0.0631559434011203
  0.7651572720355680  0.5582349658073757  0.0573326474029348
  0.7610260503400632  0.7740263330563686  0.0592955189659899
  0.6571263619802750  0.6679725135997172  0.0860122622119996
  0.5520517726457640  0.4903195587014911  0.0864617841888340
  0.6130047857597444  0.5809687702146960  0.1448168717933714
 
  0.00000000E+00  0.00000000E+00  0.00000000E+00
  0.00000000E+00  0.00000000E+00  0.00000000E+00
  0.00000000E+00  0.00000000E+00  0.00000000E+00
  0.00000000E+00  0.00000000E+00  0.00000000E+00
  0.00000000E+00  0.00000000E+00  0.00000000E+00
  0.00000000E+00  0.00000000E+00  0.00000000E+00
  0.00000000E+00  0.00000000E+00  0.00000000E+00
  0.00000000E+00  0.00000000E+00  0.00000000E+00
  0.00000000E+00  0.00000000E+00  0.00000000E+00
  0.00000000E+00  0.00000000E+00  0.00000000E+00
  0.00000000E+00  0.00000000E+00  0.00000000E+00
  0.00000000E+00  0.00000000E+00  0.00000000E+00
  0.00000000E+00  0.00000000E+00  0.00000000E+00
  0.00000000E+00  0.00000000E+00  0.00000000E+00
  0.00000000E+00  0.00000000E+00  0.00000000E+00
  0.00000000E+00  0.00000000E+00  0.00000000E+00
  0.00000000E+00  0.00000000E+00  0.00000000E+00
  0.00000000E+00  0.00000000E+00  0.00000000E+00
  0.00000000E+00  0.00000000E+00  0.00000000E+00
  0.00000000E+00  0.00000000E+00  0.00000000E+00
  0.00000000E+00  0.00000000E+00  0.00000000E+00
  0.00000000E+00  0.00000000E+00  0.00000000E+00
  0.00000000E+00  0.00000000E+00  0.00000000E+00
  0.00000000E+00  0.00000000E+00  0.00000000E+00
  0.00000000E+00  0.00000000E+00  0.00000000E+00
  0.00000000E+00  0.00000000E+00  0.00000000E+00
  0.00000000E+00  0.00000000E+00  0.00000000E+00
  0.00000000E+00  0.00000000E+00  0.00000000E+00
  0.00000000E+00  0.00000000E+00  0.00000000E+00
  0.00000000E+00  0.00000000E+00  0.00000000E+00
  0.00000000E+00  0.00000000E+00  0.00000000E+00
  0.00000000E+00  0.00000000E+00  0.00000000E+00
  0.00000000E+00  0.00000000E+00  0.00000000E+00
  0.00000000E+00  0.00000000E+00  0.00000000E+00
  0.00000000E+00  0.00000000E+00  0.00000000E+00
  0.00000000E+00  0.00000000E+00  0.00000000E+00
  0.00000000E+00  0.00000000E+00  0.00000000E+00
  0.00000000E+00  0.00000000E+00  0.00000000E+00
  0.00000000E+00  0.00000000E+00  0.00000000E+00
  0.00000000E+00  0.00000000E+00  0.00000000E+00
  0.00000000E+00  0.00000000E+00  0.00000000E+00
  0.00000000E+00  0.00000000E+00  0.00000000E+00
  0.00000000E+00  0.00000000E+00  0.00000000E+00
  0.00000000E+00  0.00000000E+00  0.00000000E+00
  0.00000000E+00  0.00000000E+00  0.00000000E+00
  0.00000000E+00  0.00000000E+00  0.00000000E+00
  0.00000000E+00  0.00000000E+00  0.00000000E+00
  0.00000000E+00  0.00000000E+00  0.00000000E+00
  0.00000000E+00  0.00000000E+00  0.00000000E+00
  0.00000000E+00  0.00000000E+00  0.00000000E+00
  0.00000000E+00  0.00000000E+00  0.00000000E+00
  0.00000000E+00  0.00000000E+00  0.00000000E+00
  0.00000000E+00  0.00000000E+00  0.00000000E+00
  0.00000000E+00  0.00000000E+00  0.00000000E+00
  0.00000000E+00  0.00000000E+00  0.00000000E+00
  0.00000000E+00  0.00000000E+00  0.00000000E+00
  0.00000000E+00  0.00000000E+00  0.00000000E+00
  0.00000000E+00  0.00000000E+00  0.00000000E+00
  0.00000000E+00  0.00000000E+00  0.00000000E+00
