345                                     
   1.00000000000000     
    12.3312997818000003    0.0000000000000000    0.0000000000000000
     0.0001127485000000   12.8291997905000006    0.0000000000000000
     0.0005937186000000    0.0011528207000000   19.9943999824000009
   C    N    Fe   Ni   O 
    53     3     1     1     1
Direct
  0.0557582658009190  0.0550299677409740  0.0516032735479208
  0.1561268578428663  0.1102545540091714  0.0513332610536855
  0.1563035766551668  0.2210880055453955  0.0506849390524956
  0.0560635836449760  0.2762251241612281  0.0504904693851060
  0.2566273441755405  0.0552380001206434  0.0521840142325306
  0.3571424983246029  0.1104857467001978  0.0551042534497902
  0.3573497705334990  0.2222220009415408  0.0549181108035509
  0.2565944845978489  0.2764669185622457  0.0510602398659021
  0.4570035304342689  0.0542692432936694  0.0586140174886975
  0.5571706077876162  0.1104151444444046  0.0625931336279678
  0.5573837361037628  0.2229568399967109  0.0642438769152721
  0.4571176300320815  0.2798300205235446  0.0597902513077202
  0.6562082728403400  0.0509446138960506  0.0631336158483272
  0.7552118611229631  0.1093298717692521  0.0607490943152801
  0.7556339022142793  0.2223103458170280  0.0612869855802668
  0.6572520627339167  0.2816173096945433  0.0663288228154349
  0.8550601635885210  0.0536312913054425  0.0570590543762081
  0.9552669655867152  0.1097708280726283  0.0539409497333141
  0.9556276065628169  0.2213702711815319  0.0535684257265786
  0.8557832621352861  0.2776493021189057  0.0569923505308725
  0.0568611618920209  0.3874291053191115  0.0484358213902982
  0.1560752854292713  0.4430388716902294  0.0466271925560701
  0.1562211377046333  0.5545341513880883  0.0451650950803797
  0.0572385846382132  0.6103553412217739  0.0450735884025196
  0.2559252838760434  0.3874906719829559  0.0486803616661924
  0.3548952066534130  0.4432592530544995  0.0507728005293640
  0.3551639604348939  0.5562744474873825  0.0489061876810932
  0.2550930547289391  0.6109273623884041  0.0460866748432267
  0.7593474539205598  0.4491712053973223  0.0625091466912376
  0.8574149810425020  0.3896306322878432  0.0559577291234675
  0.9574853722228568  0.4433925086741504  0.0502803105108781
  0.9584448301626864  0.5543832363119847  0.0482391176685072
  0.8593454978944823  0.6090893469951943  0.0529724867441789
  0.0570252536473207  0.7214638330557491  0.0455329942837222
  0.1556917689458253  0.7776476820123200  0.0458365444188599
  0.1559023405974151  0.8887132658933805  0.0482237949139389
  0.0558795594901913  0.9440208143445865  0.0499752615881175
  0.2550325982150302  0.7217321369566152  0.0462959279030414
  0.3540087684690770  0.7771564195453212  0.0505331717512834
  0.3553884091927332  0.8880563392421007  0.0529133956715862
  0.2558737520669876  0.9441456393532893  0.0507182462728936
  0.4524685923423630  0.7202389933147743  0.0568481399995958
  0.5535797106128010  0.8819569536977769  0.0638771068081718
  0.4558371322117026  0.9422918478628276  0.0581217726168721
  0.7573597082643467  0.8816089993669944  0.0605658749456317
  0.6560019954422355  0.9372380278973216  0.0639643977164874
  0.8590745756112025  0.7221449899966601  0.0526171260171475
  0.9576122453379377  0.7770528505989439  0.0487928491517698
  0.9564755342525467  0.8881653832559725  0.0512771604140714
  0.8556021841050583  0.9414801208653869  0.0562668497931885
  0.4545403594517687  0.3910036001443259  0.0591867687278516
  0.4540541708724560  0.6092733907646843  0.0544580364165688
  0.6593879625307877  0.3934672015452844  0.0718092444014449
  0.7636143760271566  0.5582769542937627  0.0615876914604865
  0.5479794607683027  0.7751275965664025  0.0672632411433385
  0.7620530893767111  0.7730794206838159  0.0597479042112440
  0.6538025657822082  0.6675659842558801  0.0822671142530103
  0.5531293298694224  0.4926855833730216  0.0859491297386667
  0.6039367471979051  0.5910145240187791  0.1460246048366500
 
  0.00000000E+00  0.00000000E+00  0.00000000E+00
  0.00000000E+00  0.00000000E+00  0.00000000E+00
  0.00000000E+00  0.00000000E+00  0.00000000E+00
  0.00000000E+00  0.00000000E+00  0.00000000E+00
  0.00000000E+00  0.00000000E+00  0.00000000E+00
  0.00000000E+00  0.00000000E+00  0.00000000E+00
  0.00000000E+00  0.00000000E+00  0.00000000E+00
  0.00000000E+00  0.00000000E+00  0.00000000E+00
  0.00000000E+00  0.00000000E+00  0.00000000E+00
  0.00000000E+00  0.00000000E+00  0.00000000E+00
  0.00000000E+00  0.00000000E+00  0.00000000E+00
  0.00000000E+00  0.00000000E+00  0.00000000E+00
  0.00000000E+00  0.00000000E+00  0.00000000E+00
  0.00000000E+00  0.00000000E+00  0.00000000E+00
  0.00000000E+00  0.00000000E+00  0.00000000E+00
  0.00000000E+00  0.00000000E+00  0.00000000E+00
  0.00000000E+00  0.00000000E+00  0.00000000E+00
  0.00000000E+00  0.00000000E+00  0.00000000E+00
  0.00000000E+00  0.00000000E+00  0.00000000E+00
  0.00000000E+00  0.00000000E+00  0.00000000E+00
  0.00000000E+00  0.00000000E+00  0.00000000E+00
  0.00000000E+00  0.00000000E+00  0.00000000E+00
  0.00000000E+00  0.00000000E+00  0.00000000E+00
  0.00000000E+00  0.00000000E+00  0.00000000E+00
  0.00000000E+00  0.00000000E+00  0.00000000E+00
  0.00000000E+00  0.00000000E+00  0.00000000E+00
  0.00000000E+00  0.00000000E+00  0.00000000E+00
  0.00000000E+00  0.00000000E+00  0.00000000E+00
  0.00000000E+00  0.00000000E+00  0.00000000E+00
  0.00000000E+00  0.00000000E+00  0.00000000E+00
  0.00000000E+00  0.00000000E+00  0.00000000E+00
  0.00000000E+00  0.00000000E+00  0.00000000E+00
  0.00000000E+00  0.00000000E+00  0.00000000E+00
  0.00000000E+00  0.00000000E+00  0.00000000E+00
  0.00000000E+00  0.00000000E+00  0.00000000E+00
  0.00000000E+00  0.00000000E+00  0.00000000E+00
  0.00000000E+00  0.00000000E+00  0.00000000E+00
  0.00000000E+00  0.00000000E+00  0.00000000E+00
  0.00000000E+00  0.00000000E+00  0.00000000E+00
  0.00000000E+00  0.00000000E+00  0.00000000E+00
  0.00000000E+00  0.00000000E+00  0.00000000E+00
  0.00000000E+00  0.00000000E+00  0.00000000E+00
  0.00000000E+00  0.00000000E+00  0.00000000E+00
  0.00000000E+00  0.00000000E+00  0.00000000E+00
  0.00000000E+00  0.00000000E+00  0.00000000E+00
  0.00000000E+00  0.00000000E+00  0.00000000E+00
  0.00000000E+00  0.00000000E+00  0.00000000E+00
  0.00000000E+00  0.00000000E+00  0.00000000E+00
  0.00000000E+00  0.00000000E+00  0.00000000E+00
  0.00000000E+00  0.00000000E+00  0.00000000E+00
  0.00000000E+00  0.00000000E+00  0.00000000E+00
  0.00000000E+00  0.00000000E+00  0.00000000E+00
  0.00000000E+00  0.00000000E+00  0.00000000E+00
  0.00000000E+00  0.00000000E+00  0.00000000E+00
  0.00000000E+00  0.00000000E+00  0.00000000E+00
  0.00000000E+00  0.00000000E+00  0.00000000E+00
  0.00000000E+00  0.00000000E+00  0.00000000E+00
  0.00000000E+00  0.00000000E+00  0.00000000E+00
  0.00000000E+00  0.00000000E+00  0.00000000E+00
