CONTCAR\(2)\(3)                         
   1.00000000000000     
    12.3312997818000003    0.0000000000000000    0.0000000000000000
     0.0001127485000000   12.8291997905000006    0.0000000000000000
     0.0005937186000000    0.0011528207000000   19.9943999824000009
   C    N    Fe   Ni   H 
    54     2     1     1     2
Direct
  0.0559389158258346  0.0532993846159247  0.0535034259632949
  0.1560165874124479  0.1092599832442413  0.0532632747989083
  0.1566990886207778  0.2201621087573127  0.0529081676697740
  0.0566257070884856  0.2750916422027532  0.0522734331580686
  0.2564730785941510  0.0547817102385855  0.0537542925827999
  0.3568001868965421  0.1112206577098655  0.0553437493308616
  0.3575825720265441  0.2228730357184885  0.0557091971306822
  0.2565296363153618  0.2762599076266432  0.0536754970429332
  0.4564712458159841  0.0552193167970259  0.0566641781238852
  0.5574439145443869  0.1112921595665105  0.0585604973513910
  0.5578657214421449  0.2235679914793472  0.0593106762217195
  0.4578292186237806  0.2812347558822329  0.0579079910098524
  0.6567975919666450  0.0516327871182755  0.0588596738572634
  0.7562215178792980  0.1083145562335579  0.0576137138040838
  0.7577606501292395  0.2201313593180610  0.0572016253996455
  0.6597158146092243  0.2798125843555286  0.0595826972200091
  0.8551941523006941  0.0515829233657070  0.0561510985184558
  0.9556573714862066  0.1075427678947932  0.0542174181081201
  0.9570527347069916  0.2187750886460974  0.0533580517337565
  0.8578422138734372  0.2747250585283386  0.0545100070722395
  0.0567640089018103  0.3864463794457381  0.0514846420034999
  0.1553971824715991  0.4424752691461326  0.0512054755405167
  0.1551529249062519  0.5539503585328245  0.0507455898752529
  0.0552737504976453  0.6091292246252734  0.0509721471674467
  0.2550514098026598  0.3870485750291122  0.0526326880554684
  0.3533335525177504  0.4432650182094368  0.0541029359587770
  0.3544087898850574  0.5554248912423196  0.0530928703678579
  0.2542127558604258  0.6104762903321626  0.0512124510284873
  0.7601969599029097  0.4417428632039725  0.0565088669572881
  0.8590551664296954  0.3858469984321153  0.0534507095226063
  0.9574184796007452  0.4422979899085676  0.0517218116227581
  0.9561689274262689  0.5532266787116968  0.0516999955402944
  0.8550010021729538  0.6075557570233761  0.0537222308576063
  0.0548242859864352  0.7202568894299818  0.0515122891395892
  0.1537865006681901  0.7765051265457479  0.0514494796822059
  0.1551063296059811  0.8876088220419156  0.0522919919526187
  0.0552137230169523  0.9424900809020790  0.0532837562365354
  0.2533060680974066  0.7211730754891738  0.0512975709874725
  0.3524518051510095  0.7763638237579543  0.0526326628243582
  0.3549688166217564  0.8877724503518136  0.0536749594779245
  0.2554256212254739  0.9435363032921783  0.0530117529467610
  0.4514650757280138  0.7190889428868144  0.0550819069430018
  0.5542106504851949  0.8857206112332245  0.0586748691700073
  0.4551601965217032  0.9437672961939119  0.0559696686208347
  0.7553682188624189  0.8799082072363107  0.0588541045642596
  0.6562286173339057  0.9392897601585000  0.0594532387773038
  0.8555281643776697  0.7204102481522739  0.0547948978535494
  0.9549678470071060  0.7756398359180492  0.0531786749805445
  0.9554372575607888  0.8864565833572908  0.0543135583692217
  0.8543587946601287  0.9392166401094565  0.0566012405508085
  0.4539147095656518  0.3926568967750723  0.0577217379097758
  0.7553530478774531  0.5539198269305595  0.0565744300358422
  0.5494448147318349  0.7769159280486750  0.0600991378738312
  0.4550045132369905  0.6069675626151960  0.0557359727322752
  0.6642700461779573  0.3861375425780015  0.0609655981378756
  0.7569639484656491  0.7695889715279325  0.0584994419421578
  0.6381715044334452  0.6643520706456765  0.0685157826920472
  0.5648998653769287  0.4934731498245032  0.0640316305242124
  0.6339265571100285  0.6907216803669545  0.1399990255976881
  0.6276301395799588  0.5788553834887118  0.1224695378816620
 
  0.00000000E+00  0.00000000E+00  0.00000000E+00
  0.00000000E+00  0.00000000E+00  0.00000000E+00
  0.00000000E+00  0.00000000E+00  0.00000000E+00
  0.00000000E+00  0.00000000E+00  0.00000000E+00
  0.00000000E+00  0.00000000E+00  0.00000000E+00
  0.00000000E+00  0.00000000E+00  0.00000000E+00
  0.00000000E+00  0.00000000E+00  0.00000000E+00
  0.00000000E+00  0.00000000E+00  0.00000000E+00
  0.00000000E+00  0.00000000E+00  0.00000000E+00
  0.00000000E+00  0.00000000E+00  0.00000000E+00
  0.00000000E+00  0.00000000E+00  0.00000000E+00
  0.00000000E+00  0.00000000E+00  0.00000000E+00
  0.00000000E+00  0.00000000E+00  0.00000000E+00
  0.00000000E+00  0.00000000E+00  0.00000000E+00
  0.00000000E+00  0.00000000E+00  0.00000000E+00
  0.00000000E+00  0.00000000E+00  0.00000000E+00
  0.00000000E+00  0.00000000E+00  0.00000000E+00
  0.00000000E+00  0.00000000E+00  0.00000000E+00
  0.00000000E+00  0.00000000E+00  0.00000000E+00
  0.00000000E+00  0.00000000E+00  0.00000000E+00
  0.00000000E+00  0.00000000E+00  0.00000000E+00
  0.00000000E+00  0.00000000E+00  0.00000000E+00
  0.00000000E+00  0.00000000E+00  0.00000000E+00
  0.00000000E+00  0.00000000E+00  0.00000000E+00
  0.00000000E+00  0.00000000E+00  0.00000000E+00
  0.00000000E+00  0.00000000E+00  0.00000000E+00
  0.00000000E+00  0.00000000E+00  0.00000000E+00
  0.00000000E+00  0.00000000E+00  0.00000000E+00
  0.00000000E+00  0.00000000E+00  0.00000000E+00
  0.00000000E+00  0.00000000E+00  0.00000000E+00
  0.00000000E+00  0.00000000E+00  0.00000000E+00
  0.00000000E+00  0.00000000E+00  0.00000000E+00
  0.00000000E+00  0.00000000E+00  0.00000000E+00
  0.00000000E+00  0.00000000E+00  0.00000000E+00
  0.00000000E+00  0.00000000E+00  0.00000000E+00
  0.00000000E+00  0.00000000E+00  0.00000000E+00
  0.00000000E+00  0.00000000E+00  0.00000000E+00
  0.00000000E+00  0.00000000E+00  0.00000000E+00
  0.00000000E+00  0.00000000E+00  0.00000000E+00
  0.00000000E+00  0.00000000E+00  0.00000000E+00
  0.00000000E+00  0.00000000E+00  0.00000000E+00
  0.00000000E+00  0.00000000E+00  0.00000000E+00
  0.00000000E+00  0.00000000E+00  0.00000000E+00
  0.00000000E+00  0.00000000E+00  0.00000000E+00
  0.00000000E+00  0.00000000E+00  0.00000000E+00
  0.00000000E+00  0.00000000E+00  0.00000000E+00
  0.00000000E+00  0.00000000E+00  0.00000000E+00
  0.00000000E+00  0.00000000E+00  0.00000000E+00
  0.00000000E+00  0.00000000E+00  0.00000000E+00
  0.00000000E+00  0.00000000E+00  0.00000000E+00
  0.00000000E+00  0.00000000E+00  0.00000000E+00
  0.00000000E+00  0.00000000E+00  0.00000000E+00
  0.00000000E+00  0.00000000E+00  0.00000000E+00
  0.00000000E+00  0.00000000E+00  0.00000000E+00
  0.00000000E+00  0.00000000E+00  0.00000000E+00
  0.00000000E+00  0.00000000E+00  0.00000000E+00
  0.00000000E+00  0.00000000E+00  0.00000000E+00
  0.00000000E+00  0.00000000E+00  0.00000000E+00
  0.00000000E+00  0.00000000E+00  0.00000000E+00
  0.00000000E+00  0.00000000E+00  0.00000000E+00
