CONTCAR\(3)                             
   1.00000000000000     
    12.3312997818000003    0.0000000000000000    0.0000000000000000
     0.0001127485000000   12.8291997905000006    0.0000000000000000
     0.0005937186000000    0.0011528207000000   19.9943999824000009
   C    N    Fe   Ni   O 
    53     3     1     1     2
Direct
  0.0558515758320607  0.0552890589094050  0.0496542032762755
  0.1563340974896565  0.1110769488188972  0.0495649697806561
  0.1569534778811708  0.2221337379798982  0.0489558655454258
  0.0565760750729688  0.2764347872269097  0.0483225000362032
  0.2564692066413615  0.0563225601059253  0.0506218169281783
  0.3570088181090301  0.1118766396787597  0.0530133869271531
  0.3575371647147293  0.2237809456608049  0.0529850429107583
  0.2570849579260497  0.2783939096281671  0.0498388401782636
  0.4566543193370009  0.0556405835890727  0.0557579808605313
  0.5567937371542133  0.1116305424180757  0.0583869397827700
  0.5575553072500475  0.2243960740984687  0.0595913289574323
  0.4576803424990013  0.2813869767559608  0.0568140404242357
  0.6548510746919739  0.0516710949999491  0.0586637810685036
  0.7549074820457246  0.1088437447481629  0.0563520132530590
  0.7565251576100168  0.2211502379650993  0.0563683030964040
  0.6586038128412507  0.2807725920479138  0.0606529445514072
  0.8548683295930573  0.0532587558080859  0.0535638228817907
  0.9552465206754013  0.1095686057506624  0.0509922161183504
  0.9562538804803867  0.2207717891295093  0.0502916212203382
  0.8566600093845040  0.2763683175829336  0.0525930328415432
  0.0567543949973479  0.3873104938363292  0.0468991080615974
  0.1560332531785830  0.4437243852234409  0.0466648890235960
  0.1561298272846712  0.5549870423788585  0.0459575962304509
  0.0571460401712132  0.6101893440358399  0.0454194595538060
  0.2561039492046547  0.3897352614466440  0.0487854140765913
  0.3553986515098468  0.4469812929089763  0.0519318588025388
  0.3549761200645557  0.5595657739521736  0.0530716999122383
  0.2547901745083151  0.6121813543983307  0.0482562474455093
  0.7578606120367446  0.4449529605237408  0.0564079769550187
  0.8571827248140637  0.3877633898788632  0.0513285345951758
  0.9571294241583584  0.4426378982250371  0.0475179852069776
  0.9581419110386453  0.5533261827302774  0.0468246716611994
  0.8591532377406470  0.6076537949922977  0.0505374505795971
  0.0568167859933787  0.7215748092547988  0.0458591179682327
  0.1550085274069161  0.7782836806725201  0.0466324150945092
  0.1553400635687741  0.8894678604625841  0.0479480846762973
  0.0552856728694259  0.9443759259020610  0.0488962433810684
  0.2537275054771366  0.7227921080922821  0.0483089336968125
  0.3525357821316299  0.7779159134076138  0.0515351521911011
  0.3545472461412601  0.8890965840333113  0.0519031581596106
  0.2552966382789070  0.9450296598756537  0.0498100976508522
  0.4499367270882652  0.7205604820719015  0.0574624617845197
  0.5520137777983569  0.8828743337699734  0.0591459414061859
  0.4551231507147924  0.9432875523133637  0.0555099024959057
  0.7548354119717009  0.8823171054440323  0.0587086560919406
  0.6539443744338792  0.9385361443922494  0.0598913803710707
  0.8601980148919478  0.7201802163402782  0.0521229965932141
  0.9574682391530005  0.7769091391896277  0.0482673896593114
  0.9556079209546998  0.8880490093262893  0.0501618188912517
  0.8544762366179057  0.9412732753100354  0.0538972909511351
  0.4539498413495441  0.3924779604334025  0.0575047738615966
  0.7579852525321074  0.5568938781671412  0.0563923894205956
  0.7599733876619597  0.7707609036838333  0.0609360475171833
  0.6622472124315015  0.3878745168365373  0.0639701469226060
  0.5465265077650341  0.7741435460476702  0.0612683254472942
  0.4511381104455902  0.6123471730897413  0.0601101177174872
  0.6533233052316625  0.6705202308952611  0.0790741823101877
  0.5581612409281022  0.4849824460144837  0.0841199721298261
  0.6086975615115380  0.5398533534883090  0.1676436225727389
  0.6491199607137008  0.6410951230515738  0.1642918402938917
 
  0.00000000E+00  0.00000000E+00  0.00000000E+00
  0.00000000E+00  0.00000000E+00  0.00000000E+00
  0.00000000E+00  0.00000000E+00  0.00000000E+00
  0.00000000E+00  0.00000000E+00  0.00000000E+00
  0.00000000E+00  0.00000000E+00  0.00000000E+00
  0.00000000E+00  0.00000000E+00  0.00000000E+00
  0.00000000E+00  0.00000000E+00  0.00000000E+00
  0.00000000E+00  0.00000000E+00  0.00000000E+00
  0.00000000E+00  0.00000000E+00  0.00000000E+00
  0.00000000E+00  0.00000000E+00  0.00000000E+00
  0.00000000E+00  0.00000000E+00  0.00000000E+00
  0.00000000E+00  0.00000000E+00  0.00000000E+00
  0.00000000E+00  0.00000000E+00  0.00000000E+00
  0.00000000E+00  0.00000000E+00  0.00000000E+00
  0.00000000E+00  0.00000000E+00  0.00000000E+00
  0.00000000E+00  0.00000000E+00  0.00000000E+00
  0.00000000E+00  0.00000000E+00  0.00000000E+00
  0.00000000E+00  0.00000000E+00  0.00000000E+00
  0.00000000E+00  0.00000000E+00  0.00000000E+00
  0.00000000E+00  0.00000000E+00  0.00000000E+00
  0.00000000E+00  0.00000000E+00  0.00000000E+00
  0.00000000E+00  0.00000000E+00  0.00000000E+00
  0.00000000E+00  0.00000000E+00  0.00000000E+00
  0.00000000E+00  0.00000000E+00  0.00000000E+00
  0.00000000E+00  0.00000000E+00  0.00000000E+00
  0.00000000E+00  0.00000000E+00  0.00000000E+00
  0.00000000E+00  0.00000000E+00  0.00000000E+00
  0.00000000E+00  0.00000000E+00  0.00000000E+00
  0.00000000E+00  0.00000000E+00  0.00000000E+00
  0.00000000E+00  0.00000000E+00  0.00000000E+00
  0.00000000E+00  0.00000000E+00  0.00000000E+00
  0.00000000E+00  0.00000000E+00  0.00000000E+00
  0.00000000E+00  0.00000000E+00  0.00000000E+00
  0.00000000E+00  0.00000000E+00  0.00000000E+00
  0.00000000E+00  0.00000000E+00  0.00000000E+00
  0.00000000E+00  0.00000000E+00  0.00000000E+00
  0.00000000E+00  0.00000000E+00  0.00000000E+00
  0.00000000E+00  0.00000000E+00  0.00000000E+00
  0.00000000E+00  0.00000000E+00  0.00000000E+00
  0.00000000E+00  0.00000000E+00  0.00000000E+00
  0.00000000E+00  0.00000000E+00  0.00000000E+00
  0.00000000E+00  0.00000000E+00  0.00000000E+00
  0.00000000E+00  0.00000000E+00  0.00000000E+00
  0.00000000E+00  0.00000000E+00  0.00000000E+00
  0.00000000E+00  0.00000000E+00  0.00000000E+00
  0.00000000E+00  0.00000000E+00  0.00000000E+00
  0.00000000E+00  0.00000000E+00  0.00000000E+00
  0.00000000E+00  0.00000000E+00  0.00000000E+00
  0.00000000E+00  0.00000000E+00  0.00000000E+00
  0.00000000E+00  0.00000000E+00  0.00000000E+00
  0.00000000E+00  0.00000000E+00  0.00000000E+00
  0.00000000E+00  0.00000000E+00  0.00000000E+00
  0.00000000E+00  0.00000000E+00  0.00000000E+00
  0.00000000E+00  0.00000000E+00  0.00000000E+00
  0.00000000E+00  0.00000000E+00  0.00000000E+00
  0.00000000E+00  0.00000000E+00  0.00000000E+00
  0.00000000E+00  0.00000000E+00  0.00000000E+00
  0.00000000E+00  0.00000000E+00  0.00000000E+00
  0.00000000E+00  0.00000000E+00  0.00000000E+00
  0.00000000E+00  0.00000000E+00  0.00000000E+00
