CONTCAR                                 
   1.00000000000000     
    12.3312997818000003    0.0000000000000000    0.0000000000000000
     0.0001127485000000   12.8291997905000006    0.0000000000000000
     0.0005937186000000    0.0011528207000000   19.9943999824000009
   C    N    Fe   Ni   O 
    53     3     1     1     1
Direct
  0.0556634654715406  0.0536554995149325  0.0511942049150755
  0.1561058547512141  0.1091054596219917  0.0522075911879077
  0.1560848821290184  0.2199042844721336  0.0502982012534521
  0.0564869787647270  0.2754232212160612  0.0475629773813980
  0.2568465238437139  0.0550913111942150  0.0555338106593325
  0.3569309534305258  0.1118889221445775  0.0588247516762749
  0.3565760421177087  0.2237441610307156  0.0578269934301934
  0.2553939196441556  0.2760402731403938  0.0523774376078090
  0.4570203669443906  0.0571685986075819  0.0629963899691431
  0.5565411179692934  0.1156581632709034  0.0641487570183683
  0.5572845135594758  0.2296877291024146  0.0646138432346914
  0.4548124202546152  0.2843395154041461  0.0626824802701896
  0.6554038423441993  0.0558328275435117  0.0622684281667225
  0.7553451482820166  0.1114022391302799  0.0574745113707414
  0.7565234187495417  0.2237335547859709  0.0565494903548444
  0.6598251523076388  0.2855668503518262  0.0622822911166230
  0.8547646476716331  0.0541199160229144  0.0539277387610913
  0.9555172005604126  0.1090100475837719  0.0513857315473969
  0.9564867729601529  0.2202229369572096  0.0496309958491333
  0.8573543485140452  0.2767619347283859  0.0511723111854259
  0.0571342050409147  0.3864966010607953  0.0447603481151027
  0.1554606257249994  0.4431004775379225  0.0457866815145916
  0.1556318463898466  0.5543895208495012  0.0457600928613637
  0.0568251803072431  0.6102080719954274  0.0439981479148087
  0.2540753799160041  0.3866444516219282  0.0501997985787723
  0.3518753635080809  0.4415086244846994  0.0565901843529505
  0.3527301016928732  0.5535822970860088  0.0582037675482241
  0.2546560595348003  0.6099861291661992  0.0511760293013241
  0.7614108747700286  0.4452031107680102  0.0519468348614164
  0.8593671785435505  0.3874892823749629  0.0477861093426633
  0.9583454100043782  0.4423751899420096  0.0437942818682113
  0.9583796348758169  0.5531380266541122  0.0429990538165355
  0.8581151450603238  0.6059069463910871  0.0436957966685133
  0.0561988773523544  0.7213352683844940  0.0458303414755717
  0.1556668467033265  0.7769768032781744  0.0496449984682956
  0.1559959744057987  0.8880799376900197  0.0516434588332276
  0.0553315060531516  0.9426421227683903  0.0505768965424046
  0.2552735208969448  0.7212217980393033  0.0532383580142060
  0.3546831882255658  0.7759730615972568  0.0603697428977993
  0.3561921215495401  0.8880202210936058  0.0604225116191371
  0.2563410236021877  0.9436141997935951  0.0556973809221528
  0.4533987185902548  0.7177894606284532  0.0696551217726045
  0.5550849357392376  0.8864696680796904  0.0684228263675949
  0.4561358259956571  0.9445782408031053  0.0646157977590015
  0.7543798114680486  0.8846443114802754  0.0572376957228261
  0.6552312493676121  0.9431421149566591  0.0634634385116412
  0.8558554629555054  0.7191678404458171  0.0468195219667583
  0.9556428464170421  0.7756158934234032  0.0468143441616077
  0.9548950273026947  0.8870110589725294  0.0498468930863272
  0.8542862361064461  0.9419823162237628  0.0532580768389283
  0.4513237222244780  0.6048131999688826  0.0708362462189670
  0.5520612677317602  0.7760643017983805  0.0741462413511805
  0.7556450422106319  0.7726306576213765  0.0541540088764577
  0.4487943009246174  0.3919691191781499  0.0642943811134474
  0.6657564506880438  0.3939163724635237  0.0639175988241757
  0.7627321954426822  0.5521156492761740  0.0454752995594297
  0.6509159412213248  0.6658469054635877  0.0733889194879226
  0.5537244055445114  0.4966360093708255  0.0879882279835785
  0.6249989726416981  0.5860474144439694  0.1426956209244452
 
  0.00000000E+00  0.00000000E+00  0.00000000E+00
  0.00000000E+00  0.00000000E+00  0.00000000E+00
  0.00000000E+00  0.00000000E+00  0.00000000E+00
  0.00000000E+00  0.00000000E+00  0.00000000E+00
  0.00000000E+00  0.00000000E+00  0.00000000E+00
  0.00000000E+00  0.00000000E+00  0.00000000E+00
  0.00000000E+00  0.00000000E+00  0.00000000E+00
  0.00000000E+00  0.00000000E+00  0.00000000E+00
  0.00000000E+00  0.00000000E+00  0.00000000E+00
  0.00000000E+00  0.00000000E+00  0.00000000E+00
  0.00000000E+00  0.00000000E+00  0.00000000E+00
  0.00000000E+00  0.00000000E+00  0.00000000E+00
  0.00000000E+00  0.00000000E+00  0.00000000E+00
  0.00000000E+00  0.00000000E+00  0.00000000E+00
  0.00000000E+00  0.00000000E+00  0.00000000E+00
  0.00000000E+00  0.00000000E+00  0.00000000E+00
  0.00000000E+00  0.00000000E+00  0.00000000E+00
  0.00000000E+00  0.00000000E+00  0.00000000E+00
  0.00000000E+00  0.00000000E+00  0.00000000E+00
  0.00000000E+00  0.00000000E+00  0.00000000E+00
  0.00000000E+00  0.00000000E+00  0.00000000E+00
  0.00000000E+00  0.00000000E+00  0.00000000E+00
  0.00000000E+00  0.00000000E+00  0.00000000E+00
  0.00000000E+00  0.00000000E+00  0.00000000E+00
  0.00000000E+00  0.00000000E+00  0.00000000E+00
  0.00000000E+00  0.00000000E+00  0.00000000E+00
  0.00000000E+00  0.00000000E+00  0.00000000E+00
  0.00000000E+00  0.00000000E+00  0.00000000E+00
  0.00000000E+00  0.00000000E+00  0.00000000E+00
  0.00000000E+00  0.00000000E+00  0.00000000E+00
  0.00000000E+00  0.00000000E+00  0.00000000E+00
  0.00000000E+00  0.00000000E+00  0.00000000E+00
  0.00000000E+00  0.00000000E+00  0.00000000E+00
  0.00000000E+00  0.00000000E+00  0.00000000E+00
  0.00000000E+00  0.00000000E+00  0.00000000E+00
  0.00000000E+00  0.00000000E+00  0.00000000E+00
  0.00000000E+00  0.00000000E+00  0.00000000E+00
  0.00000000E+00  0.00000000E+00  0.00000000E+00
  0.00000000E+00  0.00000000E+00  0.00000000E+00
  0.00000000E+00  0.00000000E+00  0.00000000E+00
  0.00000000E+00  0.00000000E+00  0.00000000E+00
  0.00000000E+00  0.00000000E+00  0.00000000E+00
  0.00000000E+00  0.00000000E+00  0.00000000E+00
  0.00000000E+00  0.00000000E+00  0.00000000E+00
  0.00000000E+00  0.00000000E+00  0.00000000E+00
  0.00000000E+00  0.00000000E+00  0.00000000E+00
  0.00000000E+00  0.00000000E+00  0.00000000E+00
  0.00000000E+00  0.00000000E+00  0.00000000E+00
  0.00000000E+00  0.00000000E+00  0.00000000E+00
  0.00000000E+00  0.00000000E+00  0.00000000E+00
  0.00000000E+00  0.00000000E+00  0.00000000E+00
  0.00000000E+00  0.00000000E+00  0.00000000E+00
  0.00000000E+00  0.00000000E+00  0.00000000E+00
  0.00000000E+00  0.00000000E+00  0.00000000E+00
  0.00000000E+00  0.00000000E+00  0.00000000E+00
  0.00000000E+00  0.00000000E+00  0.00000000E+00
  0.00000000E+00  0.00000000E+00  0.00000000E+00
  0.00000000E+00  0.00000000E+00  0.00000000E+00
  0.00000000E+00  0.00000000E+00  0.00000000E+00
