CONTCAR\(2)                             
   1.00000000000000     
    12.3312997818000003    0.0000000000000000    0.0000000000000000
     0.0001127485000000   12.8291997905000006    0.0000000000000000
     0.0005937186000000    0.0011528207000000   19.9943999824000009
   C    N    Fe   Ni   O 
    52     4     1     1     2
Direct
  0.0550111446553887  0.0540558467665895  0.0497594309918290
  0.1552612602668093  0.1097551739600253  0.0498022812396235
  0.1555239444389855  0.2205546237028439  0.0490503393723434
  0.0555171646142620  0.2757374842525384  0.0482922644795315
  0.2557473972381977  0.0551160989988088  0.0510923799262804
  0.3563120914723668  0.1106060177487762  0.0537592437043808
  0.3562751580899535  0.2224891672837903  0.0535322423510068
  0.2556283701823682  0.2762058526227549  0.0499700194014504
  0.4560446909841328  0.0545831568226981  0.0566890004795273
  0.5558549515864032  0.1113246564302467  0.0595992165263275
  0.5561135861283579  0.2242952702816840  0.0612424897656183
  0.4553585014323818  0.2811339755773591  0.0574528806711729
  0.6550252692032756  0.0512613170522716  0.0592898476359121
  0.7544845426949893  0.1087182922363046  0.0566590974841151
  0.7554960452838049  0.2212630714037099  0.0571194872411896
  0.6573083400723846  0.2811688199663466  0.0629700716653746
  0.8541190550108584  0.0523653971436905  0.0535103269965209
  0.9544820517061570  0.1088124837480736  0.0510598910624376
  0.9551434741114030  0.2204735045907629  0.0503928350846162
  0.8553949990826211  0.2768522773065142  0.0528723131041956
  0.0567353525442057  0.3870008462840652  0.0467338265884055
  0.1561609190258810  0.4429673598254419  0.0462276261270465
  0.1566211921719438  0.5539724510728616  0.0455167651322894
  0.0571197043265502  0.6097357221808695  0.0453470888641580
  0.2559268883390881  0.3871836211345485  0.0483369764120320
  0.3554848675333666  0.4418121827532442  0.0510374388823666
  0.3578434479829555  0.5552025370165674  0.0512604655597509
  0.2565340278635394  0.6095209888054799  0.0470892306155191
  0.7596446033695697  0.4481723516531395  0.0576233524079690
  0.8573912382974488  0.3887577468630610  0.0513603307967513
  0.9574278545698472  0.4428323540025870  0.0473713450042553
  0.9576916506817738  0.5539072740566445  0.0467425756458811
  0.8577670726013518  0.6083408200096612  0.0497946997290438
  0.0563399681587253  0.7206139256959482  0.0458605014753853
  0.1551175068538832  0.7766731072263092  0.0466423448205026
  0.1552038292491300  0.8878682869595212  0.0481231352601549
  0.0550200404837607  0.9429825624406898  0.0489432086058648
  0.2546274755774036  0.7206990475094903  0.0477835924761202
  0.3527351625283742  0.7772718302860885  0.0517422534293596
  0.3542616764709711  0.8883013567797025  0.0524546029457473
  0.2548556099430632  0.9440173727599389  0.0501600746674929
  0.4508826923374001  0.7211296154698824  0.0581176049305123
  0.5526694618623476  0.8826407207819310  0.0600944949428729
  0.4546638842118712  0.9427234550969151  0.0564178021231566
  0.7555592687267292  0.8802580315851808  0.0567604174233850
  0.6549098490346748  0.9374218666293820  0.0596695664765959
  0.8577291026821070  0.7206221143854732  0.0503296161543819
  0.9564277321726495  0.7758530423247567  0.0479267759173805
  0.9555145196821776  0.8869138766140433  0.0497885978724682
  0.8543459162608869  0.9401121631482012  0.0532507991538983
  0.4571851789531545  0.6098939085173312  0.0599085525201903
  0.6626780398181459  0.3912538042975721  0.0687567371392077
  0.4522228945552687  0.3895093431914266  0.0566832997620198
  0.7606283287329677  0.5576080420474606  0.0544406739557702
  0.5472177472987375  0.7760947935528497  0.0624883596709419
  0.7593557714168900  0.7710128901647395  0.0558462044254466
  0.6485109262550397  0.6680919289974675  0.0697725229192631
  0.5560065208131637  0.4879020268266400  0.0858869887711950
  0.6135529205966289  0.5415953923734944  0.1641488411411969
  0.6465369797612065  0.6446468657836222  0.1588850380705354
 
  0.00000000E+00  0.00000000E+00  0.00000000E+00
  0.00000000E+00  0.00000000E+00  0.00000000E+00
  0.00000000E+00  0.00000000E+00  0.00000000E+00
  0.00000000E+00  0.00000000E+00  0.00000000E+00
  0.00000000E+00  0.00000000E+00  0.00000000E+00
  0.00000000E+00  0.00000000E+00  0.00000000E+00
  0.00000000E+00  0.00000000E+00  0.00000000E+00
  0.00000000E+00  0.00000000E+00  0.00000000E+00
  0.00000000E+00  0.00000000E+00  0.00000000E+00
  0.00000000E+00  0.00000000E+00  0.00000000E+00
  0.00000000E+00  0.00000000E+00  0.00000000E+00
  0.00000000E+00  0.00000000E+00  0.00000000E+00
  0.00000000E+00  0.00000000E+00  0.00000000E+00
  0.00000000E+00  0.00000000E+00  0.00000000E+00
  0.00000000E+00  0.00000000E+00  0.00000000E+00
  0.00000000E+00  0.00000000E+00  0.00000000E+00
  0.00000000E+00  0.00000000E+00  0.00000000E+00
  0.00000000E+00  0.00000000E+00  0.00000000E+00
  0.00000000E+00  0.00000000E+00  0.00000000E+00
  0.00000000E+00  0.00000000E+00  0.00000000E+00
  0.00000000E+00  0.00000000E+00  0.00000000E+00
  0.00000000E+00  0.00000000E+00  0.00000000E+00
  0.00000000E+00  0.00000000E+00  0.00000000E+00
  0.00000000E+00  0.00000000E+00  0.00000000E+00
  0.00000000E+00  0.00000000E+00  0.00000000E+00
  0.00000000E+00  0.00000000E+00  0.00000000E+00
  0.00000000E+00  0.00000000E+00  0.00000000E+00
  0.00000000E+00  0.00000000E+00  0.00000000E+00
  0.00000000E+00  0.00000000E+00  0.00000000E+00
  0.00000000E+00  0.00000000E+00  0.00000000E+00
  0.00000000E+00  0.00000000E+00  0.00000000E+00
  0.00000000E+00  0.00000000E+00  0.00000000E+00
  0.00000000E+00  0.00000000E+00  0.00000000E+00
  0.00000000E+00  0.00000000E+00  0.00000000E+00
  0.00000000E+00  0.00000000E+00  0.00000000E+00
  0.00000000E+00  0.00000000E+00  0.00000000E+00
  0.00000000E+00  0.00000000E+00  0.00000000E+00
  0.00000000E+00  0.00000000E+00  0.00000000E+00
  0.00000000E+00  0.00000000E+00  0.00000000E+00
  0.00000000E+00  0.00000000E+00  0.00000000E+00
  0.00000000E+00  0.00000000E+00  0.00000000E+00
  0.00000000E+00  0.00000000E+00  0.00000000E+00
  0.00000000E+00  0.00000000E+00  0.00000000E+00
  0.00000000E+00  0.00000000E+00  0.00000000E+00
  0.00000000E+00  0.00000000E+00  0.00000000E+00
  0.00000000E+00  0.00000000E+00  0.00000000E+00
  0.00000000E+00  0.00000000E+00  0.00000000E+00
  0.00000000E+00  0.00000000E+00  0.00000000E+00
  0.00000000E+00  0.00000000E+00  0.00000000E+00
  0.00000000E+00  0.00000000E+00  0.00000000E+00
  0.00000000E+00  0.00000000E+00  0.00000000E+00
  0.00000000E+00  0.00000000E+00  0.00000000E+00
  0.00000000E+00  0.00000000E+00  0.00000000E+00
  0.00000000E+00  0.00000000E+00  0.00000000E+00
  0.00000000E+00  0.00000000E+00  0.00000000E+00
  0.00000000E+00  0.00000000E+00  0.00000000E+00
  0.00000000E+00  0.00000000E+00  0.00000000E+00
  0.00000000E+00  0.00000000E+00  0.00000000E+00
  0.00000000E+00  0.00000000E+00  0.00000000E+00
  0.00000000E+00  0.00000000E+00  0.00000000E+00
