CONTCAR                                 
   1.00000000000000     
    12.3312997818000003    0.0000000000000000    0.0000000000000000
     0.0001127485000000   12.8291997905000006    0.0000000000000000
     0.0005937186000000    0.0011528207000000   19.9943999824000009
   C    N    Fe   Ni   O    H 
    53     3     1     1     1     1
Direct
  0.0563070940577404  0.0564280433638963  0.0496702552710585
  0.1567287612119638  0.1118689792713376  0.0490545348394052
  0.1569907975739020  0.2229135331449402  0.0484100541637092
  0.0563371228288635  0.2775264805581559  0.0488540374257433
  0.2568703459764064  0.0565215450080213  0.0499317319392116
  0.3574999799434878  0.1114337075060572  0.0528135870746481
  0.3578818365557493  0.2234423524379155  0.0524436704787557
  0.2574963264704271  0.2785057672453703  0.0486279619686231
  0.4569864286932110  0.0544159933493475  0.0566131485842224
  0.5571796972157411  0.1098173202782966  0.0607985965571861
  0.5573016623730803  0.2221878081008694  0.0624017257881852
  0.4578918612113269  0.2803666465057064  0.0572242935230070
  0.6560997591108166  0.0503092517922292  0.0617368054343902
  0.7554461922223954  0.1086980028598051  0.0596861659509275
  0.7561003664882395  0.2213359465735844  0.0609371436755874
  0.6572369632910889  0.2792772995003444  0.0659790150950513
  0.8554889565619512  0.0538580951855506  0.0554860248257959
  0.9556064102316567  0.1105712647155555  0.0523683878816077
  0.9559276029058698  0.2220716631545914  0.0522669220047462
  0.8559937678339797  0.2777056611892141  0.0562952610671723
  0.0565140949766862  0.3886592237863362  0.0471849489828648
  0.1564611095931207  0.4442907440137180  0.0450525830302497
  0.1562292589602928  0.5552971280758368  0.0438135897235431
  0.0572245502635563  0.6111342736643658  0.0443084034374115
  0.2570272465824877  0.3899783263119181  0.0467725250000523
  0.3569890158319450  0.4463864811478325  0.0493219746000451
  0.3553854619372188  0.5594748707143528  0.0492105750305584
  0.2551025249393739  0.6122116756185004  0.0450844833949927
  0.7575418401390320  0.4479127422934649  0.0635085437872686
  0.8566868703347038  0.3896905560181787  0.0554991562318358
  0.9567933040642574  0.4443035633842020  0.0495421569704533
  0.9577212197365536  0.5556377974074789  0.0479359154320237
  0.8592129876372909  0.6117601437134389  0.0535745642281476
  0.0573555752249076  0.7223136824578662  0.0446068027974072
  0.1557406474262859  0.7788881000917803  0.0445593201626968
  0.1561838763939884  0.8899390358115313  0.0465705074426239
  0.0564637917712208  0.9455424260204742  0.0482509293240541
  0.2544751081475675  0.7229888521007525  0.0454153339642995
  0.3532740459818955  0.7779953599617414  0.0497175538430290
  0.3551996145654474  0.8888908378389303  0.0513927748799818
  0.2561600872675168  0.9452699442244743  0.0488121574442470
  0.4506473167287595  0.7203463441620740  0.0567249995853637
  0.5527698096940986  0.8811425229028687  0.0621775165801993
  0.4559167093358210  0.9423194085991414  0.0564759240354768
  0.7577268632037899  0.8817092635088417  0.0594993926664281
  0.6554897027843435  0.9364049448068067  0.0625216359232740
  0.8607618354453729  0.7237163833738676  0.0529776893178863
  0.9586871258070168  0.7787339211063293  0.0480606531834193
  0.9571886965251281  0.8894058365046098  0.0499023222813779
  0.8559033461268009  0.9419916809839700  0.0546071108247094
  0.4567892967956994  0.3919887893714782  0.0562528092839572
  0.6594899567730957  0.3899837401871175  0.0711042365956835
  0.7589675922506676  0.5610585268358997  0.0644097452108084
  0.4509728438758103  0.6130645157603083  0.0559158161340756
  0.5467503409127482  0.7730178808640682  0.0662103985796872
  0.7633172564625873  0.7736953626753382  0.0602339281967198
  0.6595846904868733  0.6702374019082107  0.0904721946538853
  0.5564883288731949  0.4896516083018277  0.0811907296950679
  0.6024254054023412  0.5814997898111455  0.1563286518588754
  0.5371785609826037  0.6113509209381358  0.1763101361362784
 
  0.00000000E+00  0.00000000E+00  0.00000000E+00
  0.00000000E+00  0.00000000E+00  0.00000000E+00
  0.00000000E+00  0.00000000E+00  0.00000000E+00
  0.00000000E+00  0.00000000E+00  0.00000000E+00
  0.00000000E+00  0.00000000E+00  0.00000000E+00
  0.00000000E+00  0.00000000E+00  0.00000000E+00
  0.00000000E+00  0.00000000E+00  0.00000000E+00
  0.00000000E+00  0.00000000E+00  0.00000000E+00
  0.00000000E+00  0.00000000E+00  0.00000000E+00
  0.00000000E+00  0.00000000E+00  0.00000000E+00
  0.00000000E+00  0.00000000E+00  0.00000000E+00
  0.00000000E+00  0.00000000E+00  0.00000000E+00
  0.00000000E+00  0.00000000E+00  0.00000000E+00
  0.00000000E+00  0.00000000E+00  0.00000000E+00
  0.00000000E+00  0.00000000E+00  0.00000000E+00
  0.00000000E+00  0.00000000E+00  0.00000000E+00
  0.00000000E+00  0.00000000E+00  0.00000000E+00
  0.00000000E+00  0.00000000E+00  0.00000000E+00
  0.00000000E+00  0.00000000E+00  0.00000000E+00
  0.00000000E+00  0.00000000E+00  0.00000000E+00
  0.00000000E+00  0.00000000E+00  0.00000000E+00
  0.00000000E+00  0.00000000E+00  0.00000000E+00
  0.00000000E+00  0.00000000E+00  0.00000000E+00
  0.00000000E+00  0.00000000E+00  0.00000000E+00
  0.00000000E+00  0.00000000E+00  0.00000000E+00
  0.00000000E+00  0.00000000E+00  0.00000000E+00
  0.00000000E+00  0.00000000E+00  0.00000000E+00
  0.00000000E+00  0.00000000E+00  0.00000000E+00
  0.00000000E+00  0.00000000E+00  0.00000000E+00
  0.00000000E+00  0.00000000E+00  0.00000000E+00
  0.00000000E+00  0.00000000E+00  0.00000000E+00
  0.00000000E+00  0.00000000E+00  0.00000000E+00
  0.00000000E+00  0.00000000E+00  0.00000000E+00
  0.00000000E+00  0.00000000E+00  0.00000000E+00
  0.00000000E+00  0.00000000E+00  0.00000000E+00
  0.00000000E+00  0.00000000E+00  0.00000000E+00
  0.00000000E+00  0.00000000E+00  0.00000000E+00
  0.00000000E+00  0.00000000E+00  0.00000000E+00
  0.00000000E+00  0.00000000E+00  0.00000000E+00
  0.00000000E+00  0.00000000E+00  0.00000000E+00
  0.00000000E+00  0.00000000E+00  0.00000000E+00
  0.00000000E+00  0.00000000E+00  0.00000000E+00
  0.00000000E+00  0.00000000E+00  0.00000000E+00
  0.00000000E+00  0.00000000E+00  0.00000000E+00
  0.00000000E+00  0.00000000E+00  0.00000000E+00
  0.00000000E+00  0.00000000E+00  0.00000000E+00
  0.00000000E+00  0.00000000E+00  0.00000000E+00
  0.00000000E+00  0.00000000E+00  0.00000000E+00
  0.00000000E+00  0.00000000E+00  0.00000000E+00
  0.00000000E+00  0.00000000E+00  0.00000000E+00
  0.00000000E+00  0.00000000E+00  0.00000000E+00
  0.00000000E+00  0.00000000E+00  0.00000000E+00
  0.00000000E+00  0.00000000E+00  0.00000000E+00
  0.00000000E+00  0.00000000E+00  0.00000000E+00
  0.00000000E+00  0.00000000E+00  0.00000000E+00
  0.00000000E+00  0.00000000E+00  0.00000000E+00
  0.00000000E+00  0.00000000E+00  0.00000000E+00
  0.00000000E+00  0.00000000E+00  0.00000000E+00
  0.00000000E+00  0.00000000E+00  0.00000000E+00
  0.00000000E+00  0.00000000E+00  0.00000000E+00
