CONTCAR\(4)                             
   1.00000000000000     
    12.3312997818000003    0.0000000000000000    0.0000000000000000
     0.0001127485000000   12.8291997905000006    0.0000000000000000
     0.0005937186000000    0.0011528207000000   19.9943999824000009
   C    N    Fe   Ni   O 
    52     4     1     1     2
Direct
  0.0552430873331557  0.0537509576127946  0.0497947360905445
  0.1557333359833748  0.1097086165250987  0.0496037233298167
  0.1563720349793906  0.2205803196100050  0.0489937982728059
  0.0560708473266903  0.2753285196750857  0.0489839076386072
  0.2563710124456912  0.0553153613112392  0.0508373495563983
  0.3570410072435841  0.1112719065950924  0.0529064725790056
  0.3577104957821758  0.2232676085951571  0.0523371414509610
  0.2565429762674696  0.2767202999329543  0.0495126503436767
  0.4569032503669503  0.0551729436323431  0.0558383775151066
  0.5575242475708554  0.1113869425731402  0.0583656289207609
  0.5584859917492961  0.2247778137141541  0.0593735074446264
  0.4579682979194444  0.2819218653995908  0.0556416563439182
  0.6556933374041243  0.0507629827928847  0.0583723756166122
  0.7549143724295534  0.1079321204793543  0.0562283732167196
  0.7564998842972959  0.2207867779925441  0.0567595170227720
  0.6597266560279056  0.2811539953528275  0.0610413530546453
  0.8544448052325729  0.0518306456855352  0.0533734340279147
  0.9549355003968610  0.1080799929305917  0.0511987941570174
  0.9560962614236557  0.2196139350213631  0.0509269730323896
  0.8566694310282149  0.2756106245005729  0.0532991769633745
  0.0562244007536910  0.3866646506550231  0.0481127196318986
  0.1551698910372612  0.4429130517333871  0.0478284252146796
  0.1550689437208694  0.5542379149544837  0.0476703264797578
  0.0558029191793488  0.6095446742637730  0.0472919793397039
  0.2549699216219935  0.3878055217897475  0.0488373950781642
  0.3533233963439376  0.4444934554473364  0.0511632918459993
  0.3542901863816106  0.5568436983924978  0.0531632417850842
  0.2542831916857043  0.6109656179764263  0.0495170742673771
  0.7591882797211778  0.4446569134792631  0.0565555171153503
  0.8577333264622888  0.3871259860000991  0.0519069632434934
  0.9569802855813760  0.4422004597966795  0.0487291073659852
  0.9564022983108815  0.5533020643535789  0.0482252110485850
  0.8561434410694911  0.6062882068298830  0.0503552062193730
  0.0554691844748926  0.7204396457793817  0.0475296398258544
  0.1542299161712671  0.7771211031501972  0.0483790619637213
  0.1549354744000542  0.8881188893702555  0.0490254463769132
  0.0547210513900353  0.9426527372838047  0.0492839320958541
  0.2534467219566735  0.7217046465574067  0.0499117892682962
  0.3523979283542848  0.7771457325283962  0.0530137498826046
  0.3544087315522385  0.8883555254129908  0.0529626974566647
  0.2550611856965507  0.9441036602949751  0.0506196940697450
  0.4506087310079824  0.7203443001429708  0.0590985158240302
  0.5525902870635171  0.8826510385059899  0.0594972188795851
  0.4549382445450555  0.9430547466950435  0.0560989030079296
  0.7553988544060832  0.8797490452393353  0.0560794379525501
  0.6549972197121356  0.9368100709668606  0.0588128983545059
  0.8566065152327960  0.7190284112052577  0.0506830289421858
  0.9555555349933105  0.7748970098838980  0.0487321062791175
  0.9551322682146013  0.8862158378941862  0.0500385697893810
  0.8542584221501509  0.9395369160224113  0.0529809974572439
  0.4535626064083730  0.3931605471616361  0.0549179513465123
  0.4548414567906016  0.6085435411229475  0.0615912139550001
  0.6642866949904751  0.3897574356537360  0.0651146647913639
  0.7584378055012277  0.5535811666377677  0.0535619698329960
  0.5468614060775913  0.7759120712075005  0.0621842439441179
  0.7588874428760395  0.7705378382276411  0.0551182470455006
  0.6479541777936233  0.6697794594366125  0.0692457776139134
  0.5582118288616913  0.4904808447688888  0.0819791957411038
  0.6155790251380724  0.5458295553419467  0.1630677652474186
  0.6473037321627496  0.6483718549034595  0.1571358638427384
 
  0.00000000E+00  0.00000000E+00  0.00000000E+00
  0.00000000E+00  0.00000000E+00  0.00000000E+00
  0.00000000E+00  0.00000000E+00  0.00000000E+00
  0.00000000E+00  0.00000000E+00  0.00000000E+00
  0.00000000E+00  0.00000000E+00  0.00000000E+00
  0.00000000E+00  0.00000000E+00  0.00000000E+00
  0.00000000E+00  0.00000000E+00  0.00000000E+00
  0.00000000E+00  0.00000000E+00  0.00000000E+00
  0.00000000E+00  0.00000000E+00  0.00000000E+00
  0.00000000E+00  0.00000000E+00  0.00000000E+00
  0.00000000E+00  0.00000000E+00  0.00000000E+00
  0.00000000E+00  0.00000000E+00  0.00000000E+00
  0.00000000E+00  0.00000000E+00  0.00000000E+00
  0.00000000E+00  0.00000000E+00  0.00000000E+00
  0.00000000E+00  0.00000000E+00  0.00000000E+00
  0.00000000E+00  0.00000000E+00  0.00000000E+00
  0.00000000E+00  0.00000000E+00  0.00000000E+00
  0.00000000E+00  0.00000000E+00  0.00000000E+00
  0.00000000E+00  0.00000000E+00  0.00000000E+00
  0.00000000E+00  0.00000000E+00  0.00000000E+00
  0.00000000E+00  0.00000000E+00  0.00000000E+00
  0.00000000E+00  0.00000000E+00  0.00000000E+00
  0.00000000E+00  0.00000000E+00  0.00000000E+00
  0.00000000E+00  0.00000000E+00  0.00000000E+00
  0.00000000E+00  0.00000000E+00  0.00000000E+00
  0.00000000E+00  0.00000000E+00  0.00000000E+00
  0.00000000E+00  0.00000000E+00  0.00000000E+00
  0.00000000E+00  0.00000000E+00  0.00000000E+00
  0.00000000E+00  0.00000000E+00  0.00000000E+00
  0.00000000E+00  0.00000000E+00  0.00000000E+00
  0.00000000E+00  0.00000000E+00  0.00000000E+00
  0.00000000E+00  0.00000000E+00  0.00000000E+00
  0.00000000E+00  0.00000000E+00  0.00000000E+00
  0.00000000E+00  0.00000000E+00  0.00000000E+00
  0.00000000E+00  0.00000000E+00  0.00000000E+00
  0.00000000E+00  0.00000000E+00  0.00000000E+00
  0.00000000E+00  0.00000000E+00  0.00000000E+00
  0.00000000E+00  0.00000000E+00  0.00000000E+00
  0.00000000E+00  0.00000000E+00  0.00000000E+00
  0.00000000E+00  0.00000000E+00  0.00000000E+00
  0.00000000E+00  0.00000000E+00  0.00000000E+00
  0.00000000E+00  0.00000000E+00  0.00000000E+00
  0.00000000E+00  0.00000000E+00  0.00000000E+00
  0.00000000E+00  0.00000000E+00  0.00000000E+00
  0.00000000E+00  0.00000000E+00  0.00000000E+00
  0.00000000E+00  0.00000000E+00  0.00000000E+00
  0.00000000E+00  0.00000000E+00  0.00000000E+00
  0.00000000E+00  0.00000000E+00  0.00000000E+00
  0.00000000E+00  0.00000000E+00  0.00000000E+00
  0.00000000E+00  0.00000000E+00  0.00000000E+00
  0.00000000E+00  0.00000000E+00  0.00000000E+00
  0.00000000E+00  0.00000000E+00  0.00000000E+00
  0.00000000E+00  0.00000000E+00  0.00000000E+00
  0.00000000E+00  0.00000000E+00  0.00000000E+00
  0.00000000E+00  0.00000000E+00  0.00000000E+00
  0.00000000E+00  0.00000000E+00  0.00000000E+00
  0.00000000E+00  0.00000000E+00  0.00000000E+00
  0.00000000E+00  0.00000000E+00  0.00000000E+00
  0.00000000E+00  0.00000000E+00  0.00000000E+00
  0.00000000E+00  0.00000000E+00  0.00000000E+00
